<?xml version="1.0"?>
<VTKFile type="UnstructuredGrid" version="0.1">
<UnstructuredGrid>
<Piece NumberOfPoints="      1156" NumberOfCells="      1024">
<Points>
<DataArray type="Float64"                                    Name="coordinates"                                                      NumberOfComponents=" 3" format="ascii">
              0.133000000               0.000000000               0.000000000               0.155937500               0.000000000               0.000000000               0.178875000               0.000000000               0.000000000               0.201812500               0.000000000               0.000000000               0.224750000               0.000000000               0.000000000               0.247687500               0.000000000               0.000000000               0.270625000               0.000000000               0.000000000               0.293562500               0.000000000               0.000000000               0.316500000               0.000000000               0.000000000               0.339437500               0.000000000               0.000000000               0.362375000               0.000000000               0.000000000               0.385312500               0.000000000               0.000000000               0.408250000               0.000000000               0.000000000               0.431187500               0.000000000               0.000000000               0.454125000               0.000000000               0.000000000               0.477062500               0.000000000               0.000000000               0.500000000               0.000000000               0.000000000               0.132359569               0.013036280               0.000000000               0.155337096               0.016127762               0.000000000               0.178314623               0.019219245               0.000000000               0.201292150               0.022310727               0.000000000               0.224269676               0.025402210               0.000000000               0.247247203               0.028493692               0.000000000               0.270224730               0.031585175               0.000000000               0.293202257               0.034676657               0.000000000               0.316179784               0.037768140               0.000000000               0.339157311               0.040859622               0.000000000               0.362134838               0.043951105               0.000000000               0.385112365               0.047042587               0.000000000               0.408089892               0.050134070               0.000000000               0.431067419               0.053225552               0.000000000               0.454044946               0.056317035               0.000000000               0.477022473               0.059408517               0.000000000               0.500000000               0.062500000               0.000000000               0.130444442               0.025947013               0.000000000               0.153541665               0.032137825               0.000000000               0.176638887               0.038328636               0.000000000               0.199736109               0.044519448               0.000000000               0.222833332               0.050710260               0.000000000               0.245930554               0.056901071               0.000000000               0.269027776               0.063091883               0.000000000               0.292124999               0.069282695               0.000000000               0.315222221               0.075473506               0.000000000               0.338319444               0.081664318               0.000000000               0.361416666               0.087855130               0.000000000               0.384513888               0.094045942               0.000000000               0.407611111               0.100236753               0.000000000               0.430708333               0.106427565               0.000000000               0.453805555               0.112618377               0.000000000               0.476902778               0.118809188               0.000000000               0.500000000               0.125000000               0.000000000               0.127273065               0.038607862               0.000000000               0.150568498               0.047913621               0.000000000               0.173863932               0.057219379               0.000000000               0.197159365               0.066525138               0.000000000               0.220454798               0.075830897               0.000000000               0.243750232               0.085136655               0.000000000               0.267045665               0.094442414               0.000000000               0.290341099               0.103748172               0.000000000               0.313636532               0.113053931               0.000000000               0.336931966               0.122359690               0.000000000               0.360227399               0.131665448               0.000000000               0.383522833               0.140971207               0.000000000               0.406818266               0.150276966               0.000000000               0.430113700               0.159582724               0.000000000               0.453409133               0.168888483               0.000000000               0.476704567               0.178194241               0.000000000               0.500000000               0.187500000               0.000000000               0.122875978               0.050896897               0.000000000               0.146446229               0.063340840               0.000000000               0.170016481               0.075784784               0.000000000               0.193586732               0.088228728               0.000000000               0.217156983               0.100672672               0.000000000               0.240727235               0.113116616               0.000000000               0.264297486               0.125560560               0.000000000               0.287867738               0.138004504               0.000000000               0.311437989               0.150448448               0.000000000               0.335008240               0.162892392               0.000000000               0.358578492               0.175336336               0.000000000               0.382148743               0.187780280               0.000000000               0.405718994               0.200224224               0.000000000               0.429289246               0.212668168               0.000000000               0.452859497               0.225112112               0.000000000               0.476429749               0.237556056               0.000000000               0.500000000               0.250000000               0.000000000               0.117295528               0.062695766               0.000000000               0.141214558               0.078308531               0.000000000               0.165133587               0.093921295               0.000000000               0.189052617               0.109534060               0.000000000               0.212971646               0.125146824               0.000000000               0.236890676               0.140759589               0.000000000               0.260809705               0.156372354               0.000000000               0.284728735               0.171985118               0.000000000               0.308647764               0.187597883               0.000000000               0.332566794               0.203210648               0.000000000               0.356485823               0.218823412               0.000000000               0.380404853               0.234436177               0.000000000               0.404323882               0.250048941               0.000000000               0.428242912               0.265661706               0.000000000               0.452161941               0.281274471               0.000000000               0.476080971               0.296887235               0.000000000               0.500000000               0.312500000               0.000000000               0.110585458               0.073890841               0.000000000               0.134923867               0.092710163               0.000000000               0.159262276               0.111529486               0.000000000               0.183600685               0.130348808               0.000000000               0.207939094               0.149168131               0.000000000               0.232277503               0.167987453               0.000000000               0.256615912               0.186806776               0.000000000               0.280954320               0.205626098               0.000000000               0.305292729               0.224445420               0.000000000               0.329631138               0.243264743               0.000000000               0.353969547               0.262084065               0.000000000               0.378307956               0.280903388               0.000000000               0.402646365               0.299722710               0.000000000               0.426984773               0.318542033               0.000000000               0.451323182               0.337361355               0.000000000               0.475661591               0.356180678               0.000000000               0.500000000               0.375000000               0.000000000               0.102810390               0.084374307               0.000000000               0.127634741               0.106444663               0.000000000               0.152459092               0.128515018               0.000000000               0.177283442               0.150585374               0.000000000               0.202107793               0.172655730               0.000000000               0.226932143               0.194726086               0.000000000               0.251756494               0.216796442               0.000000000               0.276580845               0.238866798               0.000000000               0.301405195               0.260937153               0.000000000               0.326229546               0.283007509               0.000000000               0.351053896               0.305077865               0.000000000               0.375878247               0.327148221               0.000000000               0.400702598               0.349218577               0.000000000               0.425526948               0.371288933               0.000000000               0.450351299               0.393359288               0.000000000               0.475175649               0.415429644               0.000000000               0.500000000               0.437500000               0.000000000               0.094045202               0.094045202               0.000000000               0.119417377               0.119417377               0.000000000               0.144789552               0.144789552               0.000000000               0.170161727               0.170161727               0.000000000               0.195533901               0.195533901               0.000000000               0.220906076               0.220906076               0.000000000               0.246278251               0.246278251               0.000000000               0.271650426               0.271650426               0.000000000               0.297022601               0.297022601               0.000000000               0.322394776               0.322394776               0.000000000               0.347766951               0.347766951               0.000000000               0.373139126               0.373139126               0.000000000               0.398511300               0.398511300               0.000000000               0.423883475               0.423883475               0.000000000               0.449255650               0.449255650               0.000000000               0.474627825               0.474627825               0.000000000               0.500000000               0.500000000               0.000000000               0.084374307               0.102810390               0.000000000               0.106444663               0.127634741               0.000000000               0.128515018               0.152459092               0.000000000               0.150585374               0.177283442               0.000000000               0.172655730               0.202107793               0.000000000               0.194726086               0.226932143               0.000000000               0.216796442               0.251756494               0.000000000               0.238866798               0.276580845               0.000000000               0.260937153               0.301405195               0.000000000               0.283007509               0.326229546               0.000000000               0.305077865               0.351053896               0.000000000               0.327148221               0.375878247               0.000000000               0.349218577               0.400702598               0.000000000               0.371288933               0.425526948               0.000000000               0.393359288               0.450351299               0.000000000               0.415429644               0.475175649               0.000000000               0.437500000               0.500000000               0.000000000               0.073890841               0.110585458               0.000000000               0.092710163               0.134923867               0.000000000               0.111529486               0.159262276               0.000000000               0.130348808               0.183600685               0.000000000               0.149168131               0.207939094               0.000000000               0.167987453               0.232277503               0.000000000               0.186806776               0.256615912               0.000000000               0.205626098               0.280954320               0.000000000               0.224445420               0.305292729               0.000000000               0.243264743               0.329631138               0.000000000               0.262084065               0.353969547               0.000000000               0.280903388               0.378307956               0.000000000               0.299722710               0.402646365               0.000000000               0.318542033               0.426984773               0.000000000               0.337361355               0.451323182               0.000000000               0.356180678               0.475661591               0.000000000               0.375000000               0.500000000               0.000000000               0.062695766               0.117295528               0.000000000               0.078308531               0.141214558               0.000000000               0.093921295               0.165133587               0.000000000               0.109534060               0.189052617               0.000000000               0.125146824               0.212971646               0.000000000               0.140759589               0.236890676               0.000000000               0.156372354               0.260809705               0.000000000               0.171985118               0.284728735               0.000000000               0.187597883               0.308647764               0.000000000               0.203210648               0.332566794               0.000000000               0.218823412               0.356485823               0.000000000               0.234436177               0.380404853               0.000000000               0.250048941               0.404323882               0.000000000               0.265661706               0.428242912               0.000000000               0.281274471               0.452161941               0.000000000               0.296887235               0.476080971               0.000000000               0.312500000               0.500000000               0.000000000               0.050896897               0.122875978               0.000000000               0.063340840               0.146446229               0.000000000               0.075784784               0.170016481               0.000000000               0.088228728               0.193586732               0.000000000               0.100672672               0.217156983               0.000000000               0.113116616               0.240727235               0.000000000               0.125560560               0.264297486               0.000000000               0.138004504               0.287867738               0.000000000               0.150448448               0.311437989               0.000000000               0.162892392               0.335008240               0.000000000               0.175336336               0.358578492               0.000000000               0.187780280               0.382148743               0.000000000               0.200224224               0.405718994               0.000000000               0.212668168               0.429289246               0.000000000               0.225112112               0.452859497               0.000000000               0.237556056               0.476429749               0.000000000               0.250000000               0.500000000               0.000000000               0.038607862               0.127273065               0.000000000               0.047913621               0.150568498               0.000000000               0.057219379               0.173863932               0.000000000               0.066525138               0.197159365               0.000000000               0.075830897               0.220454798               0.000000000               0.085136655               0.243750232               0.000000000               0.094442414               0.267045665               0.000000000               0.103748172               0.290341099               0.000000000               0.113053931               0.313636532               0.000000000               0.122359690               0.336931966               0.000000000               0.131665448               0.360227399               0.000000000               0.140971207               0.383522833               0.000000000               0.150276966               0.406818266               0.000000000               0.159582724               0.430113700               0.000000000               0.168888483               0.453409133               0.000000000               0.178194241               0.476704567               0.000000000               0.187500000               0.500000000               0.000000000               0.025947013               0.130444442               0.000000000               0.032137825               0.153541665               0.000000000               0.038328636               0.176638887               0.000000000               0.044519448               0.199736109               0.000000000               0.050710260               0.222833332               0.000000000               0.056901071               0.245930554               0.000000000               0.063091883               0.269027776               0.000000000               0.069282695               0.292124999               0.000000000               0.075473506               0.315222221               0.000000000               0.081664318               0.338319444               0.000000000               0.087855130               0.361416666               0.000000000               0.094045942               0.384513888               0.000000000               0.100236753               0.407611111               0.000000000               0.106427565               0.430708333               0.000000000               0.112618377               0.453805555               0.000000000               0.118809188               0.476902778               0.000000000               0.125000000               0.500000000               0.000000000               0.013036280               0.132359569               0.000000000               0.016127762               0.155337096               0.000000000               0.019219245               0.178314623               0.000000000               0.022310727               0.201292150               0.000000000               0.025402210               0.224269676               0.000000000               0.028493692               0.247247203               0.000000000               0.031585175               0.270224730               0.000000000               0.034676657               0.293202257               0.000000000               0.037768140               0.316179784               0.000000000               0.040859622               0.339157311               0.000000000               0.043951105               0.362134838               0.000000000               0.047042587               0.385112365               0.000000000               0.050134070               0.408089892               0.000000000               0.053225552               0.431067419               0.000000000               0.056317035               0.454044946               0.000000000               0.059408517               0.477022473               0.000000000               0.062500000               0.500000000               0.000000000               0.000000000               0.133000000               0.000000000               0.000000000               0.155937500               0.000000000               0.000000000               0.178875000               0.000000000               0.000000000               0.201812500               0.000000000               0.000000000               0.224750000               0.000000000               0.000000000               0.247687500               0.000000000               0.000000000               0.270625000               0.000000000               0.000000000               0.293562500               0.000000000               0.000000000               0.316500000               0.000000000               0.000000000               0.339437500               0.000000000               0.000000000               0.362375000               0.000000000               0.000000000               0.385312500               0.000000000               0.000000000               0.408250000               0.000000000               0.000000000               0.431187500               0.000000000               0.000000000               0.454125000               0.000000000               0.000000000               0.477062500               0.000000000               0.000000000               0.500000000               0.000000000               0.133000000               0.000000000               0.000000000               0.155937500               0.000000000               0.000000000               0.178875000               0.000000000               0.000000000               0.201812500               0.000000000               0.000000000               0.224750000               0.000000000               0.000000000               0.247687500               0.000000000               0.000000000               0.270625000               0.000000000               0.000000000               0.293562500               0.000000000               0.000000000               0.316500000               0.000000000               0.000000000               0.339437500               0.000000000               0.000000000               0.362375000               0.000000000               0.000000000               0.385312500               0.000000000               0.000000000               0.408250000               0.000000000               0.000000000               0.431187500               0.000000000               0.000000000               0.454125000               0.000000000               0.000000000               0.477062500               0.000000000               0.000000000               0.500000000               0.000000000               0.000000000               0.132359569              -0.013036280               0.000000000               0.155337096              -0.016127762               0.000000000               0.178314623              -0.019219245               0.000000000               0.201292150              -0.022310727               0.000000000               0.224269676              -0.025402210               0.000000000               0.247247203              -0.028493692               0.000000000               0.270224730              -0.031585175               0.000000000               0.293202257              -0.034676657               0.000000000               0.316179784              -0.037768140               0.000000000               0.339157311              -0.040859622               0.000000000               0.362134838              -0.043951105               0.000000000               0.385112365              -0.047042587               0.000000000               0.408089892              -0.050134070               0.000000000               0.431067419              -0.053225552               0.000000000               0.454044946              -0.056317035               0.000000000               0.477022473              -0.059408517               0.000000000               0.500000000              -0.062500000               0.000000000               0.130444442              -0.025947013               0.000000000               0.153541665              -0.032137825               0.000000000               0.176638887              -0.038328636               0.000000000               0.199736109              -0.044519448               0.000000000               0.222833332              -0.050710260               0.000000000               0.245930554              -0.056901071               0.000000000               0.269027776              -0.063091883               0.000000000               0.292124999              -0.069282695               0.000000000               0.315222221              -0.075473506               0.000000000               0.338319444              -0.081664318               0.000000000               0.361416666              -0.087855130               0.000000000               0.384513888              -0.094045942               0.000000000               0.407611111              -0.100236753               0.000000000               0.430708333              -0.106427565               0.000000000               0.453805555              -0.112618377               0.000000000               0.476902778              -0.118809188               0.000000000               0.500000000              -0.125000000               0.000000000               0.127273065              -0.038607862               0.000000000               0.150568498              -0.047913621               0.000000000               0.173863932              -0.057219379               0.000000000               0.197159365              -0.066525138               0.000000000               0.220454798              -0.075830897               0.000000000               0.243750232              -0.085136655               0.000000000               0.267045665              -0.094442414               0.000000000               0.290341099              -0.103748172               0.000000000               0.313636532              -0.113053931               0.000000000               0.336931966              -0.122359690               0.000000000               0.360227399              -0.131665448               0.000000000               0.383522833              -0.140971207               0.000000000               0.406818266              -0.150276966               0.000000000               0.430113700              -0.159582724               0.000000000               0.453409133              -0.168888483               0.000000000               0.476704567              -0.178194241               0.000000000               0.500000000              -0.187500000               0.000000000               0.122875978              -0.050896897               0.000000000               0.146446229              -0.063340840               0.000000000               0.170016481              -0.075784784               0.000000000               0.193586732              -0.088228728               0.000000000               0.217156983              -0.100672672               0.000000000               0.240727235              -0.113116616               0.000000000               0.264297486              -0.125560560               0.000000000               0.287867738              -0.138004504               0.000000000               0.311437989              -0.150448448               0.000000000               0.335008240              -0.162892392               0.000000000               0.358578492              -0.175336336               0.000000000               0.382148743              -0.187780280               0.000000000               0.405718994              -0.200224224               0.000000000               0.429289246              -0.212668168               0.000000000               0.452859497              -0.225112112               0.000000000               0.476429749              -0.237556056               0.000000000               0.500000000              -0.250000000               0.000000000               0.117295528              -0.062695766               0.000000000               0.141214558              -0.078308531               0.000000000               0.165133587              -0.093921295               0.000000000               0.189052617              -0.109534060               0.000000000               0.212971646              -0.125146824               0.000000000               0.236890676              -0.140759589               0.000000000               0.260809705              -0.156372354               0.000000000               0.284728735              -0.171985118               0.000000000               0.308647764              -0.187597883               0.000000000               0.332566794              -0.203210648               0.000000000               0.356485823              -0.218823412               0.000000000               0.380404853              -0.234436177               0.000000000               0.404323882              -0.250048941               0.000000000               0.428242912              -0.265661706               0.000000000               0.452161941              -0.281274471               0.000000000               0.476080971              -0.296887235               0.000000000               0.500000000              -0.312500000               0.000000000               0.110585458              -0.073890841               0.000000000               0.134923867              -0.092710163               0.000000000               0.159262276              -0.111529486               0.000000000               0.183600685              -0.130348808               0.000000000               0.207939094              -0.149168131               0.000000000               0.232277503              -0.167987453               0.000000000               0.256615912              -0.186806776               0.000000000               0.280954320              -0.205626098               0.000000000               0.305292729              -0.224445420               0.000000000               0.329631138              -0.243264743               0.000000000               0.353969547              -0.262084065               0.000000000               0.378307956              -0.280903388               0.000000000               0.402646365              -0.299722710               0.000000000               0.426984773              -0.318542033               0.000000000               0.451323182              -0.337361355               0.000000000               0.475661591              -0.356180678               0.000000000               0.500000000              -0.375000000               0.000000000               0.102810390              -0.084374307               0.000000000               0.127634741              -0.106444663               0.000000000               0.152459092              -0.128515018               0.000000000               0.177283442              -0.150585374               0.000000000               0.202107793              -0.172655730               0.000000000               0.226932143              -0.194726086               0.000000000               0.251756494              -0.216796442               0.000000000               0.276580845              -0.238866798               0.000000000               0.301405195              -0.260937153               0.000000000               0.326229546              -0.283007509               0.000000000               0.351053896              -0.305077865               0.000000000               0.375878247              -0.327148221               0.000000000               0.400702598              -0.349218577               0.000000000               0.425526948              -0.371288933               0.000000000               0.450351299              -0.393359288               0.000000000               0.475175649              -0.415429644               0.000000000               0.500000000              -0.437500000               0.000000000               0.094045202              -0.094045202               0.000000000               0.119417377              -0.119417377               0.000000000               0.144789552              -0.144789552               0.000000000               0.170161727              -0.170161727               0.000000000               0.195533901              -0.195533901               0.000000000               0.220906076              -0.220906076               0.000000000               0.246278251              -0.246278251               0.000000000               0.271650426              -0.271650426               0.000000000               0.297022601              -0.297022601               0.000000000               0.322394776              -0.322394776               0.000000000               0.347766951              -0.347766951               0.000000000               0.373139126              -0.373139126               0.000000000               0.398511300              -0.398511300               0.000000000               0.423883475              -0.423883475               0.000000000               0.449255650              -0.449255650               0.000000000               0.474627825              -0.474627825               0.000000000               0.500000000              -0.500000000               0.000000000               0.084374307              -0.102810390               0.000000000               0.106444663              -0.127634741               0.000000000               0.128515018              -0.152459092               0.000000000               0.150585374              -0.177283442               0.000000000               0.172655730              -0.202107793               0.000000000               0.194726086              -0.226932143               0.000000000               0.216796442              -0.251756494               0.000000000               0.238866798              -0.276580845               0.000000000               0.260937153              -0.301405195               0.000000000               0.283007509              -0.326229546               0.000000000               0.305077865              -0.351053896               0.000000000               0.327148221              -0.375878247               0.000000000               0.349218577              -0.400702598               0.000000000               0.371288933              -0.425526948               0.000000000               0.393359288              -0.450351299               0.000000000               0.415429644              -0.475175649               0.000000000               0.437500000              -0.500000000               0.000000000               0.073890841              -0.110585458               0.000000000               0.092710163              -0.134923867               0.000000000               0.111529486              -0.159262276               0.000000000               0.130348808              -0.183600685               0.000000000               0.149168131              -0.207939094               0.000000000               0.167987453              -0.232277503               0.000000000               0.186806776              -0.256615912               0.000000000               0.205626098              -0.280954320               0.000000000               0.224445420              -0.305292729               0.000000000               0.243264743              -0.329631138               0.000000000               0.262084065              -0.353969547               0.000000000               0.280903388              -0.378307956               0.000000000               0.299722710              -0.402646365               0.000000000               0.318542033              -0.426984773               0.000000000               0.337361355              -0.451323182               0.000000000               0.356180678              -0.475661591               0.000000000               0.375000000              -0.500000000               0.000000000               0.062695766              -0.117295528               0.000000000               0.078308531              -0.141214558               0.000000000               0.093921295              -0.165133587               0.000000000               0.109534060              -0.189052617               0.000000000               0.125146824              -0.212971646               0.000000000               0.140759589              -0.236890676               0.000000000               0.156372354              -0.260809705               0.000000000               0.171985118              -0.284728735               0.000000000               0.187597883              -0.308647764               0.000000000               0.203210648              -0.332566794               0.000000000               0.218823412              -0.356485823               0.000000000               0.234436177              -0.380404853               0.000000000               0.250048941              -0.404323882               0.000000000               0.265661706              -0.428242912               0.000000000               0.281274471              -0.452161941               0.000000000               0.296887235              -0.476080971               0.000000000               0.312500000              -0.500000000               0.000000000               0.050896897              -0.122875978               0.000000000               0.063340840              -0.146446229               0.000000000               0.075784784              -0.170016481               0.000000000               0.088228728              -0.193586732               0.000000000               0.100672672              -0.217156983               0.000000000               0.113116616              -0.240727235               0.000000000               0.125560560              -0.264297486               0.000000000               0.138004504              -0.287867738               0.000000000               0.150448448              -0.311437989               0.000000000               0.162892392              -0.335008240               0.000000000               0.175336336              -0.358578492               0.000000000               0.187780280              -0.382148743               0.000000000               0.200224224              -0.405718994               0.000000000               0.212668168              -0.429289246               0.000000000               0.225112112              -0.452859497               0.000000000               0.237556056              -0.476429749               0.000000000               0.250000000              -0.500000000               0.000000000               0.038607862              -0.127273065               0.000000000               0.047913621              -0.150568498               0.000000000               0.057219379              -0.173863932               0.000000000               0.066525138              -0.197159365               0.000000000               0.075830897              -0.220454798               0.000000000               0.085136655              -0.243750232               0.000000000               0.094442414              -0.267045665               0.000000000               0.103748172              -0.290341099               0.000000000               0.113053931              -0.313636532               0.000000000               0.122359690              -0.336931966               0.000000000               0.131665448              -0.360227399               0.000000000               0.140971207              -0.383522833               0.000000000               0.150276966              -0.406818266               0.000000000               0.159582724              -0.430113700               0.000000000               0.168888483              -0.453409133               0.000000000               0.178194241              -0.476704567               0.000000000               0.187500000              -0.500000000               0.000000000               0.025947013              -0.130444442               0.000000000               0.032137825              -0.153541665               0.000000000               0.038328636              -0.176638887               0.000000000               0.044519448              -0.199736109               0.000000000               0.050710260              -0.222833332               0.000000000               0.056901071              -0.245930554               0.000000000               0.063091883              -0.269027776               0.000000000               0.069282695              -0.292124999               0.000000000               0.075473506              -0.315222221               0.000000000               0.081664318              -0.338319444               0.000000000               0.087855130              -0.361416666               0.000000000               0.094045942              -0.384513888               0.000000000               0.100236753              -0.407611111               0.000000000               0.106427565              -0.430708333               0.000000000               0.112618377              -0.453805555               0.000000000               0.118809188              -0.476902778               0.000000000               0.125000000              -0.500000000               0.000000000               0.013036280              -0.132359569               0.000000000               0.016127762              -0.155337096               0.000000000               0.019219245              -0.178314623               0.000000000               0.022310727              -0.201292150               0.000000000               0.025402210              -0.224269676               0.000000000               0.028493692              -0.247247203               0.000000000               0.031585175              -0.270224730               0.000000000               0.034676657              -0.293202257               0.000000000               0.037768140              -0.316179784               0.000000000               0.040859622              -0.339157311               0.000000000               0.043951105              -0.362134838               0.000000000               0.047042587              -0.385112365               0.000000000               0.050134070              -0.408089892               0.000000000               0.053225552              -0.431067419               0.000000000               0.056317035              -0.454044946               0.000000000               0.059408517              -0.477022473               0.000000000               0.062500000              -0.500000000               0.000000000               0.000000000              -0.133000000               0.000000000               0.000000000              -0.155937500               0.000000000               0.000000000              -0.178875000               0.000000000               0.000000000              -0.201812500               0.000000000               0.000000000              -0.224750000               0.000000000               0.000000000              -0.247687500               0.000000000               0.000000000              -0.270625000               0.000000000               0.000000000              -0.293562500               0.000000000               0.000000000              -0.316500000               0.000000000               0.000000000              -0.339437500               0.000000000               0.000000000              -0.362375000               0.000000000               0.000000000              -0.385312500               0.000000000               0.000000000              -0.408250000               0.000000000               0.000000000              -0.431187500               0.000000000               0.000000000              -0.454125000               0.000000000               0.000000000              -0.477062500               0.000000000               0.000000000              -0.500000000               0.000000000              -0.133000000               0.000000000               0.000000000              -0.155937500               0.000000000               0.000000000              -0.178875000               0.000000000               0.000000000              -0.201812500               0.000000000               0.000000000              -0.224750000               0.000000000               0.000000000              -0.247687500               0.000000000               0.000000000              -0.270625000               0.000000000               0.000000000              -0.293562500               0.000000000               0.000000000              -0.316500000               0.000000000               0.000000000              -0.339437500               0.000000000               0.000000000              -0.362375000               0.000000000               0.000000000              -0.385312500               0.000000000               0.000000000              -0.408250000               0.000000000               0.000000000              -0.431187500               0.000000000               0.000000000              -0.454125000               0.000000000               0.000000000              -0.477062500               0.000000000               0.000000000              -0.500000000               0.000000000               0.000000000              -0.132359569              -0.013036280               0.000000000              -0.155337096              -0.016127762               0.000000000              -0.178314623              -0.019219245               0.000000000              -0.201292150              -0.022310727               0.000000000              -0.224269676              -0.025402210               0.000000000              -0.247247203              -0.028493692               0.000000000              -0.270224730              -0.031585175               0.000000000              -0.293202257              -0.034676657               0.000000000              -0.316179784              -0.037768140               0.000000000              -0.339157311              -0.040859622               0.000000000              -0.362134838              -0.043951105               0.000000000              -0.385112365              -0.047042587               0.000000000              -0.408089892              -0.050134070               0.000000000              -0.431067419              -0.053225552               0.000000000              -0.454044946              -0.056317035               0.000000000              -0.477022473              -0.059408517               0.000000000              -0.500000000              -0.062500000               0.000000000              -0.130444442              -0.025947013               0.000000000              -0.153541665              -0.032137825               0.000000000              -0.176638887              -0.038328636               0.000000000              -0.199736109              -0.044519448               0.000000000              -0.222833332              -0.050710260               0.000000000              -0.245930554              -0.056901071               0.000000000              -0.269027776              -0.063091883               0.000000000              -0.292124999              -0.069282695               0.000000000              -0.315222221              -0.075473506               0.000000000              -0.338319444              -0.081664318               0.000000000              -0.361416666              -0.087855130               0.000000000              -0.384513888              -0.094045942               0.000000000              -0.407611111              -0.100236753               0.000000000              -0.430708333              -0.106427565               0.000000000              -0.453805555              -0.112618377               0.000000000              -0.476902778              -0.118809188               0.000000000              -0.500000000              -0.125000000               0.000000000              -0.127273065              -0.038607862               0.000000000              -0.150568498              -0.047913621               0.000000000              -0.173863932              -0.057219379               0.000000000              -0.197159365              -0.066525138               0.000000000              -0.220454798              -0.075830897               0.000000000              -0.243750232              -0.085136655               0.000000000              -0.267045665              -0.094442414               0.000000000              -0.290341099              -0.103748172               0.000000000              -0.313636532              -0.113053931               0.000000000              -0.336931966              -0.122359690               0.000000000              -0.360227399              -0.131665448               0.000000000              -0.383522833              -0.140971207               0.000000000              -0.406818266              -0.150276966               0.000000000              -0.430113700              -0.159582724               0.000000000              -0.453409133              -0.168888483               0.000000000              -0.476704567              -0.178194241               0.000000000              -0.500000000              -0.187500000               0.000000000              -0.122875978              -0.050896897               0.000000000              -0.146446229              -0.063340840               0.000000000              -0.170016481              -0.075784784               0.000000000              -0.193586732              -0.088228728               0.000000000              -0.217156983              -0.100672672               0.000000000              -0.240727235              -0.113116616               0.000000000              -0.264297486              -0.125560560               0.000000000              -0.287867738              -0.138004504               0.000000000              -0.311437989              -0.150448448               0.000000000              -0.335008240              -0.162892392               0.000000000              -0.358578492              -0.175336336               0.000000000              -0.382148743              -0.187780280               0.000000000              -0.405718994              -0.200224224               0.000000000              -0.429289246              -0.212668168               0.000000000              -0.452859497              -0.225112112               0.000000000              -0.476429749              -0.237556056               0.000000000              -0.500000000              -0.250000000               0.000000000              -0.117295528              -0.062695766               0.000000000              -0.141214558              -0.078308531               0.000000000              -0.165133587              -0.093921295               0.000000000              -0.189052617              -0.109534060               0.000000000              -0.212971646              -0.125146824               0.000000000              -0.236890676              -0.140759589               0.000000000              -0.260809705              -0.156372354               0.000000000              -0.284728735              -0.171985118               0.000000000              -0.308647764              -0.187597883               0.000000000              -0.332566794              -0.203210648               0.000000000              -0.356485823              -0.218823412               0.000000000              -0.380404853              -0.234436177               0.000000000              -0.404323882              -0.250048941               0.000000000              -0.428242912              -0.265661706               0.000000000              -0.452161941              -0.281274471               0.000000000              -0.476080971              -0.296887235               0.000000000              -0.500000000              -0.312500000               0.000000000              -0.110585458              -0.073890841               0.000000000              -0.134923867              -0.092710163               0.000000000              -0.159262276              -0.111529486               0.000000000              -0.183600685              -0.130348808               0.000000000              -0.207939094              -0.149168131               0.000000000              -0.232277503              -0.167987453               0.000000000              -0.256615912              -0.186806776               0.000000000              -0.280954320              -0.205626098               0.000000000              -0.305292729              -0.224445420               0.000000000              -0.329631138              -0.243264743               0.000000000              -0.353969547              -0.262084065               0.000000000              -0.378307956              -0.280903388               0.000000000              -0.402646365              -0.299722710               0.000000000              -0.426984773              -0.318542033               0.000000000              -0.451323182              -0.337361355               0.000000000              -0.475661591              -0.356180678               0.000000000              -0.500000000              -0.375000000               0.000000000              -0.102810390              -0.084374307               0.000000000              -0.127634741              -0.106444663               0.000000000              -0.152459092              -0.128515018               0.000000000              -0.177283442              -0.150585374               0.000000000              -0.202107793              -0.172655730               0.000000000              -0.226932143              -0.194726086               0.000000000              -0.251756494              -0.216796442               0.000000000              -0.276580845              -0.238866798               0.000000000              -0.301405195              -0.260937153               0.000000000              -0.326229546              -0.283007509               0.000000000              -0.351053896              -0.305077865               0.000000000              -0.375878247              -0.327148221               0.000000000              -0.400702598              -0.349218577               0.000000000              -0.425526948              -0.371288933               0.000000000              -0.450351299              -0.393359288               0.000000000              -0.475175649              -0.415429644               0.000000000              -0.500000000              -0.437500000               0.000000000              -0.094045202              -0.094045202               0.000000000              -0.119417377              -0.119417377               0.000000000              -0.144789552              -0.144789552               0.000000000              -0.170161727              -0.170161727               0.000000000              -0.195533901              -0.195533901               0.000000000              -0.220906076              -0.220906076               0.000000000              -0.246278251              -0.246278251               0.000000000              -0.271650426              -0.271650426               0.000000000              -0.297022601              -0.297022601               0.000000000              -0.322394776              -0.322394776               0.000000000              -0.347766951              -0.347766951               0.000000000              -0.373139126              -0.373139126               0.000000000              -0.398511300              -0.398511300               0.000000000              -0.423883475              -0.423883475               0.000000000              -0.449255650              -0.449255650               0.000000000              -0.474627825              -0.474627825               0.000000000              -0.500000000              -0.500000000               0.000000000              -0.084374307              -0.102810390               0.000000000              -0.106444663              -0.127634741               0.000000000              -0.128515018              -0.152459092               0.000000000              -0.150585374              -0.177283442               0.000000000              -0.172655730              -0.202107793               0.000000000              -0.194726086              -0.226932143               0.000000000              -0.216796442              -0.251756494               0.000000000              -0.238866798              -0.276580845               0.000000000              -0.260937153              -0.301405195               0.000000000              -0.283007509              -0.326229546               0.000000000              -0.305077865              -0.351053896               0.000000000              -0.327148221              -0.375878247               0.000000000              -0.349218577              -0.400702598               0.000000000              -0.371288933              -0.425526948               0.000000000              -0.393359288              -0.450351299               0.000000000              -0.415429644              -0.475175649               0.000000000              -0.437500000              -0.500000000               0.000000000              -0.073890841              -0.110585458               0.000000000              -0.092710163              -0.134923867               0.000000000              -0.111529486              -0.159262276               0.000000000              -0.130348808              -0.183600685               0.000000000              -0.149168131              -0.207939094               0.000000000              -0.167987453              -0.232277503               0.000000000              -0.186806776              -0.256615912               0.000000000              -0.205626098              -0.280954320               0.000000000              -0.224445420              -0.305292729               0.000000000              -0.243264743              -0.329631138               0.000000000              -0.262084065              -0.353969547               0.000000000              -0.280903388              -0.378307956               0.000000000              -0.299722710              -0.402646365               0.000000000              -0.318542033              -0.426984773               0.000000000              -0.337361355              -0.451323182               0.000000000              -0.356180678              -0.475661591               0.000000000              -0.375000000              -0.500000000               0.000000000              -0.062695766              -0.117295528               0.000000000              -0.078308531              -0.141214558               0.000000000              -0.093921295              -0.165133587               0.000000000              -0.109534060              -0.189052617               0.000000000              -0.125146824              -0.212971646               0.000000000              -0.140759589              -0.236890676               0.000000000              -0.156372354              -0.260809705               0.000000000              -0.171985118              -0.284728735               0.000000000              -0.187597883              -0.308647764               0.000000000              -0.203210648              -0.332566794               0.000000000              -0.218823412              -0.356485823               0.000000000              -0.234436177              -0.380404853               0.000000000              -0.250048941              -0.404323882               0.000000000              -0.265661706              -0.428242912               0.000000000              -0.281274471              -0.452161941               0.000000000              -0.296887235              -0.476080971               0.000000000              -0.312500000              -0.500000000               0.000000000              -0.050896897              -0.122875978               0.000000000              -0.063340840              -0.146446229               0.000000000              -0.075784784              -0.170016481               0.000000000              -0.088228728              -0.193586732               0.000000000              -0.100672672              -0.217156983               0.000000000              -0.113116616              -0.240727235               0.000000000              -0.125560560              -0.264297486               0.000000000              -0.138004504              -0.287867738               0.000000000              -0.150448448              -0.311437989               0.000000000              -0.162892392              -0.335008240               0.000000000              -0.175336336              -0.358578492               0.000000000              -0.187780280              -0.382148743               0.000000000              -0.200224224              -0.405718994               0.000000000              -0.212668168              -0.429289246               0.000000000              -0.225112112              -0.452859497               0.000000000              -0.237556056              -0.476429749               0.000000000              -0.250000000              -0.500000000               0.000000000              -0.038607862              -0.127273065               0.000000000              -0.047913621              -0.150568498               0.000000000              -0.057219379              -0.173863932               0.000000000              -0.066525138              -0.197159365               0.000000000              -0.075830897              -0.220454798               0.000000000              -0.085136655              -0.243750232               0.000000000              -0.094442414              -0.267045665               0.000000000              -0.103748172              -0.290341099               0.000000000              -0.113053931              -0.313636532               0.000000000              -0.122359690              -0.336931966               0.000000000              -0.131665448              -0.360227399               0.000000000              -0.140971207              -0.383522833               0.000000000              -0.150276966              -0.406818266               0.000000000              -0.159582724              -0.430113700               0.000000000              -0.168888483              -0.453409133               0.000000000              -0.178194241              -0.476704567               0.000000000              -0.187500000              -0.500000000               0.000000000              -0.025947013              -0.130444442               0.000000000              -0.032137825              -0.153541665               0.000000000              -0.038328636              -0.176638887               0.000000000              -0.044519448              -0.199736109               0.000000000              -0.050710260              -0.222833332               0.000000000              -0.056901071              -0.245930554               0.000000000              -0.063091883              -0.269027776               0.000000000              -0.069282695              -0.292124999               0.000000000              -0.075473506              -0.315222221               0.000000000              -0.081664318              -0.338319444               0.000000000              -0.087855130              -0.361416666               0.000000000              -0.094045942              -0.384513888               0.000000000              -0.100236753              -0.407611111               0.000000000              -0.106427565              -0.430708333               0.000000000              -0.112618377              -0.453805555               0.000000000              -0.118809188              -0.476902778               0.000000000              -0.125000000              -0.500000000               0.000000000              -0.013036280              -0.132359569               0.000000000              -0.016127762              -0.155337096               0.000000000              -0.019219245              -0.178314623               0.000000000              -0.022310727              -0.201292150               0.000000000              -0.025402210              -0.224269676               0.000000000              -0.028493692              -0.247247203               0.000000000              -0.031585175              -0.270224730               0.000000000              -0.034676657              -0.293202257               0.000000000              -0.037768140              -0.316179784               0.000000000              -0.040859622              -0.339157311               0.000000000              -0.043951105              -0.362134838               0.000000000              -0.047042587              -0.385112365               0.000000000              -0.050134070              -0.408089892               0.000000000              -0.053225552              -0.431067419               0.000000000              -0.056317035              -0.454044946               0.000000000              -0.059408517              -0.477022473               0.000000000              -0.062500000              -0.500000000               0.000000000               0.000000000              -0.133000000               0.000000000               0.000000000              -0.155937500               0.000000000               0.000000000              -0.178875000               0.000000000               0.000000000              -0.201812500               0.000000000               0.000000000              -0.224750000               0.000000000               0.000000000              -0.247687500               0.000000000               0.000000000              -0.270625000               0.000000000               0.000000000              -0.293562500               0.000000000               0.000000000              -0.316500000               0.000000000               0.000000000              -0.339437500               0.000000000               0.000000000              -0.362375000               0.000000000               0.000000000              -0.385312500               0.000000000               0.000000000              -0.408250000               0.000000000               0.000000000              -0.431187500               0.000000000               0.000000000              -0.454125000               0.000000000               0.000000000              -0.477062500               0.000000000               0.000000000              -0.500000000               0.000000000              -0.133000000               0.000000000               0.000000000              -0.155937500               0.000000000               0.000000000              -0.178875000               0.000000000               0.000000000              -0.201812500               0.000000000               0.000000000              -0.224750000               0.000000000               0.000000000              -0.247687500               0.000000000               0.000000000              -0.270625000               0.000000000               0.000000000              -0.293562500               0.000000000               0.000000000              -0.316500000               0.000000000               0.000000000              -0.339437500               0.000000000               0.000000000              -0.362375000               0.000000000               0.000000000              -0.385312500               0.000000000               0.000000000              -0.408250000               0.000000000               0.000000000              -0.431187500               0.000000000               0.000000000              -0.454125000               0.000000000               0.000000000              -0.477062500               0.000000000               0.000000000              -0.500000000               0.000000000               0.000000000              -0.132359569               0.013036280               0.000000000              -0.155337096               0.016127762               0.000000000              -0.178314623               0.019219245               0.000000000              -0.201292150               0.022310727               0.000000000              -0.224269676               0.025402210               0.000000000              -0.247247203               0.028493692               0.000000000              -0.270224730               0.031585175               0.000000000              -0.293202257               0.034676657               0.000000000              -0.316179784               0.037768140               0.000000000              -0.339157311               0.040859622               0.000000000              -0.362134838               0.043951105               0.000000000              -0.385112365               0.047042587               0.000000000              -0.408089892               0.050134070               0.000000000              -0.431067419               0.053225552               0.000000000              -0.454044946               0.056317035               0.000000000              -0.477022473               0.059408517               0.000000000              -0.500000000               0.062500000               0.000000000              -0.130444442               0.025947013               0.000000000              -0.153541665               0.032137825               0.000000000              -0.176638887               0.038328636               0.000000000              -0.199736109               0.044519448               0.000000000              -0.222833332               0.050710260               0.000000000              -0.245930554               0.056901071               0.000000000              -0.269027776               0.063091883               0.000000000              -0.292124999               0.069282695               0.000000000              -0.315222221               0.075473506               0.000000000              -0.338319444               0.081664318               0.000000000              -0.361416666               0.087855130               0.000000000              -0.384513888               0.094045942               0.000000000              -0.407611111               0.100236753               0.000000000              -0.430708333               0.106427565               0.000000000              -0.453805555               0.112618377               0.000000000              -0.476902778               0.118809188               0.000000000              -0.500000000               0.125000000               0.000000000              -0.127273065               0.038607862               0.000000000              -0.150568498               0.047913621               0.000000000              -0.173863932               0.057219379               0.000000000              -0.197159365               0.066525138               0.000000000              -0.220454798               0.075830897               0.000000000              -0.243750232               0.085136655               0.000000000              -0.267045665               0.094442414               0.000000000              -0.290341099               0.103748172               0.000000000              -0.313636532               0.113053931               0.000000000              -0.336931966               0.122359690               0.000000000              -0.360227399               0.131665448               0.000000000              -0.383522833               0.140971207               0.000000000              -0.406818266               0.150276966               0.000000000              -0.430113700               0.159582724               0.000000000              -0.453409133               0.168888483               0.000000000              -0.476704567               0.178194241               0.000000000              -0.500000000               0.187500000               0.000000000              -0.122875978               0.050896897               0.000000000              -0.146446229               0.063340840               0.000000000              -0.170016481               0.075784784               0.000000000              -0.193586732               0.088228728               0.000000000              -0.217156983               0.100672672               0.000000000              -0.240727235               0.113116616               0.000000000              -0.264297486               0.125560560               0.000000000              -0.287867738               0.138004504               0.000000000              -0.311437989               0.150448448               0.000000000              -0.335008240               0.162892392               0.000000000              -0.358578492               0.175336336               0.000000000              -0.382148743               0.187780280               0.000000000              -0.405718994               0.200224224               0.000000000              -0.429289246               0.212668168               0.000000000              -0.452859497               0.225112112               0.000000000              -0.476429749               0.237556056               0.000000000              -0.500000000               0.250000000               0.000000000              -0.117295528               0.062695766               0.000000000              -0.141214558               0.078308531               0.000000000              -0.165133587               0.093921295               0.000000000              -0.189052617               0.109534060               0.000000000              -0.212971646               0.125146824               0.000000000              -0.236890676               0.140759589               0.000000000              -0.260809705               0.156372354               0.000000000              -0.284728735               0.171985118               0.000000000              -0.308647764               0.187597883               0.000000000              -0.332566794               0.203210648               0.000000000              -0.356485823               0.218823412               0.000000000              -0.380404853               0.234436177               0.000000000              -0.404323882               0.250048941               0.000000000              -0.428242912               0.265661706               0.000000000              -0.452161941               0.281274471               0.000000000              -0.476080971               0.296887235               0.000000000              -0.500000000               0.312500000               0.000000000              -0.110585458               0.073890841               0.000000000              -0.134923867               0.092710163               0.000000000              -0.159262276               0.111529486               0.000000000              -0.183600685               0.130348808               0.000000000              -0.207939094               0.149168131               0.000000000              -0.232277503               0.167987453               0.000000000              -0.256615912               0.186806776               0.000000000              -0.280954320               0.205626098               0.000000000              -0.305292729               0.224445420               0.000000000              -0.329631138               0.243264743               0.000000000              -0.353969547               0.262084065               0.000000000              -0.378307956               0.280903388               0.000000000              -0.402646365               0.299722710               0.000000000              -0.426984773               0.318542033               0.000000000              -0.451323182               0.337361355               0.000000000              -0.475661591               0.356180678               0.000000000              -0.500000000               0.375000000               0.000000000              -0.102810390               0.084374307               0.000000000              -0.127634741               0.106444663               0.000000000              -0.152459092               0.128515018               0.000000000              -0.177283442               0.150585374               0.000000000              -0.202107793               0.172655730               0.000000000              -0.226932143               0.194726086               0.000000000              -0.251756494               0.216796442               0.000000000              -0.276580845               0.238866798               0.000000000              -0.301405195               0.260937153               0.000000000              -0.326229546               0.283007509               0.000000000              -0.351053896               0.305077865               0.000000000              -0.375878247               0.327148221               0.000000000              -0.400702598               0.349218577               0.000000000              -0.425526948               0.371288933               0.000000000              -0.450351299               0.393359288               0.000000000              -0.475175649               0.415429644               0.000000000              -0.500000000               0.437500000               0.000000000              -0.094045202               0.094045202               0.000000000              -0.119417377               0.119417377               0.000000000              -0.144789552               0.144789552               0.000000000              -0.170161727               0.170161727               0.000000000              -0.195533901               0.195533901               0.000000000              -0.220906076               0.220906076               0.000000000              -0.246278251               0.246278251               0.000000000              -0.271650426               0.271650426               0.000000000              -0.297022601               0.297022601               0.000000000              -0.322394776               0.322394776               0.000000000              -0.347766951               0.347766951               0.000000000              -0.373139126               0.373139126               0.000000000              -0.398511300               0.398511300               0.000000000              -0.423883475               0.423883475               0.000000000              -0.449255650               0.449255650               0.000000000              -0.474627825               0.474627825               0.000000000              -0.500000000               0.500000000               0.000000000              -0.084374307               0.102810390               0.000000000              -0.106444663               0.127634741               0.000000000              -0.128515018               0.152459092               0.000000000              -0.150585374               0.177283442               0.000000000              -0.172655730               0.202107793               0.000000000              -0.194726086               0.226932143               0.000000000              -0.216796442               0.251756494               0.000000000              -0.238866798               0.276580845               0.000000000              -0.260937153               0.301405195               0.000000000              -0.283007509               0.326229546               0.000000000              -0.305077865               0.351053896               0.000000000              -0.327148221               0.375878247               0.000000000              -0.349218577               0.400702598               0.000000000              -0.371288933               0.425526948               0.000000000              -0.393359288               0.450351299               0.000000000              -0.415429644               0.475175649               0.000000000              -0.437500000               0.500000000               0.000000000              -0.073890841               0.110585458               0.000000000              -0.092710163               0.134923867               0.000000000              -0.111529486               0.159262276               0.000000000              -0.130348808               0.183600685               0.000000000              -0.149168131               0.207939094               0.000000000              -0.167987453               0.232277503               0.000000000              -0.186806776               0.256615912               0.000000000              -0.205626098               0.280954320               0.000000000              -0.224445420               0.305292729               0.000000000              -0.243264743               0.329631138               0.000000000              -0.262084065               0.353969547               0.000000000              -0.280903388               0.378307956               0.000000000              -0.299722710               0.402646365               0.000000000              -0.318542033               0.426984773               0.000000000              -0.337361355               0.451323182               0.000000000              -0.356180678               0.475661591               0.000000000              -0.375000000               0.500000000               0.000000000              -0.062695766               0.117295528               0.000000000              -0.078308531               0.141214558               0.000000000              -0.093921295               0.165133587               0.000000000              -0.109534060               0.189052617               0.000000000              -0.125146824               0.212971646               0.000000000              -0.140759589               0.236890676               0.000000000              -0.156372354               0.260809705               0.000000000              -0.171985118               0.284728735               0.000000000              -0.187597883               0.308647764               0.000000000              -0.203210648               0.332566794               0.000000000              -0.218823412               0.356485823               0.000000000              -0.234436177               0.380404853               0.000000000              -0.250048941               0.404323882               0.000000000              -0.265661706               0.428242912               0.000000000              -0.281274471               0.452161941               0.000000000              -0.296887235               0.476080971               0.000000000              -0.312500000               0.500000000               0.000000000              -0.050896897               0.122875978               0.000000000              -0.063340840               0.146446229               0.000000000              -0.075784784               0.170016481               0.000000000              -0.088228728               0.193586732               0.000000000              -0.100672672               0.217156983               0.000000000              -0.113116616               0.240727235               0.000000000              -0.125560560               0.264297486               0.000000000              -0.138004504               0.287867738               0.000000000              -0.150448448               0.311437989               0.000000000              -0.162892392               0.335008240               0.000000000              -0.175336336               0.358578492               0.000000000              -0.187780280               0.382148743               0.000000000              -0.200224224               0.405718994               0.000000000              -0.212668168               0.429289246               0.000000000              -0.225112112               0.452859497               0.000000000              -0.237556056               0.476429749               0.000000000              -0.250000000               0.500000000               0.000000000              -0.038607862               0.127273065               0.000000000              -0.047913621               0.150568498               0.000000000              -0.057219379               0.173863932               0.000000000              -0.066525138               0.197159365               0.000000000              -0.075830897               0.220454798               0.000000000              -0.085136655               0.243750232               0.000000000              -0.094442414               0.267045665               0.000000000              -0.103748172               0.290341099               0.000000000              -0.113053931               0.313636532               0.000000000              -0.122359690               0.336931966               0.000000000              -0.131665448               0.360227399               0.000000000              -0.140971207               0.383522833               0.000000000              -0.150276966               0.406818266               0.000000000              -0.159582724               0.430113700               0.000000000              -0.168888483               0.453409133               0.000000000              -0.178194241               0.476704567               0.000000000              -0.187500000               0.500000000               0.000000000              -0.025947013               0.130444442               0.000000000              -0.032137825               0.153541665               0.000000000              -0.038328636               0.176638887               0.000000000              -0.044519448               0.199736109               0.000000000              -0.050710260               0.222833332               0.000000000              -0.056901071               0.245930554               0.000000000              -0.063091883               0.269027776               0.000000000              -0.069282695               0.292124999               0.000000000              -0.075473506               0.315222221               0.000000000              -0.081664318               0.338319444               0.000000000              -0.087855130               0.361416666               0.000000000              -0.094045942               0.384513888               0.000000000              -0.100236753               0.407611111               0.000000000              -0.106427565               0.430708333               0.000000000              -0.112618377               0.453805555               0.000000000              -0.118809188               0.476902778               0.000000000              -0.125000000               0.500000000               0.000000000              -0.013036280               0.132359569               0.000000000              -0.016127762               0.155337096               0.000000000              -0.019219245               0.178314623               0.000000000              -0.022310727               0.201292150               0.000000000              -0.025402210               0.224269676               0.000000000              -0.028493692               0.247247203               0.000000000              -0.031585175               0.270224730               0.000000000              -0.034676657               0.293202257               0.000000000              -0.037768140               0.316179784               0.000000000              -0.040859622               0.339157311               0.000000000              -0.043951105               0.362134838               0.000000000              -0.047042587               0.385112365               0.000000000              -0.050134070               0.408089892               0.000000000              -0.053225552               0.431067419               0.000000000              -0.056317035               0.454044946               0.000000000              -0.059408517               0.477022473               0.000000000              -0.062500000               0.500000000               0.000000000               0.000000000               0.133000000               0.000000000               0.000000000               0.155937500               0.000000000               0.000000000               0.178875000               0.000000000               0.000000000               0.201812500               0.000000000               0.000000000               0.224750000               0.000000000               0.000000000               0.247687500               0.000000000               0.000000000               0.270625000               0.000000000               0.000000000               0.293562500               0.000000000               0.000000000               0.316500000               0.000000000               0.000000000               0.339437500               0.000000000               0.000000000               0.362375000               0.000000000               0.000000000               0.385312500               0.000000000               0.000000000               0.408250000               0.000000000               0.000000000               0.431187500               0.000000000               0.000000000               0.454125000               0.000000000               0.000000000               0.477062500               0.000000000               0.000000000               0.500000000               0.000000000 </DataArray>
</Points>
<Cells>
<DataArray type="Int32"                                    Name="connectivity"                                                      NumberOfComponents=" 1" format="ascii">
         0          1         18         17          1          2         19         18          2          3         20         19          3          4         21         20          4          5         22         21          5          6         23         22          6          7         24         23          7          8         25         24          8          9         26         25          9         10         27         26         10         11         28         27         11         12         29         28         12         13         30         29         13         14         31         30         14         15         32         31         15         16         33         32         17         18         35         34         18         19         36         35         19         20         37         36         20         21         38         37         21         22         39         38         22         23         40         39         23         24         41         40         24         25         42         41         25         26         43         42         26         27         44         43         27         28         45         44         28         29         46         45         29         30         47         46         30         31         48         47         31         32         49         48         32         33         50         49         34         35         52         51         35         36         53         52         36         37         54         53         37         38         55         54         38         39         56         55         39         40         57         56         40         41         58         57         41         42         59         58         42         43         60         59         43         44         61         60         44         45         62         61         45         46         63         62         46         47         64         63         47         48         65         64         48         49         66         65         49         50         67         66         51         52         69         68         52         53         70         69         53         54         71         70         54         55         72         71         55         56         73         72         56         57         74         73         57         58         75         74         58         59         76         75         59         60         77         76         60         61         78         77         61         62         79         78         62         63         80         79         63         64         81         80         64         65         82         81         65         66         83         82         66         67         84         83         68         69         86         85         69         70         87         86         70         71         88         87         71         72         89         88         72         73         90         89         73         74         91         90         74         75         92         91         75         76         93         92         76         77         94         93         77         78         95         94         78         79         96         95         79         80         97         96         80         81         98         97         81         82         99         98         82         83        100         99         83         84        101        100         85         86        103        102         86         87        104        103         87         88        105        104         88         89        106        105         89         90        107        106         90         91        108        107         91         92        109        108         92         93        110        109         93         94        111        110         94         95        112        111         95         96        113        112         96         97        114        113         97         98        115        114         98         99        116        115         99        100        117        116        100        101        118        117        102        103        120        119        103        104        121        120        104        105        122        121        105        106        123        122        106        107        124        123        107        108        125        124        108        109        126        125        109        110        127        126        110        111        128        127        111        112        129        128        112        113        130        129        113        114        131        130        114        115        132        131        115        116        133        132        116        117        134        133        117        118        135        134        119        120        137        136        120        121        138        137        121        122        139        138        122        123        140        139        123        124        141        140        124        125        142        141        125        126        143        142        126        127        144        143        127        128        145        144        128        129        146        145        129        130        147        146        130        131        148        147        131        132        149        148        132        133        150        149        133        134        151        150        134        135        152        151        136        137        154        153        137        138        155        154        138        139        156        155        139        140        157        156        140        141        158        157        141        142        159        158        142        143        160        159        143        144        161        160        144        145        162        161        145        146        163        162        146        147        164        163        147        148        165        164        148        149        166        165        149        150        167        166        150        151        168        167        151        152        169        168        153        154        171        170        154        155        172        171        155        156        173        172        156        157        174        173        157        158        175        174        158        159        176        175        159        160        177        176        160        161        178        177        161        162        179        178        162        163        180        179        163        164        181        180        164        165        182        181        165        166        183        182        166        167        184        183        167        168        185        184        168        169        186        185        170        171        188        187        171        172        189        188        172        173        190        189        173        174        191        190        174        175        192        191        175        176        193        192        176        177        194        193        177        178        195        194        178        179        196        195        179        180        197        196        180        181        198        197        181        182        199        198        182        183        200        199        183        184        201        200        184        185        202        201        185        186        203        202        187        188        205        204        188        189        206        205        189        190        207        206        190        191        208        207        191        192        209        208        192        193        210        209        193        194        211        210        194        195        212        211        195        196        213        212        196        197        214        213        197        198        215        214        198        199        216        215        199        200        217        216        200        201        218        217        201        202        219        218        202        203        220        219        204        205        222        221        205        206        223        222        206        207        224        223        207        208        225        224        208        209        226        225        209        210        227        226        210        211        228        227        211        212        229        228        212        213        230        229        213        214        231        230        214        215        232        231        215        216        233        232        216        217        234        233        217        218        235        234        218        219        236        235        219        220        237        236        221        222        239        238        222        223        240        239        223        224        241        240        224        225        242        241        225        226        243        242        226        227        244        243        227        228        245        244        228        229        246        245        229        230        247        246        230        231        248        247        231        232        249        248        232        233        250        249        233        234        251        250        234        235        252        251        235        236        253        252        236        237        254        253        238        239        256        255        239        240        257        256        240        241        258        257        241        242        259        258        242        243        260        259        243        244        261        260        244        245        262        261        245        246        263        262        246        247        264        263        247        248        265        264        248        249        266        265        249        250        267        266        250        251        268        267        251        252        269        268        252        253        270        269        253        254        271        270        255        256        273        272        256        257        274        273        257        258        275        274        258        259        276        275        259        260        277        276        260        261        278        277        261        262        279        278        262        263        280        279        263        264        281        280        264        265        282        281        265        266        283        282        266        267        284        283        267        268        285        284        268        269        286        285        269        270        287        286        270        271        288        287        306        307          1          0        307        308          2          1        308        309          3          2        309        310          4          3        310        311          5          4        311        312          6          5        312        313          7          6        313        314          8          7        314        315          9          8        315        316         10          9        316        317         11         10        317        318         12         11        318        319         13         12        319        320         14         13        320        321         15         14        321        322         16         15        323        324        307        306        324        325        308        307        325        326        309        308        326        327        310        309        327        328        311        310        328        329        312        311        329        330        313        312        330        331        314        313        331        332        315        314        332        333        316        315        333        334        317        316        334        335        318        317        335        336        319        318        336        337        320        319        337        338        321        320        338        339        322        321        340        341        324        323        341        342        325        324        342        343        326        325        343        344        327        326        344        345        328        327        345        346        329        328        346        347        330        329        347        348        331        330        348        349        332        331        349        350        333        332        350        351        334        333        351        352        335        334        352        353        336        335        353        354        337        336        354        355        338        337        355        356        339        338        357        358        341        340        358        359        342        341        359        360        343        342        360        361        344        343        361        362        345        344        362        363        346        345        363        364        347        346        364        365        348        347        365        366        349        348        366        367        350        349        367        368        351        350        368        369        352        351        369        370        353        352        370        371        354        353        371        372        355        354        372        373        356        355        374        375        358        357        375        376        359        358        376        377        360        359        377        378        361        360        378        379        362        361        379        380        363        362        380        381        364        363        381        382        365        364        382        383        366        365        383        384        367        366        384        385        368        367        385        386        369        368        386        387        370        369        387        388        371        370        388        389        372        371        389        390        373        372        391        392        375        374        392        393        376        375        393        394        377        376        394        395        378        377        395        396        379        378        396        397        380        379        397        398        381        380        398        399        382        381        399        400        383        382        400        401        384        383        401        402        385        384        402        403        386        385        403        404        387        386        404        405        388        387        405        406        389        388        406        407        390        389        408        409        392        391        409        410        393        392        410        411        394        393        411        412        395        394        412        413        396        395        413        414        397        396        414        415        398        397        415        416        399        398        416        417        400        399        417        418        401        400        418        419        402        401        419        420        403        402        420        421        404        403        421        422        405        404        422        423        406        405        423        424        407        406        425        426        409        408        426        427        410        409        427        428        411        410        428        429        412        411        429        430        413        412        430        431        414        413        431        432        415        414        432        433        416        415        433        434        417        416        434        435        418        417        435        436        419        418        436        437        420        419        437        438        421        420        438        439        422        421        439        440        423        422        440        441        424        423        442        443        426        425        443        444        427        426        444        445        428        427        445        446        429        428        446        447        430        429        447        448        431        430        448        449        432        431        449        450        433        432        450        451        434        433        451        452        435        434        452        453        436        435        453        454        437        436        454        455        438        437        455        456        439        438        456        457        440        439        457        458        441        440        459        460        443        442        460        461        444        443        461        462        445        444        462        463        446        445        463        464        447        446        464        465        448        447        465        466        449        448        466        467        450        449        467        468        451        450        468        469        452        451        469        470        453        452        470        471        454        453        471        472        455        454        472        473        456        455        473        474        457        456        474        475        458        457        476        477        460        459        477        478        461        460        478        479        462        461        479        480        463        462        480        481        464        463        481        482        465        464        482        483        466        465        483        484        467        466        484        485        468        467        485        486        469        468        486        487        470        469        487        488        471        470        488        489        472        471        489        490        473        472        490        491        474        473        491        492        475        474        493        494        477        476        494        495        478        477        495        496        479        478        496        497        480        479        497        498        481        480        498        499        482        481        499        500        483        482        500        501        484        483        501        502        485        484        502        503        486        485        503        504        487        486        504        505        488        487        505        506        489        488        506        507        490        489        507        508        491        490        508        509        492        491        510        511        494        493        511        512        495        494        512        513        496        495        513        514        497        496        514        515        498        497        515        516        499        498        516        517        500        499        517        518        501        500        518        519        502        501        519        520        503        502        520        521        504        503        521        522        505        504        522        523        506        505        523        524        507        506        524        525        508        507        525        526        509        508        527        528        511        510        528        529        512        511        529        530        513        512        530        531        514        513        531        532        515        514        532        533        516        515        533        534        517        516        534        535        518        517        535        536        519        518        536        537        520        519        537        538        521        520        538        539        522        521        539        540        523        522        540        541        524        523        541        542        525        524        542        543        526        525        544        545        528        527        545        546        529        528        546        547        530        529        547        548        531        530        548        549        532        531        549        550        533        532        550        551        534        533        551        552        535        534        552        553        536        535        553        554        537        536        554        555        538        537        555        556        539        538        556        557        540        539        557        558        541        540        558        559        542        541        559        560        543        542        561        562        545        544        562        563        546        545        563        564        547        546        564        565        548        547        565        566        549        548        566        567        550        549        567        568        551        550        568        569        552        551        569        570        553        552        570        571        554        553        571        572        555        554        572        573        556        555        573        574        557        556        574        575        558        557        575        576        559        558        576        577        560        559        578        579        596        595        579        580        597        596        580        581        598        597        581        582        599        598        582        583        600        599        583        584        601        600        584        585        602        601        585        586        603        602        586        587        604        603        587        588        605        604        588        589        606        605        589        590        607        606        590        591        608        607        591        592        609        608        592        593        610        609        593        594        611        610        595        596        613        612        596        597        614        613        597        598        615        614        598        599        616        615        599        600        617        616        600        601        618        617        601        602        619        618        602        603        620        619        603        604        621        620        604        605        622        621        605        606        623        622        606        607        624        623        607        608        625        624        608        609        626        625        609        610        627        626        610        611        628        627        612        613        630        629        613        614        631        630        614        615        632        631        615        616        633        632        616        617        634        633        617        618        635        634        618        619        636        635        619        620        637        636        620        621        638        637        621        622        639        638        622        623        640        639        623        624        641        640        624        625        642        641        625        626        643        642        626        627        644        643        627        628        645        644        629        630        647        646        630        631        648        647        631        632        649        648        632        633        650        649        633        634        651        650        634        635        652        651        635        636        653        652        636        637        654        653        637        638        655        654        638        639        656        655        639        640        657        656        640        641        658        657        641        642        659        658        642        643        660        659        643        644        661        660        644        645        662        661        646        647        664        663        647        648        665        664        648        649        666        665        649        650        667        666        650        651        668        667        651        652        669        668        652        653        670        669        653        654        671        670        654        655        672        671        655        656        673        672        656        657        674        673        657        658        675        674        658        659        676        675        659        660        677        676        660        661        678        677        661        662        679        678        663        664        681        680        664        665        682        681        665        666        683        682        666        667        684        683        667        668        685        684        668        669        686        685        669        670        687        686        670        671        688        687        671        672        689        688        672        673        690        689        673        674        691        690        674        675        692        691        675        676        693        692        676        677        694        693        677        678        695        694        678        679        696        695        680        681        698        697        681        682        699        698        682        683        700        699        683        684        701        700        684        685        702        701        685        686        703        702        686        687        704        703        687        688        705        704        688        689        706        705        689        690        707        706        690        691        708        707        691        692        709        708        692        693        710        709        693        694        711        710        694        695        712        711        695        696        713        712        697        698        715        714        698        699        716        715        699        700        717        716        700        701        718        717        701        702        719        718        702        703        720        719        703        704        721        720        704        705        722        721        705        706        723        722        706        707        724        723        707        708        725        724        708        709        726        725        709        710        727        726        710        711        728        727        711        712        729        728        712        713        730        729        714        715        732        731        715        716        733        732        716        717        734        733        717        718        735        734        718        719        736        735        719        720        737        736        720        721        738        737        721        722        739        738        722        723        740        739        723        724        741        740        724        725        742        741        725        726        743        742        726        727        744        743        727        728        745        744        728        729        746        745        729        730        747        746        731        732        749        748        732        733        750        749        733        734        751        750        734        735        752        751        735        736        753        752        736        737        754        753        737        738        755        754        738        739        756        755        739        740        757        756        740        741        758        757        741        742        759        758        742        743        760        759        743        744        761        760        744        745        762        761        745        746        763        762        746        747        764        763        748        749        766        765        749        750        767        766        750        751        768        767        751        752        769        768        752        753        770        769        753        754        771        770        754        755        772        771        755        756        773        772        756        757        774        773        757        758        775        774        758        759        776        775        759        760        777        776        760        761        778        777        761        762        779        778        762        763        780        779        763        764        781        780        765        766        783        782        766        767        784        783        767        768        785        784        768        769        786        785        769        770        787        786        770        771        788        787        771        772        789        788        772        773        790        789        773        774        791        790        774        775        792        791        775        776        793        792        776        777        794        793        777        778        795        794        778        779        796        795        779        780        797        796        780        781        798        797        782        783        800        799        783        784        801        800        784        785        802        801        785        786        803        802        786        787        804        803        787        788        805        804        788        789        806        805        789        790        807        806        790        791        808        807        791        792        809        808        792        793        810        809        793        794        811        810        794        795        812        811        795        796        813        812        796        797        814        813        797        798        815        814        799        800        817        816        800        801        818        817        801        802        819        818        802        803        820        819        803        804        821        820        804        805        822        821        805        806        823        822        806        807        824        823        807        808        825        824        808        809        826        825        809        810        827        826        810        811        828        827        811        812        829        828        812        813        830        829        813        814        831        830        814        815        832        831        816        817        834        833        817        818        835        834        818        819        836        835        819        820        837        836        820        821        838        837        821        822        839        838        822        823        840        839        823        824        841        840        824        825        842        841        825        826        843        842        826        827        844        843        827        828        845        844        828        829        846        845        829        830        847        846        830        831        848        847        831        832        849        848        833        834        562        561        834        835        563        562        835        836        564        563        836        837        565        564        837        838        566        565        838        839        567        566        839        840        568        567        840        841        569        568        841        842        570        569        842        843        571        570        843        844        572        571        844        845        573        572        845        846        574        573        846        847        575        574        847        848        576        575        848        849        577        576        884        885        579        578        885        886        580        579        886        887        581        580        887        888        582        581        888        889        583        582        889        890        584        583        890        891        585        584        891        892        586        585        892        893        587        586        893        894        588        587        894        895        589        588        895        896        590        589        896        897        591        590        897        898        592        591        898        899        593        592        899        900        594        593        901        902        885        884        902        903        886        885        903        904        887        886        904        905        888        887        905        906        889        888        906        907        890        889        907        908        891        890        908        909        892        891        909        910        893        892        910        911        894        893        911        912        895        894        912        913        896        895        913        914        897        896        914        915        898        897        915        916        899        898        916        917        900        899        918        919        902        901        919        920        903        902        920        921        904        903        921        922        905        904        922        923        906        905        923        924        907        906        924        925        908        907        925        926        909        908        926        927        910        909        927        928        911        910        928        929        912        911        929        930        913        912        930        931        914        913        931        932        915        914        932        933        916        915        933        934        917        916        935        936        919        918        936        937        920        919        937        938        921        920        938        939        922        921        939        940        923        922        940        941        924        923        941        942        925        924        942        943        926        925        943        944        927        926        944        945        928        927        945        946        929        928        946        947        930        929        947        948        931        930        948        949        932        931        949        950        933        932        950        951        934        933        952        953        936        935        953        954        937        936        954        955        938        937        955        956        939        938        956        957        940        939        957        958        941        940        958        959        942        941        959        960        943        942        960        961        944        943        961        962        945        944        962        963        946        945        963        964        947        946        964        965        948        947        965        966        949        948        966        967        950        949        967        968        951        950        969        970        953        952        970        971        954        953        971        972        955        954        972        973        956        955        973        974        957        956        974        975        958        957        975        976        959        958        976        977        960        959        977        978        961        960        978        979        962        961        979        980        963        962        980        981        964        963        981        982        965        964        982        983        966        965        983        984        967        966        984        985        968        967        986        987        970        969        987        988        971        970        988        989        972        971        989        990        973        972        990        991        974        973        991        992        975        974        992        993        976        975        993        994        977        976        994        995        978        977        995        996        979        978        996        997        980        979        997        998        981        980        998        999        982        981        999       1000        983        982       1000       1001        984        983       1001       1002        985        984       1003       1004        987        986       1004       1005        988        987       1005       1006        989        988       1006       1007        990        989       1007       1008        991        990       1008       1009        992        991       1009       1010        993        992       1010       1011        994        993       1011       1012        995        994       1012       1013        996        995       1013       1014        997        996       1014       1015        998        997       1015       1016        999        998       1016       1017       1000        999       1017       1018       1001       1000       1018       1019       1002       1001       1020       1021       1004       1003       1021       1022       1005       1004       1022       1023       1006       1005       1023       1024       1007       1006       1024       1025       1008       1007       1025       1026       1009       1008       1026       1027       1010       1009       1027       1028       1011       1010       1028       1029       1012       1011       1029       1030       1013       1012       1030       1031       1014       1013       1031       1032       1015       1014       1032       1033       1016       1015       1033       1034       1017       1016       1034       1035       1018       1017       1035       1036       1019       1018       1037       1038       1021       1020       1038       1039       1022       1021       1039       1040       1023       1022       1040       1041       1024       1023       1041       1042       1025       1024       1042       1043       1026       1025       1043       1044       1027       1026       1044       1045       1028       1027       1045       1046       1029       1028       1046       1047       1030       1029       1047       1048       1031       1030       1048       1049       1032       1031       1049       1050       1033       1032       1050       1051       1034       1033       1051       1052       1035       1034       1052       1053       1036       1035       1054       1055       1038       1037       1055       1056       1039       1038       1056       1057       1040       1039       1057       1058       1041       1040       1058       1059       1042       1041       1059       1060       1043       1042       1060       1061       1044       1043       1061       1062       1045       1044       1062       1063       1046       1045       1063       1064       1047       1046       1064       1065       1048       1047       1065       1066       1049       1048       1066       1067       1050       1049       1067       1068       1051       1050       1068       1069       1052       1051       1069       1070       1053       1052       1071       1072       1055       1054       1072       1073       1056       1055       1073       1074       1057       1056       1074       1075       1058       1057       1075       1076       1059       1058       1076       1077       1060       1059       1077       1078       1061       1060       1078       1079       1062       1061       1079       1080       1063       1062       1080       1081       1064       1063       1081       1082       1065       1064       1082       1083       1066       1065       1083       1084       1067       1066       1084       1085       1068       1067       1085       1086       1069       1068       1086       1087       1070       1069       1088       1089       1072       1071       1089       1090       1073       1072       1090       1091       1074       1073       1091       1092       1075       1074       1092       1093       1076       1075       1093       1094       1077       1076       1094       1095       1078       1077       1095       1096       1079       1078       1096       1097       1080       1079       1097       1098       1081       1080       1098       1099       1082       1081       1099       1100       1083       1082       1100       1101       1084       1083       1101       1102       1085       1084       1102       1103       1086       1085       1103       1104       1087       1086       1105       1106       1089       1088       1106       1107       1090       1089       1107       1108       1091       1090       1108       1109       1092       1091       1109       1110       1093       1092       1110       1111       1094       1093       1111       1112       1095       1094       1112       1113       1096       1095       1113       1114       1097       1096       1114       1115       1098       1097       1115       1116       1099       1098       1116       1117       1100       1099       1117       1118       1101       1100       1118       1119       1102       1101       1119       1120       1103       1102       1120       1121       1104       1103       1122       1123       1106       1105       1123       1124       1107       1106       1124       1125       1108       1107       1125       1126       1109       1108       1126       1127       1110       1109       1127       1128       1111       1110       1128       1129       1112       1111       1129       1130       1113       1112       1130       1131       1114       1113       1131       1132       1115       1114       1132       1133       1116       1115       1133       1134       1117       1116       1134       1135       1118       1117       1135       1136       1119       1118       1136       1137       1120       1119       1137       1138       1121       1120        272        273       1123       1122        273        274       1124       1123        274        275       1125       1124        275        276       1126       1125        276        277       1127       1126        277        278       1128       1127        278        279       1129       1128        279        280       1130       1129        280        281       1131       1130        281        282       1132       1131        282        283       1133       1132        283        284       1134       1133        284        285       1135       1134        285        286       1136       1135        286        287       1137       1136        287        288       1138       1137 </DataArray>
<DataArray type="Int32"                                    Name="offsets"                                                      NumberOfComponents=" 1" format="ascii">
         4          8         12         16         20         24         28         32         36         40         44         48         52         56         60         64         68         72         76         80         84         88         92         96        100        104        108        112        116        120        124        128        132        136        140        144        148        152        156        160        164        168        172        176        180        184        188        192        196        200        204        208        212        216        220        224        228        232        236        240        244        248        252        256        260        264        268        272        276        280        284        288        292        296        300        304        308        312        316        320        324        328        332        336        340        344        348        352        356        360        364        368        372        376        380        384        388        392        396        400        404        408        412        416        420        424        428        432        436        440        444        448        452        456        460        464        468        472        476        480        484        488        492        496        500        504        508        512        516        520        524        528        532        536        540        544        548        552        556        560        564        568        572        576        580        584        588        592        596        600        604        608        612        616        620        624        628        632        636        640        644        648        652        656        660        664        668        672        676        680        684        688        692        696        700        704        708        712        716        720        724        728        732        736        740        744        748        752        756        760        764        768        772        776        780        784        788        792        796        800        804        808        812        816        820        824        828        832        836        840        844        848        852        856        860        864        868        872        876        880        884        888        892        896        900        904        908        912        916        920        924        928        932        936        940        944        948        952        956        960        964        968        972        976        980        984        988        992        996       1000       1004       1008       1012       1016       1020       1024       1028       1032       1036       1040       1044       1048       1052       1056       1060       1064       1068       1072       1076       1080       1084       1088       1092       1096       1100       1104       1108       1112       1116       1120       1124       1128       1132       1136       1140       1144       1148       1152       1156       1160       1164       1168       1172       1176       1180       1184       1188       1192       1196       1200       1204       1208       1212       1216       1220       1224       1228       1232       1236       1240       1244       1248       1252       1256       1260       1264       1268       1272       1276       1280       1284       1288       1292       1296       1300       1304       1308       1312       1316       1320       1324       1328       1332       1336       1340       1344       1348       1352       1356       1360       1364       1368       1372       1376       1380       1384       1388       1392       1396       1400       1404       1408       1412       1416       1420       1424       1428       1432       1436       1440       1444       1448       1452       1456       1460       1464       1468       1472       1476       1480       1484       1488       1492       1496       1500       1504       1508       1512       1516       1520       1524       1528       1532       1536       1540       1544       1548       1552       1556       1560       1564       1568       1572       1576       1580       1584       1588       1592       1596       1600       1604       1608       1612       1616       1620       1624       1628       1632       1636       1640       1644       1648       1652       1656       1660       1664       1668       1672       1676       1680       1684       1688       1692       1696       1700       1704       1708       1712       1716       1720       1724       1728       1732       1736       1740       1744       1748       1752       1756       1760       1764       1768       1772       1776       1780       1784       1788       1792       1796       1800       1804       1808       1812       1816       1820       1824       1828       1832       1836       1840       1844       1848       1852       1856       1860       1864       1868       1872       1876       1880       1884       1888       1892       1896       1900       1904       1908       1912       1916       1920       1924       1928       1932       1936       1940       1944       1948       1952       1956       1960       1964       1968       1972       1976       1980       1984       1988       1992       1996       2000       2004       2008       2012       2016       2020       2024       2028       2032       2036       2040       2044       2048       2052       2056       2060       2064       2068       2072       2076       2080       2084       2088       2092       2096       2100       2104       2108       2112       2116       2120       2124       2128       2132       2136       2140       2144       2148       2152       2156       2160       2164       2168       2172       2176       2180       2184       2188       2192       2196       2200       2204       2208       2212       2216       2220       2224       2228       2232       2236       2240       2244       2248       2252       2256       2260       2264       2268       2272       2276       2280       2284       2288       2292       2296       2300       2304       2308       2312       2316       2320       2324       2328       2332       2336       2340       2344       2348       2352       2356       2360       2364       2368       2372       2376       2380       2384       2388       2392       2396       2400       2404       2408       2412       2416       2420       2424       2428       2432       2436       2440       2444       2448       2452       2456       2460       2464       2468       2472       2476       2480       2484       2488       2492       2496       2500       2504       2508       2512       2516       2520       2524       2528       2532       2536       2540       2544       2548       2552       2556       2560       2564       2568       2572       2576       2580       2584       2588       2592       2596       2600       2604       2608       2612       2616       2620       2624       2628       2632       2636       2640       2644       2648       2652       2656       2660       2664       2668       2672       2676       2680       2684       2688       2692       2696       2700       2704       2708       2712       2716       2720       2724       2728       2732       2736       2740       2744       2748       2752       2756       2760       2764       2768       2772       2776       2780       2784       2788       2792       2796       2800       2804       2808       2812       2816       2820       2824       2828       2832       2836       2840       2844       2848       2852       2856       2860       2864       2868       2872       2876       2880       2884       2888       2892       2896       2900       2904       2908       2912       2916       2920       2924       2928       2932       2936       2940       2944       2948       2952       2956       2960       2964       2968       2972       2976       2980       2984       2988       2992       2996       3000       3004       3008       3012       3016       3020       3024       3028       3032       3036       3040       3044       3048       3052       3056       3060       3064       3068       3072       3076       3080       3084       3088       3092       3096       3100       3104       3108       3112       3116       3120       3124       3128       3132       3136       3140       3144       3148       3152       3156       3160       3164       3168       3172       3176       3180       3184       3188       3192       3196       3200       3204       3208       3212       3216       3220       3224       3228       3232       3236       3240       3244       3248       3252       3256       3260       3264       3268       3272       3276       3280       3284       3288       3292       3296       3300       3304       3308       3312       3316       3320       3324       3328       3332       3336       3340       3344       3348       3352       3356       3360       3364       3368       3372       3376       3380       3384       3388       3392       3396       3400       3404       3408       3412       3416       3420       3424       3428       3432       3436       3440       3444       3448       3452       3456       3460       3464       3468       3472       3476       3480       3484       3488       3492       3496       3500       3504       3508       3512       3516       3520       3524       3528       3532       3536       3540       3544       3548       3552       3556       3560       3564       3568       3572       3576       3580       3584       3588       3592       3596       3600       3604       3608       3612       3616       3620       3624       3628       3632       3636       3640       3644       3648       3652       3656       3660       3664       3668       3672       3676       3680       3684       3688       3692       3696       3700       3704       3708       3712       3716       3720       3724       3728       3732       3736       3740       3744       3748       3752       3756       3760       3764       3768       3772       3776       3780       3784       3788       3792       3796       3800       3804       3808       3812       3816       3820       3824       3828       3832       3836       3840       3844       3848       3852       3856       3860       3864       3868       3872       3876       3880       3884       3888       3892       3896       3900       3904       3908       3912       3916       3920       3924       3928       3932       3936       3940       3944       3948       3952       3956       3960       3964       3968       3972       3976       3980       3984       3988       3992       3996       4000       4004       4008       4012       4016       4020       4024       4028       4032       4036       4040       4044       4048       4052       4056       4060       4064       4068       4072       4076       4080       4084       4088       4092       4096 </DataArray>
<DataArray type="UInt8"                                    Name="types"                                                      NumberOfComponents=" 1" format="ascii">
         9          9          9          9          9          9          9          9          9          9          9          9          9          9          9          9          9          9          9          9          9          9          9          9          9          9          9          9          9          9          9          9          9          9          9          9          9          9          9          9          9          9          9          9          9          9          9          9          9          9          9          9          9          9          9          9          9          9          9          9          9          9          9          9          9          9          9          9          9          9          9          9          9          9          9          9          9          9          9          9          9          9          9          9          9          9          9          9          9          9          9          9          9          9          9          9          9          9          9          9          9          9          9          9          9          9          9          9          9          9          9          9          9          9          9          9          9          9          9          9          9          9          9          9          9          9          9          9          9          9          9          9          9          9          9          9          9          9          9          9          9          9          9          9          9          9          9          9          9          9          9          9          9          9          9          9          9          9          9          9          9          9          9          9          9          9          9          9          9          9          9          9          9          9          9          9          9          9          9          9          9          9          9          9          9          9          9          9          9          9          9          9          9          9          9          9          9          9          9          9          9          9          9          9          9          9          9          9          9          9          9          9          9          9          9          9          9          9          9          9          9          9          9          9          9          9          9          9          9          9          9          9          9          9          9          9          9          9          9          9          9          9          9          9          9          9          9          9          9          9          9          9          9          9          9          9          9          9          9          9          9          9          9          9          9          9          9          9          9          9          9          9          9          9          9          9          9          9          9          9          9          9          9          9          9          9          9          9          9          9          9          9          9          9          9          9          9          9          9          9          9          9          9          9          9          9          9          9          9          9          9          9          9          9          9          9          9          9          9          9          9          9          9          9          9          9          9          9          9          9          9          9          9          9          9          9          9          9          9          9          9          9          9          9          9          9          9          9          9          9          9          9          9          9          9          9          9          9          9          9          9          9          9          9          9          9          9          9          9          9          9          9          9          9          9          9          9          9          9          9          9          9          9          9          9          9          9          9          9          9          9          9          9          9          9          9          9          9          9          9          9          9          9          9          9          9          9          9          9          9          9          9          9          9          9          9          9          9          9          9          9          9          9          9          9          9          9          9          9          9          9          9          9          9          9          9          9          9          9          9          9          9          9          9          9          9          9          9          9          9          9          9          9          9          9          9          9          9          9          9          9          9          9          9          9          9          9          9          9          9          9          9          9          9          9          9          9          9          9          9          9          9          9          9          9          9          9          9          9          9          9          9          9          9          9          9          9          9          9          9          9          9          9          9          9          9          9          9          9          9          9          9          9          9          9          9          9          9          9          9          9          9          9          9          9          9          9          9          9          9          9          9          9          9          9          9          9          9          9          9          9          9          9          9          9          9          9          9          9          9          9          9          9          9          9          9          9          9          9          9          9          9          9          9          9          9          9          9          9          9          9          9          9          9          9          9          9          9          9          9          9          9          9          9          9          9          9          9          9          9          9          9          9          9          9          9          9          9          9          9          9          9          9          9          9          9          9          9          9          9          9          9          9          9          9          9          9          9          9          9          9          9          9          9          9          9          9          9          9          9          9          9          9          9          9          9          9          9          9          9          9          9          9          9          9          9          9          9          9          9          9          9          9          9          9          9          9          9          9          9          9          9          9          9          9          9          9          9          9          9          9          9          9          9          9          9          9          9          9          9          9          9          9          9          9          9          9          9          9          9          9          9          9          9          9          9          9          9          9          9          9          9          9          9          9          9          9          9          9          9          9          9          9          9          9          9          9          9          9          9          9          9          9          9          9          9          9          9          9          9          9          9          9          9          9          9          9          9          9          9          9          9          9          9          9          9          9          9          9          9          9          9          9          9          9          9          9          9          9          9          9          9          9          9          9          9          9          9          9          9          9          9          9          9          9          9          9          9          9          9          9          9          9          9          9          9          9          9          9          9          9          9          9          9          9          9          9          9          9          9          9          9          9          9          9          9          9          9          9          9          9          9          9          9          9          9          9          9          9          9          9          9          9          9          9          9          9          9          9          9          9          9          9          9          9          9          9          9          9          9          9          9          9          9          9          9          9          9          9          9          9          9          9          9          9          9          9          9          9          9          9          9          9          9          9          9          9          9          9          9          9          9          9          9          9          9          9          9          9          9          9          9          9          9          9          9          9          9          9          9          9          9          9          9          9          9          9          9          9          9          9          9          9          9          9          9          9          9          9          9          9          9          9          9          9          9          9          9          9          9          9          9          9          9          9          9          9          9          9          9          9          9          9          9          9          9          9          9          9          9          9          9          9          9          9          9          9          9          9          9          9          9          9          9          9          9          9          9          9          9          9          9          9          9          9          9          9          9          9          9          9          9          9          9          9          9          9          9          9          9          9          9          9          9          9          9          9          9          9          9          9          9          9          9          9          9          9          9          9          9          9          9          9          9          9          9          9          9          9          9          9          9          9          9          9          9          9          9          9          9          9          9          9          9 </DataArray>
</Cells>
<CellData>
<DataArray type="Int32"                                    Name="material"                                                      NumberOfComponents=" 1" format="ascii">
         1          1          1          1          1          1          1          1          1          1          1          1          1          1          1          1          1          1          1          1          1          1          1          1          1          1          1          1          1          1          1          1          1          1          1          1          1          1          1          1          1          1          1          1          1          1          1          1          1          1          1          1          1          1          1          1          1          1          1          1          1          1          1          1          1          1          1          1          1          1          1          1          1          1          1          1          1          1          1          1          1          1          1          1          1          1          1          1          1          1          1          1          1          1          1          1          1          1          1          1          1          1          1          1          1          1          1          1          1          1          1          1          1          1          1          1          1          1          1          1          1          1          1          1          1          1          1          1          1          1          1          1          1          1          1          1          1          1          1          1          1          1          1          1          1          1          1          1          1          1          1          1          1          1          1          1          1          1          1          1          1          1          1          1          1          1          1          1          1          1          1          1          1          1          1          1          1          1          1          1          1          1          1          1          1          1          1          1          1          1          1          1          1          1          1          1          1          1          1          1          1          1          1          1          1          1          1          1          1          1          1          1          1          1          1          1          1          1          1          1          1          1          1          1          1          1          1          1          1          1          1          1          1          1          1          1          1          1          1          1          1          1          1          1          1          1          1          1          1          1          1          1          1          1          1          1          1          1          1          1          1          1          1          1          1          1          1          1          1          1          1          1          1          1          1          1          1          1          1          1          1          1          1          1          1          1          1          1          1          1          1          1          1          1          1          1          1          1          1          1          1          1          1          1          1          1          1          1          1          1          1          1          1          1          1          1          1          1          1          1          1          1          1          1          1          1          1          1          1          1          1          1          1          1          1          1          1          1          1          1          1          1          1          1          1          1          1          1          1          1          1          1          1          1          1          1          1          1          1          1          1          1          1          1          1          1          1          1          1          1          1          1          1          1          1          1          1          1          1          1          1          1          1          1          1          1          1          1          1          1          1          1          1          1          1          1          1          1          1          1          1          1          1          1          1          1          1          1          1          1          1          1          1          1          1          1          1          1          1          1          1          1          1          1          1          1          1          1          1          1          1          1          1          1          1          1          1          1          1          1          1          1          1          1          1          1          1          1          1          1          1          1          1          1          1          1          1          1          1          1          1          1          1          1          1          1          1          1          1          1          1          1          1          1          1          1          1          1          1          1          1          1          1          1          1          1          1          1          1          1          1          1          1          1          1          1          1          1          1          1          1          1          1          1          1          1          1          1          1          1          1          1          1          1          1          1          1          1          1          1          1          1          1          1          1          1          1          1          1          1          1          1          1          1          1          1          1          1          1          1          1          1          1          1          1          1          1          1          1          1          1          1          1          1          1          1          1          1          1          1          1          1          1          1          1          1          1          1          1          1          1          1          1          1          1          1          1          1          1          1          1          1          1          1          1          1          1          1          1          1          1          1          1          1          1          1          1          1          1          1          1          1          1          1          1          1          1          1          1          1          1          1          1          1          1          1          1          1          1          1          1          1          1          1          1          1          1          1          1          1          1          1          1          1          1          1          1          1          1          1          1          1          1          1          1          1          1          1          1          1          1          1          1          1          1          1          1          1          1          1          1          1          1          1          1          1          1          1          1          1          1          1          1          1          1          1          1          1          1          1          1          1          1          1          1          1          1          1          1          1          1          1          1          1          1          1          1          1          1          1          1          1          1          1          1          1          1          1          1          1          1          1          1          1          1          1          1          1          1          1          1          1          1          1          1          1          1          1          1          1          1          1          1          1          1          1          1          1          1          1          1          1          1          1          1          1          1          1          1          1          1          1          1          1          1          1          1          1          1          1          1          1          1          1          1          1          1          1          1          1          1          1          1          1          1          1          1          1          1          1          1          1          1          1          1          1          1          1          1          1          1          1          1          1          1          1          1          1          1          1          1          1          1          1          1          1          1          1          1          1          1          1          1          1          1          1          1          1          1          1          1          1          1          1          1          1          1          1          1          1          1          1          1          1          1          1          1          1          1          1          1          1          1          1          1          1          1          1          1          1          1          1          1          1          1          1          1          1          1          1          1          1          1          1          1          1          1          1          1          1          1          1          1          1          1          1          1          1          1          1          1          1          1          1          1          1          1          1          1          1          1          1          1          1          1          1          1          1          1          1          1          1          1          1          1          1          1          1          1          1          1          1          1          1          1          1          1          1          1          1          1          1          1          1          1          1          1          1          1          1          1          1          1          1          1          1          1          1          1          1          1          1          1          1          1          1          1          1          1          1          1          1          1          1          1          1          1          1          1          1          1          1          1          1          1          1          1          1          1          1          1          1          1          1          1          1          1          1          1          1          1          1          1          1          1          1          1          1          1          1          1          1          1          1          1          1          1          1          1          1          1          1          1          1          1          1          1          1          1          1          1          1          1          1          1          1          1          1          1          1          1          1          1          1 </DataArray>
</CellData>
<PointData>
<DataArray type="Float64"                                    Name="u"                                                      NumberOfComponents=" 3" format="ascii">
              0.000009090              -0.000000000               0.999999999               0.000002585               0.000000000               0.999999999              -0.000000376              -0.000000000               0.999999999              -0.000001782              -0.000000000               0.999999999              -0.000002560              -0.000000000               0.999999999              -0.000003181              -0.000000000               0.999999999              -0.000003894               0.000000000               0.999999999              -0.000004857               0.000000000               0.999999999              -0.000006171               0.000000000               0.999999999              -0.000007903              -0.000000000               0.999999999              -0.000010065              -0.000000000               0.999999999              -0.000012726              -0.000000000               0.999999999              -0.000015919              -0.000000000               0.999999999              -0.000019526              -0.000000000               0.999999999              -0.000023587              -0.000000000               0.999999999              -0.000028201              -0.000000000               0.999999999              -0.000033301               0.000000000               0.999999999               0.000009000               0.000016202               0.999999999               0.000002724               0.000014636               0.999999999              -0.000000120               0.000014194               0.999999999              -0.000001531               0.000014488               0.999999999              -0.000002360               0.000015232               0.999999999              -0.000003083               0.000016340               0.999999999              -0.000003954               0.000017741               0.999999999              -0.000005073               0.000019402               0.999999999              -0.000006563               0.000021285               0.999999999              -0.000008458               0.000023419               0.999999999              -0.000010817               0.000025845               0.999999999              -0.000013710               0.000028456               0.999999999              -0.000017096               0.000031235               0.999999999              -0.000020957               0.000034002               0.999999999              -0.000025250               0.000036897               0.999999999              -0.000029949               0.000040074               0.999999999              -0.000035130               0.000043462               0.999999999               0.000008789               0.000032268               0.999999999               0.000003120               0.000029091               0.999999999               0.000000563               0.000028326               0.999999999              -0.000000803               0.000028956               0.999999999              -0.000001812               0.000030548               0.999999999              -0.000002873               0.000032795               0.999999999              -0.000004141               0.000035651               0.999999999              -0.000005723               0.000038932               0.999999999              -0.000007714               0.000042738               0.999999999              -0.000010165               0.000046985               0.999999999              -0.000013100               0.000051808               0.999999999              -0.000016545               0.000057045               0.999999999              -0.000020481               0.000062431               0.999999999              -0.000024798               0.000067846               0.999999999              -0.000029541               0.000073490               0.999999999              -0.000034774               0.000079620               0.999999999              -0.000040420               0.000086073               0.999999999               0.000008454               0.000048035               0.999999999               0.000003785               0.000043246               0.999999999               0.000001647               0.000042287               0.999999999               0.000000242               0.000043436               0.999999999              -0.000001115               0.000045967               0.999999999              -0.000002668               0.000049487               0.999999999              -0.000004575               0.000053787               0.999999999              -0.000006864               0.000058793               0.999999999              -0.000009645               0.000064448               0.999999999              -0.000012929               0.000070869               0.999999999              -0.000016725               0.000078030               0.999999999              -0.000021009               0.000085647               0.999999999              -0.000025664               0.000093453               0.999999999              -0.000030693               0.000101343               0.999999999              -0.000036150               0.000109678               0.999999999              -0.000041975               0.000118461               0.999999999              -0.000048136               0.000127527               0.999999999               0.000008001               0.000063323               0.999999999               0.000004701               0.000056999               0.999999999               0.000002965               0.000056011               0.999999999               0.000001427               0.000057893               0.999999999              -0.000000376               0.000061487               0.999999999              -0.000002639               0.000066362               0.999999999              -0.000005342               0.000072209               0.999999999              -0.000008520               0.000078917               0.999999999              -0.000012245               0.000086558               0.999999999              -0.000016530               0.000095141               0.999999999              -0.000021310               0.000104592               0.999999999              -0.000026455               0.000114435               0.999999999              -0.000031893               0.000124475               0.999999999              -0.000037654               0.000134728               0.999999999              -0.000043814               0.000145550               0.999999999              -0.000050325               0.000156703               0.999999999              -0.000057119               0.000168116               0.999999999               0.000007482               0.000077986               0.999999999               0.000005765               0.000070253               0.999999999               0.000004376               0.000069462               0.999999999               0.000002555               0.000072202               0.999999999               0.000000152               0.000077012               0.999999999              -0.000002872               0.000083374               0.999999999              -0.000006465               0.000090831               0.999999999              -0.000010605               0.000099443               0.999999999              -0.000015330               0.000109084               0.999999999              -0.000020632               0.000119909               0.999999999              -0.000026349               0.000131440               0.999999999              -0.000032299               0.000143443               0.999999999              -0.000038540               0.000155599               0.999999999              -0.000045057               0.000168157               0.999999999              -0.000051924               0.000181468               0.999999999              -0.000059174               0.000195175               0.999999999              -0.000066835               0.000209233               0.999999999               0.000006896               0.000091852               0.999999999               0.000006880               0.000082930               0.999999999               0.000005692               0.000082519               0.999999999               0.000003436               0.000086229               0.999999999               0.000000349               0.000092409               0.999999999              -0.000003488               0.000100328               0.999999999              -0.000007946               0.000109583               0.999999999              -0.000012967               0.000120144               0.999999999              -0.000018632               0.000132014               0.999999999              -0.000024902               0.000145057               0.999999999              -0.000031460               0.000158772               0.999999999              -0.000038262               0.000172875               0.999999999              -0.000045346               0.000187274               0.999999999              -0.000052728               0.000202375               0.999999999              -0.000060502               0.000218409               0.999999999              -0.000068759               0.000235002               0.999999999              -0.000077491               0.000252166               0.999999999               0.000006222               0.000104724               0.999999999               0.000007944               0.000094962               0.999999999               0.000006743               0.000095074               0.999999999               0.000003929               0.000099846               0.999999999               0.000000098               0.000107457               0.999999999              -0.000004479               0.000117007               0.999999999              -0.000009697               0.000128208               0.999999999              -0.000015599               0.000140965               0.999999999              -0.000022174               0.000155226               0.999999999              -0.000029201               0.000170576               0.999999999              -0.000036535               0.000186496               0.999999999              -0.000044087               0.000202945               0.999999999              -0.000051875               0.000220183               0.999999999              -0.000060081               0.000238451               0.999999999              -0.000068771               0.000257875               0.999999999              -0.000078020               0.000278020               0.999999999              -0.000087736               0.000298698               0.999999999               0.000005449               0.000116416               0.999999999               0.000008881               0.000106337               0.999999999               0.000007393               0.000107019               0.999999999               0.000003967               0.000112879               0.999999999              -0.000000570               0.000121923               0.999999999              -0.000005815               0.000133254               0.999999999              -0.000011760               0.000146621               0.999999999              -0.000018462               0.000161758               0.999999999              -0.000025825               0.000178407               0.999999999              -0.000033521               0.000196151               0.999999999              -0.000041408               0.000214732               0.999999999              -0.000049416               0.000234337               0.999999999              -0.000057802               0.000255221               0.999999999              -0.000066779               0.000277500               0.999999999              -0.000076324               0.000300905               0.999999999              -0.000086345               0.000325139               0.999999999              -0.000096682               0.000350048               0.999999999               0.000004444               0.000127301               0.999999999               0.000009277               0.000117988               0.999999999               0.000008461               0.000117641               0.999999999               0.000005490               0.000122239               0.999999999               0.000001485               0.000130003               0.999999999              -0.000003138               0.000140049               0.999999999              -0.000008233               0.000152004               0.999999999              -0.000013958               0.000165600               0.999999999              -0.000020364               0.000180691               0.999999999              -0.000027148               0.000197026               0.999999999              -0.000034041               0.000214335               0.999999999              -0.000040836               0.000232694               0.999999999              -0.000047646               0.000252130               0.999999999              -0.000054946               0.000272909               0.999999999              -0.000062815               0.000294894               0.999999999              -0.000071050               0.000317970               0.999999999              -0.000079668               0.000342054               0.999999999               0.000003501               0.000137096               0.999999999               0.000009160               0.000129043               0.999999999               0.000009055               0.000128230               0.999999999               0.000006642               0.000131834               0.999999999               0.000003191               0.000138477               0.999999999              -0.000000735               0.000147347               0.999999999              -0.000005072               0.000157997               0.999999999              -0.000009833               0.000170229               0.999999999              -0.000015225               0.000183912               0.999999999              -0.000020979               0.000198849               0.999999999              -0.000026849               0.000214924               0.999999999              -0.000032683               0.000232018               0.999999999              -0.000038401               0.000250109               0.999999999              -0.000044227               0.000269376               0.999999999              -0.000050427               0.000289857               0.999999999              -0.000057058               0.000311456               0.999999999              -0.000064150               0.000334092               0.999999999               0.000002671               0.000145669               0.999999999               0.000008571               0.000139262               0.999999999               0.000009032               0.000138387               0.999999999               0.000007238               0.000141369               0.999999999               0.000004424               0.000147135               0.999999999               0.000001184               0.000154971               0.999999999              -0.000002318               0.000164556               0.999999999              -0.000006203               0.000175629               0.999999999              -0.000010547               0.000188079               0.999999999              -0.000015175               0.000201801               0.999999999              -0.000020000               0.000216633               0.999999999              -0.000025056               0.000232425               0.999999999              -0.000029830               0.000249305               0.999999999              -0.000034403               0.000267322               0.999999999              -0.000039273               0.000286450               0.999999999              -0.000044450               0.000306622               0.999999999              -0.000049806               0.000327873               0.999999999               0.000001947               0.000152857               0.999999999               0.000007493               0.000148275               0.999999999               0.000008359               0.000147717               0.999999999               0.000007151               0.000150410               0.999999999               0.000004981               0.000155537               0.999999999               0.000002488               0.000162620               0.999999999              -0.000000247               0.000171310               0.999999999              -0.000003239               0.000181464               0.999999999              -0.000006599               0.000192895               0.999999999              -0.000010182               0.000205532               0.999999999              -0.000014103               0.000219215               0.999999999              -0.000018119               0.000233917               0.999999999              -0.000021968               0.000249725               0.999999999              -0.000025588               0.000266627               0.999999999              -0.000029270               0.000284693               0.999999999              -0.000033108               0.000303823               0.999999999              -0.000036745               0.000323938               0.999999999               0.000001331               0.000158569               0.999999999               0.000006010               0.000155753               0.999999999               0.000007017               0.000155722               0.999999999               0.000006307               0.000158366               0.999999999               0.000004769               0.000163126               0.999999999               0.000002969               0.000169660               0.999999999               0.000000979               0.000177719               0.999999999              -0.000001194               0.000187146               0.999999999              -0.000003655               0.000197784               0.999999999              -0.000006336               0.000209529               0.999999999              -0.000009189               0.000222330               0.999999999              -0.000012090               0.000236279               0.999999999              -0.000014992               0.000251331               0.999999999              -0.000017806               0.000267443               0.999999999              -0.000020459               0.000284620               0.999999999              -0.000022966               0.000302892               0.999999999              -0.000025156               0.000322141               0.999999999               0.000000827               0.000162736               0.999999999               0.000004194               0.000161360               0.999999999               0.000005065               0.000161886               0.999999999               0.000004720               0.000164630               0.999999999               0.000003765               0.000169226               0.999999999               0.000002574               0.000175445               0.999999999               0.000001331               0.000183090               0.999999999              -0.000000139               0.000191996               0.999999999              -0.000001726               0.000202112               0.999999999              -0.000003494               0.000213353               0.999999999              -0.000005273               0.000225643               0.999999999              -0.000007151               0.000239010               0.999999999              -0.000009122               0.000253531               0.999999999              -0.000011090               0.000269227               0.999999999              -0.000012869               0.000285900               0.999999999              -0.000014175               0.000303497               0.999999999              -0.000015037               0.000322103               0.999999999               0.000000391               0.000165233               0.999999999               0.000002144               0.000164838               0.999999999               0.000002672               0.000165808               0.999999999               0.000002528               0.000168659               0.999999999               0.000002067               0.000173208               0.999999999               0.000001509               0.000179288               0.999999999               0.000000865               0.000186697               0.999999999               0.000000155               0.000195320               0.999999999              -0.000000659               0.000205148               0.999999999              -0.000001387               0.000216109               0.999999999              -0.000002347               0.000228176               0.999999999              -0.000003325               0.000241327               0.999999999              -0.000004303               0.000255563               0.999999999              -0.000005273               0.000270928               0.999999999              -0.000006096               0.000287388               0.999999999              -0.000006650               0.000304770               0.999999999              -0.000006797               0.000323072               0.999999999              -0.000000000               0.000166060               0.999999999              -0.000000000               0.000166045               0.999999999               0.000000000               0.000167176               0.999999999              -0.000000000               0.000170020               0.999999999              -0.000000000               0.000174596               0.999999999              -0.000000000               0.000180626               0.999999999              -0.000000000               0.000187954               0.999999999               0.000000000               0.000196541               0.999999999               0.000000000               0.000206255               0.999999999               0.000000000               0.000217062               0.999999999               0.000000000               0.000229054               0.999999999               0.000000000               0.000242206               0.999999999               0.000000000               0.000256484               0.999999999               0.000000000               0.000271708               0.999999999              -0.000000000               0.000287926               0.999999999               0.000000000               0.000305395               0.999999999               0.000000000               0.000323826               0.999999999               0.000009090              -0.000000000               0.999999999               0.000002585               0.000000000               0.999999999              -0.000000376              -0.000000000               0.999999999              -0.000001782              -0.000000000               0.999999999              -0.000002560              -0.000000000               0.999999999              -0.000003181              -0.000000000               0.999999999              -0.000003894               0.000000000               0.999999999              -0.000004857               0.000000000               0.999999999              -0.000006171               0.000000000               0.999999999              -0.000007903              -0.000000000               0.999999999              -0.000010065              -0.000000000               0.999999999              -0.000012726              -0.000000000               0.999999999              -0.000015919              -0.000000000               0.999999999              -0.000019526              -0.000000000               0.999999999              -0.000023587              -0.000000000               0.999999999              -0.000028201              -0.000000000               0.999999999              -0.000033301               0.000000000               0.999999999               0.000009000              -0.000016202               0.999999999               0.000002724              -0.000014636               0.999999999              -0.000000120              -0.000014194               0.999999999              -0.000001531              -0.000014488               0.999999999              -0.000002360              -0.000015232               0.999999999              -0.000003083              -0.000016340               0.999999999              -0.000003954              -0.000017741               0.999999999              -0.000005073              -0.000019402               0.999999999              -0.000006563              -0.000021285               0.999999999              -0.000008458              -0.000023419               0.999999999              -0.000010817              -0.000025845               0.999999999              -0.000013710              -0.000028456               0.999999999              -0.000017096              -0.000031235               0.999999999              -0.000020957              -0.000034002               0.999999999              -0.000025250              -0.000036897               0.999999999              -0.000029949              -0.000040074               0.999999999              -0.000035130              -0.000043462               0.999999999               0.000008789              -0.000032268               0.999999999               0.000003120              -0.000029091               0.999999999               0.000000563              -0.000028326               0.999999999              -0.000000803              -0.000028956               0.999999999              -0.000001812              -0.000030548               0.999999999              -0.000002873              -0.000032795               0.999999999              -0.000004141              -0.000035651               0.999999999              -0.000005723              -0.000038932               0.999999999              -0.000007714              -0.000042738               0.999999999              -0.000010165              -0.000046985               0.999999999              -0.000013100              -0.000051808               0.999999999              -0.000016545              -0.000057045               0.999999999              -0.000020481              -0.000062431               0.999999999              -0.000024798              -0.000067846               0.999999999              -0.000029541              -0.000073490               0.999999999              -0.000034774              -0.000079620               0.999999999              -0.000040420              -0.000086073               0.999999999               0.000008454              -0.000048035               0.999999999               0.000003785              -0.000043246               0.999999999               0.000001647              -0.000042287               0.999999999               0.000000242              -0.000043436               0.999999999              -0.000001115              -0.000045967               0.999999999              -0.000002668              -0.000049487               0.999999999              -0.000004575              -0.000053787               0.999999999              -0.000006864              -0.000058793               0.999999999              -0.000009645              -0.000064448               0.999999999              -0.000012929              -0.000070869               0.999999999              -0.000016725              -0.000078030               0.999999999              -0.000021009              -0.000085647               0.999999999              -0.000025664              -0.000093453               0.999999999              -0.000030693              -0.000101343               0.999999999              -0.000036150              -0.000109678               0.999999999              -0.000041975              -0.000118461               0.999999999              -0.000048136              -0.000127527               0.999999999               0.000008001              -0.000063323               0.999999999               0.000004701              -0.000056999               0.999999999               0.000002965              -0.000056011               0.999999999               0.000001427              -0.000057893               0.999999999              -0.000000376              -0.000061487               0.999999999              -0.000002639              -0.000066362               0.999999999              -0.000005342              -0.000072209               0.999999999              -0.000008520              -0.000078917               0.999999999              -0.000012245              -0.000086558               0.999999999              -0.000016530              -0.000095141               0.999999999              -0.000021310              -0.000104592               0.999999999              -0.000026455              -0.000114435               0.999999999              -0.000031893              -0.000124475               0.999999999              -0.000037654              -0.000134728               0.999999999              -0.000043814              -0.000145550               0.999999999              -0.000050325              -0.000156703               0.999999999              -0.000057119              -0.000168116               0.999999999               0.000007482              -0.000077986               0.999999999               0.000005765              -0.000070253               0.999999999               0.000004376              -0.000069462               0.999999999               0.000002555              -0.000072202               0.999999999               0.000000152              -0.000077012               0.999999999              -0.000002872              -0.000083374               0.999999999              -0.000006465              -0.000090831               0.999999999              -0.000010605              -0.000099443               0.999999999              -0.000015330              -0.000109084               0.999999999              -0.000020632              -0.000119909               0.999999999              -0.000026349              -0.000131440               0.999999999              -0.000032299              -0.000143443               0.999999999              -0.000038540              -0.000155599               0.999999999              -0.000045057              -0.000168157               0.999999999              -0.000051924              -0.000181468               0.999999999              -0.000059174              -0.000195175               0.999999999              -0.000066835              -0.000209233               0.999999999               0.000006896              -0.000091852               0.999999999               0.000006880              -0.000082930               0.999999999               0.000005692              -0.000082519               0.999999999               0.000003436              -0.000086229               0.999999999               0.000000349              -0.000092409               0.999999999              -0.000003488              -0.000100328               0.999999999              -0.000007946              -0.000109583               0.999999999              -0.000012967              -0.000120144               0.999999999              -0.000018632              -0.000132014               0.999999999              -0.000024902              -0.000145057               0.999999999              -0.000031460              -0.000158772               0.999999999              -0.000038262              -0.000172875               0.999999999              -0.000045346              -0.000187274               0.999999999              -0.000052728              -0.000202375               0.999999999              -0.000060502              -0.000218409               0.999999999              -0.000068759              -0.000235002               0.999999999              -0.000077491              -0.000252166               0.999999999               0.000006222              -0.000104724               0.999999999               0.000007944              -0.000094962               0.999999999               0.000006743              -0.000095074               0.999999999               0.000003929              -0.000099846               0.999999999               0.000000098              -0.000107457               0.999999999              -0.000004479              -0.000117007               0.999999999              -0.000009697              -0.000128208               0.999999999              -0.000015599              -0.000140965               0.999999999              -0.000022174              -0.000155226               0.999999999              -0.000029201              -0.000170576               0.999999999              -0.000036535              -0.000186496               0.999999999              -0.000044087              -0.000202945               0.999999999              -0.000051875              -0.000220183               0.999999999              -0.000060081              -0.000238451               0.999999999              -0.000068771              -0.000257875               0.999999999              -0.000078020              -0.000278020               0.999999999              -0.000087736              -0.000298698               0.999999999               0.000005449              -0.000116416               0.999999999               0.000008881              -0.000106337               0.999999999               0.000007393              -0.000107019               0.999999999               0.000003967              -0.000112879               0.999999999              -0.000000570              -0.000121923               0.999999999              -0.000005815              -0.000133254               0.999999999              -0.000011760              -0.000146621               0.999999999              -0.000018462              -0.000161758               0.999999999              -0.000025825              -0.000178407               0.999999999              -0.000033521              -0.000196151               0.999999999              -0.000041408              -0.000214732               0.999999999              -0.000049416              -0.000234337               0.999999999              -0.000057802              -0.000255221               0.999999999              -0.000066779              -0.000277500               0.999999999              -0.000076324              -0.000300905               0.999999999              -0.000086345              -0.000325139               0.999999999              -0.000096682              -0.000350048               0.999999999               0.000004444              -0.000127301               0.999999999               0.000009277              -0.000117988               0.999999999               0.000008461              -0.000117641               0.999999999               0.000005490              -0.000122239               0.999999999               0.000001485              -0.000130003               0.999999999              -0.000003138              -0.000140049               0.999999999              -0.000008233              -0.000152004               0.999999999              -0.000013958              -0.000165600               0.999999999              -0.000020364              -0.000180691               0.999999999              -0.000027148              -0.000197026               0.999999999              -0.000034041              -0.000214335               0.999999999              -0.000040836              -0.000232694               0.999999999              -0.000047646              -0.000252130               0.999999999              -0.000054946              -0.000272909               0.999999999              -0.000062815              -0.000294894               0.999999999              -0.000071050              -0.000317970               0.999999999              -0.000079668              -0.000342054               0.999999999               0.000003501              -0.000137096               0.999999999               0.000009160              -0.000129043               0.999999999               0.000009055              -0.000128230               0.999999999               0.000006642              -0.000131834               0.999999999               0.000003191              -0.000138477               0.999999999              -0.000000735              -0.000147347               0.999999999              -0.000005072              -0.000157997               0.999999999              -0.000009833              -0.000170229               0.999999999              -0.000015225              -0.000183912               0.999999999              -0.000020979              -0.000198849               0.999999999              -0.000026849              -0.000214924               0.999999999              -0.000032683              -0.000232018               0.999999999              -0.000038401              -0.000250109               0.999999999              -0.000044227              -0.000269376               0.999999999              -0.000050427              -0.000289857               0.999999999              -0.000057058              -0.000311456               0.999999999              -0.000064150              -0.000334092               0.999999999               0.000002671              -0.000145669               0.999999999               0.000008571              -0.000139262               0.999999999               0.000009032              -0.000138387               0.999999999               0.000007238              -0.000141369               0.999999999               0.000004424              -0.000147135               0.999999999               0.000001184              -0.000154971               0.999999999              -0.000002318              -0.000164556               0.999999999              -0.000006203              -0.000175629               0.999999999              -0.000010547              -0.000188079               0.999999999              -0.000015175              -0.000201801               0.999999999              -0.000020000              -0.000216633               0.999999999              -0.000025056              -0.000232425               0.999999999              -0.000029830              -0.000249305               0.999999999              -0.000034403              -0.000267322               0.999999999              -0.000039273              -0.000286450               0.999999999              -0.000044450              -0.000306622               0.999999999              -0.000049806              -0.000327873               0.999999999               0.000001947              -0.000152857               0.999999999               0.000007493              -0.000148275               0.999999999               0.000008359              -0.000147717               0.999999999               0.000007151              -0.000150410               0.999999999               0.000004981              -0.000155537               0.999999999               0.000002488              -0.000162620               0.999999999              -0.000000247              -0.000171310               0.999999999              -0.000003239              -0.000181464               0.999999999              -0.000006599              -0.000192895               0.999999999              -0.000010182              -0.000205532               0.999999999              -0.000014103              -0.000219215               0.999999999              -0.000018119              -0.000233917               0.999999999              -0.000021968              -0.000249725               0.999999999              -0.000025588              -0.000266627               0.999999999              -0.000029270              -0.000284693               0.999999999              -0.000033108              -0.000303823               0.999999999              -0.000036745              -0.000323938               0.999999999               0.000001331              -0.000158569               0.999999999               0.000006010              -0.000155753               0.999999999               0.000007017              -0.000155722               0.999999999               0.000006307              -0.000158366               0.999999999               0.000004769              -0.000163126               0.999999999               0.000002969              -0.000169660               0.999999999               0.000000979              -0.000177719               0.999999999              -0.000001194              -0.000187146               0.999999999              -0.000003655              -0.000197784               0.999999999              -0.000006336              -0.000209529               0.999999999              -0.000009189              -0.000222330               0.999999999              -0.000012090              -0.000236279               0.999999999              -0.000014992              -0.000251331               0.999999999              -0.000017806              -0.000267443               0.999999999              -0.000020459              -0.000284620               0.999999999              -0.000022966              -0.000302892               0.999999999              -0.000025156              -0.000322141               0.999999999               0.000000827              -0.000162736               0.999999999               0.000004194              -0.000161360               0.999999999               0.000005065              -0.000161886               0.999999999               0.000004720              -0.000164630               0.999999999               0.000003765              -0.000169226               0.999999999               0.000002574              -0.000175445               0.999999999               0.000001331              -0.000183090               0.999999999              -0.000000139              -0.000191996               0.999999999              -0.000001726              -0.000202112               0.999999999              -0.000003494              -0.000213353               0.999999999              -0.000005273              -0.000225643               0.999999999              -0.000007151              -0.000239010               0.999999999              -0.000009122              -0.000253531               0.999999999              -0.000011090              -0.000269227               0.999999999              -0.000012869              -0.000285900               0.999999999              -0.000014175              -0.000303497               0.999999999              -0.000015037              -0.000322103               0.999999999               0.000000391              -0.000165233               0.999999999               0.000002144              -0.000164838               0.999999999               0.000002672              -0.000165808               0.999999999               0.000002528              -0.000168659               0.999999999               0.000002067              -0.000173208               0.999999999               0.000001509              -0.000179288               0.999999999               0.000000865              -0.000186697               0.999999999               0.000000155              -0.000195320               0.999999999              -0.000000659              -0.000205148               0.999999999              -0.000001387              -0.000216109               0.999999999              -0.000002347              -0.000228176               0.999999999              -0.000003325              -0.000241327               0.999999999              -0.000004303              -0.000255563               0.999999999              -0.000005273              -0.000270928               0.999999999              -0.000006096              -0.000287388               0.999999999              -0.000006650              -0.000304770               0.999999999              -0.000006797              -0.000323072               0.999999999               0.000000000              -0.000166060               0.999999999              -0.000000000              -0.000166045               0.999999999               0.000000000              -0.000167176               0.999999999               0.000000000              -0.000170020               0.999999999              -0.000000000              -0.000174596               0.999999999               0.000000000              -0.000180626               0.999999999              -0.000000000              -0.000187954               0.999999999              -0.000000000              -0.000196541               0.999999999              -0.000000000              -0.000206255               0.999999999               0.000000000              -0.000217062               0.999999999               0.000000000              -0.000229054               0.999999999              -0.000000000              -0.000242206               0.999999999               0.000000000              -0.000256484               0.999999999               0.000000000              -0.000271708               0.999999999               0.000000000              -0.000287926               0.999999999              -0.000000000              -0.000305395               0.999999999              -0.000000000              -0.000323826               0.999999999              -0.000009090               0.000000000               0.999999999              -0.000002585               0.000000000               0.999999999               0.000000376               0.000000000               0.999999999               0.000001782              -0.000000000               0.999999999               0.000002560              -0.000000000               0.999999999               0.000003181              -0.000000000               0.999999999               0.000003894               0.000000000               0.999999999               0.000004857               0.000000000               0.999999999               0.000006171               0.000000000               0.999999999               0.000007903               0.000000000               0.999999999               0.000010065               0.000000000               0.999999999               0.000012726               0.000000000               0.999999999               0.000015919               0.000000000               0.999999999               0.000019526               0.000000000               0.999999999               0.000023587               0.000000000               0.999999999               0.000028201              -0.000000000               0.999999999               0.000033301              -0.000000000               0.999999999              -0.000009000              -0.000016202               0.999999999              -0.000002724              -0.000014636               0.999999999               0.000000120              -0.000014194               0.999999999               0.000001531              -0.000014488               0.999999999               0.000002360              -0.000015232               0.999999999               0.000003083              -0.000016340               0.999999999               0.000003954              -0.000017741               0.999999999               0.000005073              -0.000019402               0.999999999               0.000006563              -0.000021285               0.999999999               0.000008458              -0.000023419               0.999999999               0.000010817              -0.000025845               0.999999999               0.000013710              -0.000028456               0.999999999               0.000017096              -0.000031235               0.999999999               0.000020957              -0.000034002               0.999999999               0.000025250              -0.000036897               0.999999999               0.000029949              -0.000040074               0.999999999               0.000035130              -0.000043462               0.999999999              -0.000008789              -0.000032268               0.999999999              -0.000003120              -0.000029091               0.999999999              -0.000000563              -0.000028326               0.999999999               0.000000803              -0.000028956               0.999999999               0.000001812              -0.000030548               0.999999999               0.000002873              -0.000032795               0.999999999               0.000004141              -0.000035651               0.999999999               0.000005723              -0.000038932               0.999999999               0.000007714              -0.000042738               0.999999999               0.000010165              -0.000046985               0.999999999               0.000013100              -0.000051808               0.999999999               0.000016545              -0.000057045               0.999999999               0.000020481              -0.000062431               0.999999999               0.000024798              -0.000067846               0.999999999               0.000029541              -0.000073490               0.999999999               0.000034774              -0.000079620               0.999999999               0.000040420              -0.000086073               0.999999999              -0.000008454              -0.000048035               0.999999999              -0.000003785              -0.000043246               0.999999999              -0.000001647              -0.000042287               0.999999999              -0.000000242              -0.000043436               0.999999999               0.000001115              -0.000045967               0.999999999               0.000002668              -0.000049487               0.999999999               0.000004575              -0.000053787               0.999999999               0.000006864              -0.000058793               0.999999999               0.000009645              -0.000064448               0.999999999               0.000012929              -0.000070869               0.999999999               0.000016725              -0.000078030               0.999999999               0.000021009              -0.000085647               0.999999999               0.000025664              -0.000093453               0.999999999               0.000030693              -0.000101343               0.999999999               0.000036150              -0.000109678               0.999999999               0.000041975              -0.000118461               0.999999999               0.000048136              -0.000127527               0.999999999              -0.000008001              -0.000063323               0.999999999              -0.000004701              -0.000056999               0.999999999              -0.000002965              -0.000056011               0.999999999              -0.000001427              -0.000057893               0.999999999               0.000000376              -0.000061487               0.999999999               0.000002639              -0.000066362               0.999999999               0.000005342              -0.000072209               0.999999999               0.000008520              -0.000078917               0.999999999               0.000012245              -0.000086558               0.999999999               0.000016530              -0.000095141               0.999999999               0.000021310              -0.000104592               0.999999999               0.000026455              -0.000114435               0.999999999               0.000031893              -0.000124475               0.999999999               0.000037654              -0.000134728               0.999999999               0.000043814              -0.000145550               0.999999999               0.000050325              -0.000156703               0.999999999               0.000057119              -0.000168116               0.999999999              -0.000007482              -0.000077986               0.999999999              -0.000005765              -0.000070253               0.999999999              -0.000004376              -0.000069462               0.999999999              -0.000002555              -0.000072202               0.999999999              -0.000000152              -0.000077012               0.999999999               0.000002872              -0.000083374               0.999999999               0.000006465              -0.000090831               0.999999999               0.000010605              -0.000099443               0.999999999               0.000015330              -0.000109084               0.999999999               0.000020632              -0.000119909               0.999999999               0.000026349              -0.000131440               0.999999999               0.000032299              -0.000143443               0.999999999               0.000038540              -0.000155599               0.999999999               0.000045057              -0.000168157               0.999999999               0.000051924              -0.000181468               0.999999999               0.000059174              -0.000195175               0.999999999               0.000066835              -0.000209233               0.999999999              -0.000006896              -0.000091852               0.999999999              -0.000006880              -0.000082930               0.999999999              -0.000005692              -0.000082519               0.999999999              -0.000003436              -0.000086229               0.999999999              -0.000000349              -0.000092409               0.999999999               0.000003488              -0.000100328               0.999999999               0.000007946              -0.000109583               0.999999999               0.000012967              -0.000120144               0.999999999               0.000018632              -0.000132014               0.999999999               0.000024902              -0.000145057               0.999999999               0.000031460              -0.000158772               0.999999999               0.000038262              -0.000172875               0.999999999               0.000045346              -0.000187274               0.999999999               0.000052728              -0.000202375               0.999999999               0.000060502              -0.000218409               0.999999999               0.000068759              -0.000235002               0.999999999               0.000077491              -0.000252166               0.999999999              -0.000006222              -0.000104724               0.999999999              -0.000007944              -0.000094962               0.999999999              -0.000006743              -0.000095074               0.999999999              -0.000003929              -0.000099846               0.999999999              -0.000000098              -0.000107457               0.999999999               0.000004479              -0.000117007               0.999999999               0.000009697              -0.000128208               0.999999999               0.000015599              -0.000140965               0.999999999               0.000022174              -0.000155226               0.999999999               0.000029201              -0.000170576               0.999999999               0.000036535              -0.000186496               0.999999999               0.000044087              -0.000202945               0.999999999               0.000051875              -0.000220183               0.999999999               0.000060081              -0.000238451               0.999999999               0.000068771              -0.000257875               0.999999999               0.000078020              -0.000278020               0.999999999               0.000087736              -0.000298698               0.999999999              -0.000005449              -0.000116416               0.999999999              -0.000008881              -0.000106337               0.999999999              -0.000007393              -0.000107019               0.999999999              -0.000003967              -0.000112879               0.999999999               0.000000570              -0.000121923               0.999999999               0.000005815              -0.000133254               0.999999999               0.000011760              -0.000146621               0.999999999               0.000018462              -0.000161758               0.999999999               0.000025825              -0.000178407               0.999999999               0.000033521              -0.000196151               0.999999999               0.000041408              -0.000214732               0.999999999               0.000049416              -0.000234337               0.999999999               0.000057802              -0.000255221               0.999999999               0.000066779              -0.000277500               0.999999999               0.000076324              -0.000300905               0.999999999               0.000086345              -0.000325139               0.999999999               0.000096682              -0.000350048               0.999999999              -0.000004444              -0.000127301               0.999999999              -0.000009277              -0.000117988               0.999999999              -0.000008461              -0.000117641               0.999999999              -0.000005490              -0.000122239               0.999999999              -0.000001485              -0.000130003               0.999999999               0.000003138              -0.000140049               0.999999999               0.000008233              -0.000152004               0.999999999               0.000013958              -0.000165600               0.999999999               0.000020364              -0.000180691               0.999999999               0.000027148              -0.000197026               0.999999999               0.000034041              -0.000214335               0.999999999               0.000040836              -0.000232694               0.999999999               0.000047646              -0.000252130               0.999999999               0.000054946              -0.000272909               0.999999999               0.000062815              -0.000294894               0.999999999               0.000071050              -0.000317970               0.999999999               0.000079668              -0.000342054               0.999999999              -0.000003501              -0.000137096               0.999999999              -0.000009160              -0.000129043               0.999999999              -0.000009055              -0.000128230               0.999999999              -0.000006642              -0.000131834               0.999999999              -0.000003191              -0.000138477               0.999999999               0.000000735              -0.000147347               0.999999999               0.000005072              -0.000157997               0.999999999               0.000009833              -0.000170229               0.999999999               0.000015225              -0.000183912               0.999999999               0.000020979              -0.000198849               0.999999999               0.000026849              -0.000214924               0.999999999               0.000032683              -0.000232018               0.999999999               0.000038401              -0.000250109               0.999999999               0.000044227              -0.000269376               0.999999999               0.000050427              -0.000289857               0.999999999               0.000057058              -0.000311456               0.999999999               0.000064150              -0.000334092               0.999999999              -0.000002671              -0.000145669               0.999999999              -0.000008571              -0.000139262               0.999999999              -0.000009032              -0.000138387               0.999999999              -0.000007238              -0.000141369               0.999999999              -0.000004424              -0.000147135               0.999999999              -0.000001184              -0.000154971               0.999999999               0.000002318              -0.000164556               0.999999999               0.000006203              -0.000175629               0.999999999               0.000010547              -0.000188079               0.999999999               0.000015175              -0.000201801               0.999999999               0.000020000              -0.000216633               0.999999999               0.000025056              -0.000232425               0.999999999               0.000029830              -0.000249305               0.999999999               0.000034403              -0.000267322               0.999999999               0.000039273              -0.000286450               0.999999999               0.000044450              -0.000306622               0.999999999               0.000049806              -0.000327873               0.999999999              -0.000001947              -0.000152857               0.999999999              -0.000007493              -0.000148275               0.999999999              -0.000008359              -0.000147717               0.999999999              -0.000007151              -0.000150410               0.999999999              -0.000004981              -0.000155537               0.999999999              -0.000002488              -0.000162620               0.999999999               0.000000247              -0.000171310               0.999999999               0.000003239              -0.000181464               0.999999999               0.000006599              -0.000192895               0.999999999               0.000010182              -0.000205532               0.999999999               0.000014103              -0.000219215               0.999999999               0.000018119              -0.000233917               0.999999999               0.000021968              -0.000249725               0.999999999               0.000025588              -0.000266627               0.999999999               0.000029270              -0.000284693               0.999999999               0.000033108              -0.000303823               0.999999999               0.000036745              -0.000323938               0.999999999              -0.000001331              -0.000158569               0.999999999              -0.000006010              -0.000155753               0.999999999              -0.000007017              -0.000155722               0.999999999              -0.000006307              -0.000158366               0.999999999              -0.000004769              -0.000163126               0.999999999              -0.000002969              -0.000169660               0.999999999              -0.000000979              -0.000177719               0.999999999               0.000001194              -0.000187146               0.999999999               0.000003655              -0.000197784               0.999999999               0.000006336              -0.000209529               0.999999999               0.000009189              -0.000222330               0.999999999               0.000012090              -0.000236279               0.999999999               0.000014992              -0.000251331               0.999999999               0.000017806              -0.000267443               0.999999999               0.000020459              -0.000284620               0.999999999               0.000022966              -0.000302892               0.999999999               0.000025156              -0.000322141               0.999999999              -0.000000827              -0.000162736               0.999999999              -0.000004194              -0.000161360               0.999999999              -0.000005065              -0.000161886               0.999999999              -0.000004720              -0.000164630               0.999999999              -0.000003765              -0.000169226               0.999999999              -0.000002574              -0.000175445               0.999999999              -0.000001331              -0.000183090               0.999999999               0.000000139              -0.000191996               0.999999999               0.000001726              -0.000202112               0.999999999               0.000003494              -0.000213353               0.999999999               0.000005273              -0.000225643               0.999999999               0.000007151              -0.000239010               0.999999999               0.000009122              -0.000253531               0.999999999               0.000011090              -0.000269227               0.999999999               0.000012869              -0.000285900               0.999999999               0.000014175              -0.000303497               0.999999999               0.000015037              -0.000322103               0.999999999              -0.000000391              -0.000165233               0.999999999              -0.000002144              -0.000164838               0.999999999              -0.000002672              -0.000165808               0.999999999              -0.000002528              -0.000168659               0.999999999              -0.000002067              -0.000173208               0.999999999              -0.000001509              -0.000179288               0.999999999              -0.000000865              -0.000186697               0.999999999              -0.000000155              -0.000195320               0.999999999               0.000000659              -0.000205148               0.999999999               0.000001387              -0.000216109               0.999999999               0.000002347              -0.000228176               0.999999999               0.000003325              -0.000241327               0.999999999               0.000004303              -0.000255563               0.999999999               0.000005273              -0.000270928               0.999999999               0.000006096              -0.000287388               0.999999999               0.000006650              -0.000304770               0.999999999               0.000006797              -0.000323072               0.999999999               0.000000000              -0.000166060               0.999999999              -0.000000000              -0.000166045               0.999999999               0.000000000              -0.000167176               0.999999999               0.000000000              -0.000170020               0.999999999              -0.000000000              -0.000174596               0.999999999               0.000000000              -0.000180626               0.999999999              -0.000000000              -0.000187954               0.999999999              -0.000000000              -0.000196541               0.999999999              -0.000000000              -0.000206255               0.999999999               0.000000000              -0.000217062               0.999999999               0.000000000              -0.000229054               0.999999999              -0.000000000              -0.000242206               0.999999999               0.000000000              -0.000256484               0.999999999               0.000000000              -0.000271708               0.999999999               0.000000000              -0.000287926               0.999999999              -0.000000000              -0.000305395               0.999999999              -0.000000000              -0.000323826               0.999999999              -0.000009090               0.000000000               0.999999999              -0.000002585               0.000000000               0.999999999               0.000000376               0.000000000               0.999999999               0.000001782              -0.000000000               0.999999999               0.000002560              -0.000000000               0.999999999               0.000003181              -0.000000000               0.999999999               0.000003894               0.000000000               0.999999999               0.000004857               0.000000000               0.999999999               0.000006171               0.000000000               0.999999999               0.000007903               0.000000000               0.999999999               0.000010065               0.000000000               0.999999999               0.000012726               0.000000000               0.999999999               0.000015919               0.000000000               0.999999999               0.000019526               0.000000000               0.999999999               0.000023587               0.000000000               0.999999999               0.000028201              -0.000000000               0.999999999               0.000033301              -0.000000000               0.999999999              -0.000009000               0.000016202               0.999999999              -0.000002724               0.000014636               0.999999999               0.000000120               0.000014194               0.999999999               0.000001531               0.000014488               0.999999999               0.000002360               0.000015232               0.999999999               0.000003083               0.000016340               0.999999999               0.000003954               0.000017741               0.999999999               0.000005073               0.000019402               0.999999999               0.000006563               0.000021285               0.999999999               0.000008458               0.000023419               0.999999999               0.000010817               0.000025845               0.999999999               0.000013710               0.000028456               0.999999999               0.000017096               0.000031235               0.999999999               0.000020957               0.000034002               0.999999999               0.000025250               0.000036897               0.999999999               0.000029949               0.000040074               0.999999999               0.000035130               0.000043462               0.999999999              -0.000008789               0.000032268               0.999999999              -0.000003120               0.000029091               0.999999999              -0.000000563               0.000028326               0.999999999               0.000000803               0.000028956               0.999999999               0.000001812               0.000030548               0.999999999               0.000002873               0.000032795               0.999999999               0.000004141               0.000035651               0.999999999               0.000005723               0.000038932               0.999999999               0.000007714               0.000042738               0.999999999               0.000010165               0.000046985               0.999999999               0.000013100               0.000051808               0.999999999               0.000016545               0.000057045               0.999999999               0.000020481               0.000062431               0.999999999               0.000024798               0.000067846               0.999999999               0.000029541               0.000073490               0.999999999               0.000034774               0.000079620               0.999999999               0.000040420               0.000086073               0.999999999              -0.000008454               0.000048035               0.999999999              -0.000003785               0.000043246               0.999999999              -0.000001647               0.000042287               0.999999999              -0.000000242               0.000043436               0.999999999               0.000001115               0.000045967               0.999999999               0.000002668               0.000049487               0.999999999               0.000004575               0.000053787               0.999999999               0.000006864               0.000058793               0.999999999               0.000009645               0.000064448               0.999999999               0.000012929               0.000070869               0.999999999               0.000016725               0.000078030               0.999999999               0.000021009               0.000085647               0.999999999               0.000025664               0.000093453               0.999999999               0.000030693               0.000101343               0.999999999               0.000036150               0.000109678               0.999999999               0.000041975               0.000118461               0.999999999               0.000048136               0.000127527               0.999999999              -0.000008001               0.000063323               0.999999999              -0.000004701               0.000056999               0.999999999              -0.000002965               0.000056011               0.999999999              -0.000001427               0.000057893               0.999999999               0.000000376               0.000061487               0.999999999               0.000002639               0.000066362               0.999999999               0.000005342               0.000072209               0.999999999               0.000008520               0.000078917               0.999999999               0.000012245               0.000086558               0.999999999               0.000016530               0.000095141               0.999999999               0.000021310               0.000104592               0.999999999               0.000026455               0.000114435               0.999999999               0.000031893               0.000124475               0.999999999               0.000037654               0.000134728               0.999999999               0.000043814               0.000145550               0.999999999               0.000050325               0.000156703               0.999999999               0.000057119               0.000168116               0.999999999              -0.000007482               0.000077986               0.999999999              -0.000005765               0.000070253               0.999999999              -0.000004376               0.000069462               0.999999999              -0.000002555               0.000072202               0.999999999              -0.000000152               0.000077012               0.999999999               0.000002872               0.000083374               0.999999999               0.000006465               0.000090831               0.999999999               0.000010605               0.000099443               0.999999999               0.000015330               0.000109084               0.999999999               0.000020632               0.000119909               0.999999999               0.000026349               0.000131440               0.999999999               0.000032299               0.000143443               0.999999999               0.000038540               0.000155599               0.999999999               0.000045057               0.000168157               0.999999999               0.000051924               0.000181468               0.999999999               0.000059174               0.000195175               0.999999999               0.000066835               0.000209233               0.999999999              -0.000006896               0.000091852               0.999999999              -0.000006880               0.000082930               0.999999999              -0.000005692               0.000082519               0.999999999              -0.000003436               0.000086229               0.999999999              -0.000000349               0.000092409               0.999999999               0.000003488               0.000100328               0.999999999               0.000007946               0.000109583               0.999999999               0.000012967               0.000120144               0.999999999               0.000018632               0.000132014               0.999999999               0.000024902               0.000145057               0.999999999               0.000031460               0.000158772               0.999999999               0.000038262               0.000172875               0.999999999               0.000045346               0.000187274               0.999999999               0.000052728               0.000202375               0.999999999               0.000060502               0.000218409               0.999999999               0.000068759               0.000235002               0.999999999               0.000077491               0.000252166               0.999999999              -0.000006222               0.000104724               0.999999999              -0.000007944               0.000094962               0.999999999              -0.000006743               0.000095074               0.999999999              -0.000003929               0.000099846               0.999999999              -0.000000098               0.000107457               0.999999999               0.000004479               0.000117007               0.999999999               0.000009697               0.000128208               0.999999999               0.000015599               0.000140965               0.999999999               0.000022174               0.000155226               0.999999999               0.000029201               0.000170576               0.999999999               0.000036535               0.000186496               0.999999999               0.000044087               0.000202945               0.999999999               0.000051875               0.000220183               0.999999999               0.000060081               0.000238451               0.999999999               0.000068771               0.000257875               0.999999999               0.000078020               0.000278020               0.999999999               0.000087736               0.000298698               0.999999999              -0.000005449               0.000116416               0.999999999              -0.000008881               0.000106337               0.999999999              -0.000007393               0.000107019               0.999999999              -0.000003967               0.000112879               0.999999999               0.000000570               0.000121923               0.999999999               0.000005815               0.000133254               0.999999999               0.000011760               0.000146621               0.999999999               0.000018462               0.000161758               0.999999999               0.000025825               0.000178407               0.999999999               0.000033521               0.000196151               0.999999999               0.000041408               0.000214732               0.999999999               0.000049416               0.000234337               0.999999999               0.000057802               0.000255221               0.999999999               0.000066779               0.000277500               0.999999999               0.000076324               0.000300905               0.999999999               0.000086345               0.000325139               0.999999999               0.000096682               0.000350048               0.999999999              -0.000004444               0.000127301               0.999999999              -0.000009277               0.000117988               0.999999999              -0.000008461               0.000117641               0.999999999              -0.000005490               0.000122239               0.999999999              -0.000001485               0.000130003               0.999999999               0.000003138               0.000140049               0.999999999               0.000008233               0.000152004               0.999999999               0.000013958               0.000165600               0.999999999               0.000020364               0.000180691               0.999999999               0.000027148               0.000197026               0.999999999               0.000034041               0.000214335               0.999999999               0.000040836               0.000232694               0.999999999               0.000047646               0.000252130               0.999999999               0.000054946               0.000272909               0.999999999               0.000062815               0.000294894               0.999999999               0.000071050               0.000317970               0.999999999               0.000079668               0.000342054               0.999999999              -0.000003501               0.000137096               0.999999999              -0.000009160               0.000129043               0.999999999              -0.000009055               0.000128230               0.999999999              -0.000006642               0.000131834               0.999999999              -0.000003191               0.000138477               0.999999999               0.000000735               0.000147347               0.999999999               0.000005072               0.000157997               0.999999999               0.000009833               0.000170229               0.999999999               0.000015225               0.000183912               0.999999999               0.000020979               0.000198849               0.999999999               0.000026849               0.000214924               0.999999999               0.000032683               0.000232018               0.999999999               0.000038401               0.000250109               0.999999999               0.000044227               0.000269376               0.999999999               0.000050427               0.000289857               0.999999999               0.000057058               0.000311456               0.999999999               0.000064150               0.000334092               0.999999999              -0.000002671               0.000145669               0.999999999              -0.000008571               0.000139262               0.999999999              -0.000009032               0.000138387               0.999999999              -0.000007238               0.000141369               0.999999999              -0.000004424               0.000147135               0.999999999              -0.000001184               0.000154971               0.999999999               0.000002318               0.000164556               0.999999999               0.000006203               0.000175629               0.999999999               0.000010547               0.000188079               0.999999999               0.000015175               0.000201801               0.999999999               0.000020000               0.000216633               0.999999999               0.000025056               0.000232425               0.999999999               0.000029830               0.000249305               0.999999999               0.000034403               0.000267322               0.999999999               0.000039273               0.000286450               0.999999999               0.000044450               0.000306622               0.999999999               0.000049806               0.000327873               0.999999999              -0.000001947               0.000152857               0.999999999              -0.000007493               0.000148275               0.999999999              -0.000008359               0.000147717               0.999999999              -0.000007151               0.000150410               0.999999999              -0.000004981               0.000155537               0.999999999              -0.000002488               0.000162620               0.999999999               0.000000247               0.000171310               0.999999999               0.000003239               0.000181464               0.999999999               0.000006599               0.000192895               0.999999999               0.000010182               0.000205532               0.999999999               0.000014103               0.000219215               0.999999999               0.000018119               0.000233917               0.999999999               0.000021968               0.000249725               0.999999999               0.000025588               0.000266627               0.999999999               0.000029270               0.000284693               0.999999999               0.000033108               0.000303823               0.999999999               0.000036745               0.000323938               0.999999999              -0.000001331               0.000158569               0.999999999              -0.000006010               0.000155753               0.999999999              -0.000007017               0.000155722               0.999999999              -0.000006307               0.000158366               0.999999999              -0.000004769               0.000163126               0.999999999              -0.000002969               0.000169660               0.999999999              -0.000000979               0.000177719               0.999999999               0.000001194               0.000187146               0.999999999               0.000003655               0.000197784               0.999999999               0.000006336               0.000209529               0.999999999               0.000009189               0.000222330               0.999999999               0.000012090               0.000236279               0.999999999               0.000014992               0.000251331               0.999999999               0.000017806               0.000267443               0.999999999               0.000020459               0.000284620               0.999999999               0.000022966               0.000302892               0.999999999               0.000025156               0.000322141               0.999999999              -0.000000827               0.000162736               0.999999999              -0.000004194               0.000161360               0.999999999              -0.000005065               0.000161886               0.999999999              -0.000004720               0.000164630               0.999999999              -0.000003765               0.000169226               0.999999999              -0.000002574               0.000175445               0.999999999              -0.000001331               0.000183090               0.999999999               0.000000139               0.000191996               0.999999999               0.000001726               0.000202112               0.999999999               0.000003494               0.000213353               0.999999999               0.000005273               0.000225643               0.999999999               0.000007151               0.000239010               0.999999999               0.000009122               0.000253531               0.999999999               0.000011090               0.000269227               0.999999999               0.000012869               0.000285900               0.999999999               0.000014175               0.000303497               0.999999999               0.000015037               0.000322103               0.999999999              -0.000000391               0.000165233               0.999999999              -0.000002144               0.000164838               0.999999999              -0.000002672               0.000165808               0.999999999              -0.000002528               0.000168659               0.999999999              -0.000002067               0.000173208               0.999999999              -0.000001509               0.000179288               0.999999999              -0.000000865               0.000186697               0.999999999              -0.000000155               0.000195320               0.999999999               0.000000659               0.000205148               0.999999999               0.000001387               0.000216109               0.999999999               0.000002347               0.000228176               0.999999999               0.000003325               0.000241327               0.999999999               0.000004303               0.000255563               0.999999999               0.000005273               0.000270928               0.999999999               0.000006096               0.000287388               0.999999999               0.000006650               0.000304770               0.999999999               0.000006797               0.000323072               0.999999999              -0.000000000               0.000166060               0.999999999              -0.000000000               0.000166045               0.999999999               0.000000000               0.000167176               0.999999999              -0.000000000               0.000170020               0.999999999              -0.000000000               0.000174596               0.999999999              -0.000000000               0.000180626               0.999999999              -0.000000000               0.000187954               0.999999999               0.000000000               0.000196541               0.999999999               0.000000000               0.000206255               0.999999999               0.000000000               0.000217062               0.999999999               0.000000000               0.000229054               0.999999999               0.000000000               0.000242206               0.999999999               0.000000000               0.000256484               0.999999999               0.000000000               0.000271708               0.999999999              -0.000000000               0.000287926               0.999999999               0.000000000               0.000305395               0.999999999               0.000000000               0.000323826               0.999999999 </DataArray>
<DataArray type="Float64"                                    Name="defo"                                                      NumberOfComponents=" 3" format="ascii">
              0.000009090              -0.000000000               0.999999999               0.000002585               0.000000000               0.999999999              -0.000000376              -0.000000000               0.999999999              -0.000001782              -0.000000000               0.999999999              -0.000002560              -0.000000000               0.999999999              -0.000003181              -0.000000000               0.999999999              -0.000003894               0.000000000               0.999999999              -0.000004857               0.000000000               0.999999999              -0.000006171               0.000000000               0.999999999              -0.000007903              -0.000000000               0.999999999              -0.000010065              -0.000000000               0.999999999              -0.000012726              -0.000000000               0.999999999              -0.000015919              -0.000000000               0.999999999              -0.000019526              -0.000000000               0.999999999              -0.000023587              -0.000000000               0.999999999              -0.000028201              -0.000000000               0.999999999              -0.000033301               0.000000000               0.999999999               0.000009000               0.000016202               0.999999999               0.000002724               0.000014636               0.999999999              -0.000000120               0.000014194               0.999999999              -0.000001531               0.000014488               0.999999999              -0.000002360               0.000015232               0.999999999              -0.000003083               0.000016340               0.999999999              -0.000003954               0.000017741               0.999999999              -0.000005073               0.000019402               0.999999999              -0.000006563               0.000021285               0.999999999              -0.000008458               0.000023419               0.999999999              -0.000010817               0.000025845               0.999999999              -0.000013710               0.000028456               0.999999999              -0.000017096               0.000031235               0.999999999              -0.000020957               0.000034002               0.999999999              -0.000025250               0.000036897               0.999999999              -0.000029949               0.000040074               0.999999999              -0.000035130               0.000043462               0.999999999               0.000008789               0.000032268               0.999999999               0.000003120               0.000029091               0.999999999               0.000000563               0.000028326               0.999999999              -0.000000803               0.000028956               0.999999999              -0.000001812               0.000030548               0.999999999              -0.000002873               0.000032795               0.999999999              -0.000004141               0.000035651               0.999999999              -0.000005723               0.000038932               0.999999999              -0.000007714               0.000042738               0.999999999              -0.000010165               0.000046985               0.999999999              -0.000013100               0.000051808               0.999999999              -0.000016545               0.000057045               0.999999999              -0.000020481               0.000062431               0.999999999              -0.000024798               0.000067846               0.999999999              -0.000029541               0.000073490               0.999999999              -0.000034774               0.000079620               0.999999999              -0.000040420               0.000086073               0.999999999               0.000008454               0.000048035               0.999999999               0.000003785               0.000043246               0.999999999               0.000001647               0.000042287               0.999999999               0.000000242               0.000043436               0.999999999              -0.000001115               0.000045967               0.999999999              -0.000002668               0.000049487               0.999999999              -0.000004575               0.000053787               0.999999999              -0.000006864               0.000058793               0.999999999              -0.000009645               0.000064448               0.999999999              -0.000012929               0.000070869               0.999999999              -0.000016725               0.000078030               0.999999999              -0.000021009               0.000085647               0.999999999              -0.000025664               0.000093453               0.999999999              -0.000030693               0.000101343               0.999999999              -0.000036150               0.000109678               0.999999999              -0.000041975               0.000118461               0.999999999              -0.000048136               0.000127527               0.999999999               0.000008001               0.000063323               0.999999999               0.000004701               0.000056999               0.999999999               0.000002965               0.000056011               0.999999999               0.000001427               0.000057893               0.999999999              -0.000000376               0.000061487               0.999999999              -0.000002639               0.000066362               0.999999999              -0.000005342               0.000072209               0.999999999              -0.000008520               0.000078917               0.999999999              -0.000012245               0.000086558               0.999999999              -0.000016530               0.000095141               0.999999999              -0.000021310               0.000104592               0.999999999              -0.000026455               0.000114435               0.999999999              -0.000031893               0.000124475               0.999999999              -0.000037654               0.000134728               0.999999999              -0.000043814               0.000145550               0.999999999              -0.000050325               0.000156703               0.999999999              -0.000057119               0.000168116               0.999999999               0.000007482               0.000077986               0.999999999               0.000005765               0.000070253               0.999999999               0.000004376               0.000069462               0.999999999               0.000002555               0.000072202               0.999999999               0.000000152               0.000077012               0.999999999              -0.000002872               0.000083374               0.999999999              -0.000006465               0.000090831               0.999999999              -0.000010605               0.000099443               0.999999999              -0.000015330               0.000109084               0.999999999              -0.000020632               0.000119909               0.999999999              -0.000026349               0.000131440               0.999999999              -0.000032299               0.000143443               0.999999999              -0.000038540               0.000155599               0.999999999              -0.000045057               0.000168157               0.999999999              -0.000051924               0.000181468               0.999999999              -0.000059174               0.000195175               0.999999999              -0.000066835               0.000209233               0.999999999               0.000006896               0.000091852               0.999999999               0.000006880               0.000082930               0.999999999               0.000005692               0.000082519               0.999999999               0.000003436               0.000086229               0.999999999               0.000000349               0.000092409               0.999999999              -0.000003488               0.000100328               0.999999999              -0.000007946               0.000109583               0.999999999              -0.000012967               0.000120144               0.999999999              -0.000018632               0.000132014               0.999999999              -0.000024902               0.000145057               0.999999999              -0.000031460               0.000158772               0.999999999              -0.000038262               0.000172875               0.999999999              -0.000045346               0.000187274               0.999999999              -0.000052728               0.000202375               0.999999999              -0.000060502               0.000218409               0.999999999              -0.000068759               0.000235002               0.999999999              -0.000077491               0.000252166               0.999999999               0.000006222               0.000104724               0.999999999               0.000007944               0.000094962               0.999999999               0.000006743               0.000095074               0.999999999               0.000003929               0.000099846               0.999999999               0.000000098               0.000107457               0.999999999              -0.000004479               0.000117007               0.999999999              -0.000009697               0.000128208               0.999999999              -0.000015599               0.000140965               0.999999999              -0.000022174               0.000155226               0.999999999              -0.000029201               0.000170576               0.999999999              -0.000036535               0.000186496               0.999999999              -0.000044087               0.000202945               0.999999999              -0.000051875               0.000220183               0.999999999              -0.000060081               0.000238451               0.999999999              -0.000068771               0.000257875               0.999999999              -0.000078020               0.000278020               0.999999999              -0.000087736               0.000298698               0.999999999               0.000005449               0.000116416               0.999999999               0.000008881               0.000106337               0.999999999               0.000007393               0.000107019               0.999999999               0.000003967               0.000112879               0.999999999              -0.000000570               0.000121923               0.999999999              -0.000005815               0.000133254               0.999999999              -0.000011760               0.000146621               0.999999999              -0.000018462               0.000161758               0.999999999              -0.000025825               0.000178407               0.999999999              -0.000033521               0.000196151               0.999999999              -0.000041408               0.000214732               0.999999999              -0.000049416               0.000234337               0.999999999              -0.000057802               0.000255221               0.999999999              -0.000066779               0.000277500               0.999999999              -0.000076324               0.000300905               0.999999999              -0.000086345               0.000325139               0.999999999              -0.000096682               0.000350048               0.999999999               0.000004444               0.000127301               0.999999999               0.000009277               0.000117988               0.999999999               0.000008461               0.000117641               0.999999999               0.000005490               0.000122239               0.999999999               0.000001485               0.000130003               0.999999999              -0.000003138               0.000140049               0.999999999              -0.000008233               0.000152004               0.999999999              -0.000013958               0.000165600               0.999999999              -0.000020364               0.000180691               0.999999999              -0.000027148               0.000197026               0.999999999              -0.000034041               0.000214335               0.999999999              -0.000040836               0.000232694               0.999999999              -0.000047646               0.000252130               0.999999999              -0.000054946               0.000272909               0.999999999              -0.000062815               0.000294894               0.999999999              -0.000071050               0.000317970               0.999999999              -0.000079668               0.000342054               0.999999999               0.000003501               0.000137096               0.999999999               0.000009160               0.000129043               0.999999999               0.000009055               0.000128230               0.999999999               0.000006642               0.000131834               0.999999999               0.000003191               0.000138477               0.999999999              -0.000000735               0.000147347               0.999999999              -0.000005072               0.000157997               0.999999999              -0.000009833               0.000170229               0.999999999              -0.000015225               0.000183912               0.999999999              -0.000020979               0.000198849               0.999999999              -0.000026849               0.000214924               0.999999999              -0.000032683               0.000232018               0.999999999              -0.000038401               0.000250109               0.999999999              -0.000044227               0.000269376               0.999999999              -0.000050427               0.000289857               0.999999999              -0.000057058               0.000311456               0.999999999              -0.000064150               0.000334092               0.999999999               0.000002671               0.000145669               0.999999999               0.000008571               0.000139262               0.999999999               0.000009032               0.000138387               0.999999999               0.000007238               0.000141369               0.999999999               0.000004424               0.000147135               0.999999999               0.000001184               0.000154971               0.999999999              -0.000002318               0.000164556               0.999999999              -0.000006203               0.000175629               0.999999999              -0.000010547               0.000188079               0.999999999              -0.000015175               0.000201801               0.999999999              -0.000020000               0.000216633               0.999999999              -0.000025056               0.000232425               0.999999999              -0.000029830               0.000249305               0.999999999              -0.000034403               0.000267322               0.999999999              -0.000039273               0.000286450               0.999999999              -0.000044450               0.000306622               0.999999999              -0.000049806               0.000327873               0.999999999               0.000001947               0.000152857               0.999999999               0.000007493               0.000148275               0.999999999               0.000008359               0.000147717               0.999999999               0.000007151               0.000150410               0.999999999               0.000004981               0.000155537               0.999999999               0.000002488               0.000162620               0.999999999              -0.000000247               0.000171310               0.999999999              -0.000003239               0.000181464               0.999999999              -0.000006599               0.000192895               0.999999999              -0.000010182               0.000205532               0.999999999              -0.000014103               0.000219215               0.999999999              -0.000018119               0.000233917               0.999999999              -0.000021968               0.000249725               0.999999999              -0.000025588               0.000266627               0.999999999              -0.000029270               0.000284693               0.999999999              -0.000033108               0.000303823               0.999999999              -0.000036745               0.000323938               0.999999999               0.000001331               0.000158569               0.999999999               0.000006010               0.000155753               0.999999999               0.000007017               0.000155722               0.999999999               0.000006307               0.000158366               0.999999999               0.000004769               0.000163126               0.999999999               0.000002969               0.000169660               0.999999999               0.000000979               0.000177719               0.999999999              -0.000001194               0.000187146               0.999999999              -0.000003655               0.000197784               0.999999999              -0.000006336               0.000209529               0.999999999              -0.000009189               0.000222330               0.999999999              -0.000012090               0.000236279               0.999999999              -0.000014992               0.000251331               0.999999999              -0.000017806               0.000267443               0.999999999              -0.000020459               0.000284620               0.999999999              -0.000022966               0.000302892               0.999999999              -0.000025156               0.000322141               0.999999999               0.000000827               0.000162736               0.999999999               0.000004194               0.000161360               0.999999999               0.000005065               0.000161886               0.999999999               0.000004720               0.000164630               0.999999999               0.000003765               0.000169226               0.999999999               0.000002574               0.000175445               0.999999999               0.000001331               0.000183090               0.999999999              -0.000000139               0.000191996               0.999999999              -0.000001726               0.000202112               0.999999999              -0.000003494               0.000213353               0.999999999              -0.000005273               0.000225643               0.999999999              -0.000007151               0.000239010               0.999999999              -0.000009122               0.000253531               0.999999999              -0.000011090               0.000269227               0.999999999              -0.000012869               0.000285900               0.999999999              -0.000014175               0.000303497               0.999999999              -0.000015037               0.000322103               0.999999999               0.000000391               0.000165233               0.999999999               0.000002144               0.000164838               0.999999999               0.000002672               0.000165808               0.999999999               0.000002528               0.000168659               0.999999999               0.000002067               0.000173208               0.999999999               0.000001509               0.000179288               0.999999999               0.000000865               0.000186697               0.999999999               0.000000155               0.000195320               0.999999999              -0.000000659               0.000205148               0.999999999              -0.000001387               0.000216109               0.999999999              -0.000002347               0.000228176               0.999999999              -0.000003325               0.000241327               0.999999999              -0.000004303               0.000255563               0.999999999              -0.000005273               0.000270928               0.999999999              -0.000006096               0.000287388               0.999999999              -0.000006650               0.000304770               0.999999999              -0.000006797               0.000323072               0.999999999              -0.000000000               0.000166060               0.999999999              -0.000000000               0.000166045               0.999999999               0.000000000               0.000167176               0.999999999              -0.000000000               0.000170020               0.999999999              -0.000000000               0.000174596               0.999999999              -0.000000000               0.000180626               0.999999999              -0.000000000               0.000187954               0.999999999               0.000000000               0.000196541               0.999999999               0.000000000               0.000206255               0.999999999               0.000000000               0.000217062               0.999999999               0.000000000               0.000229054               0.999999999               0.000000000               0.000242206               0.999999999               0.000000000               0.000256484               0.999999999               0.000000000               0.000271708               0.999999999              -0.000000000               0.000287926               0.999999999               0.000000000               0.000305395               0.999999999               0.000000000               0.000323826               0.999999999               0.000009090              -0.000000000               0.999999999               0.000002585               0.000000000               0.999999999              -0.000000376              -0.000000000               0.999999999              -0.000001782              -0.000000000               0.999999999              -0.000002560              -0.000000000               0.999999999              -0.000003181              -0.000000000               0.999999999              -0.000003894               0.000000000               0.999999999              -0.000004857               0.000000000               0.999999999              -0.000006171               0.000000000               0.999999999              -0.000007903              -0.000000000               0.999999999              -0.000010065              -0.000000000               0.999999999              -0.000012726              -0.000000000               0.999999999              -0.000015919              -0.000000000               0.999999999              -0.000019526              -0.000000000               0.999999999              -0.000023587              -0.000000000               0.999999999              -0.000028201              -0.000000000               0.999999999              -0.000033301               0.000000000               0.999999999               0.000009000              -0.000016202               0.999999999               0.000002724              -0.000014636               0.999999999              -0.000000120              -0.000014194               0.999999999              -0.000001531              -0.000014488               0.999999999              -0.000002360              -0.000015232               0.999999999              -0.000003083              -0.000016340               0.999999999              -0.000003954              -0.000017741               0.999999999              -0.000005073              -0.000019402               0.999999999              -0.000006563              -0.000021285               0.999999999              -0.000008458              -0.000023419               0.999999999              -0.000010817              -0.000025845               0.999999999              -0.000013710              -0.000028456               0.999999999              -0.000017096              -0.000031235               0.999999999              -0.000020957              -0.000034002               0.999999999              -0.000025250              -0.000036897               0.999999999              -0.000029949              -0.000040074               0.999999999              -0.000035130              -0.000043462               0.999999999               0.000008789              -0.000032268               0.999999999               0.000003120              -0.000029091               0.999999999               0.000000563              -0.000028326               0.999999999              -0.000000803              -0.000028956               0.999999999              -0.000001812              -0.000030548               0.999999999              -0.000002873              -0.000032795               0.999999999              -0.000004141              -0.000035651               0.999999999              -0.000005723              -0.000038932               0.999999999              -0.000007714              -0.000042738               0.999999999              -0.000010165              -0.000046985               0.999999999              -0.000013100              -0.000051808               0.999999999              -0.000016545              -0.000057045               0.999999999              -0.000020481              -0.000062431               0.999999999              -0.000024798              -0.000067846               0.999999999              -0.000029541              -0.000073490               0.999999999              -0.000034774              -0.000079620               0.999999999              -0.000040420              -0.000086073               0.999999999               0.000008454              -0.000048035               0.999999999               0.000003785              -0.000043246               0.999999999               0.000001647              -0.000042287               0.999999999               0.000000242              -0.000043436               0.999999999              -0.000001115              -0.000045967               0.999999999              -0.000002668              -0.000049487               0.999999999              -0.000004575              -0.000053787               0.999999999              -0.000006864              -0.000058793               0.999999999              -0.000009645              -0.000064448               0.999999999              -0.000012929              -0.000070869               0.999999999              -0.000016725              -0.000078030               0.999999999              -0.000021009              -0.000085647               0.999999999              -0.000025664              -0.000093453               0.999999999              -0.000030693              -0.000101343               0.999999999              -0.000036150              -0.000109678               0.999999999              -0.000041975              -0.000118461               0.999999999              -0.000048136              -0.000127527               0.999999999               0.000008001              -0.000063323               0.999999999               0.000004701              -0.000056999               0.999999999               0.000002965              -0.000056011               0.999999999               0.000001427              -0.000057893               0.999999999              -0.000000376              -0.000061487               0.999999999              -0.000002639              -0.000066362               0.999999999              -0.000005342              -0.000072209               0.999999999              -0.000008520              -0.000078917               0.999999999              -0.000012245              -0.000086558               0.999999999              -0.000016530              -0.000095141               0.999999999              -0.000021310              -0.000104592               0.999999999              -0.000026455              -0.000114435               0.999999999              -0.000031893              -0.000124475               0.999999999              -0.000037654              -0.000134728               0.999999999              -0.000043814              -0.000145550               0.999999999              -0.000050325              -0.000156703               0.999999999              -0.000057119              -0.000168116               0.999999999               0.000007482              -0.000077986               0.999999999               0.000005765              -0.000070253               0.999999999               0.000004376              -0.000069462               0.999999999               0.000002555              -0.000072202               0.999999999               0.000000152              -0.000077012               0.999999999              -0.000002872              -0.000083374               0.999999999              -0.000006465              -0.000090831               0.999999999              -0.000010605              -0.000099443               0.999999999              -0.000015330              -0.000109084               0.999999999              -0.000020632              -0.000119909               0.999999999              -0.000026349              -0.000131440               0.999999999              -0.000032299              -0.000143443               0.999999999              -0.000038540              -0.000155599               0.999999999              -0.000045057              -0.000168157               0.999999999              -0.000051924              -0.000181468               0.999999999              -0.000059174              -0.000195175               0.999999999              -0.000066835              -0.000209233               0.999999999               0.000006896              -0.000091852               0.999999999               0.000006880              -0.000082930               0.999999999               0.000005692              -0.000082519               0.999999999               0.000003436              -0.000086229               0.999999999               0.000000349              -0.000092409               0.999999999              -0.000003488              -0.000100328               0.999999999              -0.000007946              -0.000109583               0.999999999              -0.000012967              -0.000120144               0.999999999              -0.000018632              -0.000132014               0.999999999              -0.000024902              -0.000145057               0.999999999              -0.000031460              -0.000158772               0.999999999              -0.000038262              -0.000172875               0.999999999              -0.000045346              -0.000187274               0.999999999              -0.000052728              -0.000202375               0.999999999              -0.000060502              -0.000218409               0.999999999              -0.000068759              -0.000235002               0.999999999              -0.000077491              -0.000252166               0.999999999               0.000006222              -0.000104724               0.999999999               0.000007944              -0.000094962               0.999999999               0.000006743              -0.000095074               0.999999999               0.000003929              -0.000099846               0.999999999               0.000000098              -0.000107457               0.999999999              -0.000004479              -0.000117007               0.999999999              -0.000009697              -0.000128208               0.999999999              -0.000015599              -0.000140965               0.999999999              -0.000022174              -0.000155226               0.999999999              -0.000029201              -0.000170576               0.999999999              -0.000036535              -0.000186496               0.999999999              -0.000044087              -0.000202945               0.999999999              -0.000051875              -0.000220183               0.999999999              -0.000060081              -0.000238451               0.999999999              -0.000068771              -0.000257875               0.999999999              -0.000078020              -0.000278020               0.999999999              -0.000087736              -0.000298698               0.999999999               0.000005449              -0.000116416               0.999999999               0.000008881              -0.000106337               0.999999999               0.000007393              -0.000107019               0.999999999               0.000003967              -0.000112879               0.999999999              -0.000000570              -0.000121923               0.999999999              -0.000005815              -0.000133254               0.999999999              -0.000011760              -0.000146621               0.999999999              -0.000018462              -0.000161758               0.999999999              -0.000025825              -0.000178407               0.999999999              -0.000033521              -0.000196151               0.999999999              -0.000041408              -0.000214732               0.999999999              -0.000049416              -0.000234337               0.999999999              -0.000057802              -0.000255221               0.999999999              -0.000066779              -0.000277500               0.999999999              -0.000076324              -0.000300905               0.999999999              -0.000086345              -0.000325139               0.999999999              -0.000096682              -0.000350048               0.999999999               0.000004444              -0.000127301               0.999999999               0.000009277              -0.000117988               0.999999999               0.000008461              -0.000117641               0.999999999               0.000005490              -0.000122239               0.999999999               0.000001485              -0.000130003               0.999999999              -0.000003138              -0.000140049               0.999999999              -0.000008233              -0.000152004               0.999999999              -0.000013958              -0.000165600               0.999999999              -0.000020364              -0.000180691               0.999999999              -0.000027148              -0.000197026               0.999999999              -0.000034041              -0.000214335               0.999999999              -0.000040836              -0.000232694               0.999999999              -0.000047646              -0.000252130               0.999999999              -0.000054946              -0.000272909               0.999999999              -0.000062815              -0.000294894               0.999999999              -0.000071050              -0.000317970               0.999999999              -0.000079668              -0.000342054               0.999999999               0.000003501              -0.000137096               0.999999999               0.000009160              -0.000129043               0.999999999               0.000009055              -0.000128230               0.999999999               0.000006642              -0.000131834               0.999999999               0.000003191              -0.000138477               0.999999999              -0.000000735              -0.000147347               0.999999999              -0.000005072              -0.000157997               0.999999999              -0.000009833              -0.000170229               0.999999999              -0.000015225              -0.000183912               0.999999999              -0.000020979              -0.000198849               0.999999999              -0.000026849              -0.000214924               0.999999999              -0.000032683              -0.000232018               0.999999999              -0.000038401              -0.000250109               0.999999999              -0.000044227              -0.000269376               0.999999999              -0.000050427              -0.000289857               0.999999999              -0.000057058              -0.000311456               0.999999999              -0.000064150              -0.000334092               0.999999999               0.000002671              -0.000145669               0.999999999               0.000008571              -0.000139262               0.999999999               0.000009032              -0.000138387               0.999999999               0.000007238              -0.000141369               0.999999999               0.000004424              -0.000147135               0.999999999               0.000001184              -0.000154971               0.999999999              -0.000002318              -0.000164556               0.999999999              -0.000006203              -0.000175629               0.999999999              -0.000010547              -0.000188079               0.999999999              -0.000015175              -0.000201801               0.999999999              -0.000020000              -0.000216633               0.999999999              -0.000025056              -0.000232425               0.999999999              -0.000029830              -0.000249305               0.999999999              -0.000034403              -0.000267322               0.999999999              -0.000039273              -0.000286450               0.999999999              -0.000044450              -0.000306622               0.999999999              -0.000049806              -0.000327873               0.999999999               0.000001947              -0.000152857               0.999999999               0.000007493              -0.000148275               0.999999999               0.000008359              -0.000147717               0.999999999               0.000007151              -0.000150410               0.999999999               0.000004981              -0.000155537               0.999999999               0.000002488              -0.000162620               0.999999999              -0.000000247              -0.000171310               0.999999999              -0.000003239              -0.000181464               0.999999999              -0.000006599              -0.000192895               0.999999999              -0.000010182              -0.000205532               0.999999999              -0.000014103              -0.000219215               0.999999999              -0.000018119              -0.000233917               0.999999999              -0.000021968              -0.000249725               0.999999999              -0.000025588              -0.000266627               0.999999999              -0.000029270              -0.000284693               0.999999999              -0.000033108              -0.000303823               0.999999999              -0.000036745              -0.000323938               0.999999999               0.000001331              -0.000158569               0.999999999               0.000006010              -0.000155753               0.999999999               0.000007017              -0.000155722               0.999999999               0.000006307              -0.000158366               0.999999999               0.000004769              -0.000163126               0.999999999               0.000002969              -0.000169660               0.999999999               0.000000979              -0.000177719               0.999999999              -0.000001194              -0.000187146               0.999999999              -0.000003655              -0.000197784               0.999999999              -0.000006336              -0.000209529               0.999999999              -0.000009189              -0.000222330               0.999999999              -0.000012090              -0.000236279               0.999999999              -0.000014992              -0.000251331               0.999999999              -0.000017806              -0.000267443               0.999999999              -0.000020459              -0.000284620               0.999999999              -0.000022966              -0.000302892               0.999999999              -0.000025156              -0.000322141               0.999999999               0.000000827              -0.000162736               0.999999999               0.000004194              -0.000161360               0.999999999               0.000005065              -0.000161886               0.999999999               0.000004720              -0.000164630               0.999999999               0.000003765              -0.000169226               0.999999999               0.000002574              -0.000175445               0.999999999               0.000001331              -0.000183090               0.999999999              -0.000000139              -0.000191996               0.999999999              -0.000001726              -0.000202112               0.999999999              -0.000003494              -0.000213353               0.999999999              -0.000005273              -0.000225643               0.999999999              -0.000007151              -0.000239010               0.999999999              -0.000009122              -0.000253531               0.999999999              -0.000011090              -0.000269227               0.999999999              -0.000012869              -0.000285900               0.999999999              -0.000014175              -0.000303497               0.999999999              -0.000015037              -0.000322103               0.999999999               0.000000391              -0.000165233               0.999999999               0.000002144              -0.000164838               0.999999999               0.000002672              -0.000165808               0.999999999               0.000002528              -0.000168659               0.999999999               0.000002067              -0.000173208               0.999999999               0.000001509              -0.000179288               0.999999999               0.000000865              -0.000186697               0.999999999               0.000000155              -0.000195320               0.999999999              -0.000000659              -0.000205148               0.999999999              -0.000001387              -0.000216109               0.999999999              -0.000002347              -0.000228176               0.999999999              -0.000003325              -0.000241327               0.999999999              -0.000004303              -0.000255563               0.999999999              -0.000005273              -0.000270928               0.999999999              -0.000006096              -0.000287388               0.999999999              -0.000006650              -0.000304770               0.999999999              -0.000006797              -0.000323072               0.999999999               0.000000000              -0.000166060               0.999999999              -0.000000000              -0.000166045               0.999999999               0.000000000              -0.000167176               0.999999999               0.000000000              -0.000170020               0.999999999              -0.000000000              -0.000174596               0.999999999               0.000000000              -0.000180626               0.999999999              -0.000000000              -0.000187954               0.999999999              -0.000000000              -0.000196541               0.999999999              -0.000000000              -0.000206255               0.999999999               0.000000000              -0.000217062               0.999999999               0.000000000              -0.000229054               0.999999999              -0.000000000              -0.000242206               0.999999999               0.000000000              -0.000256484               0.999999999               0.000000000              -0.000271708               0.999999999               0.000000000              -0.000287926               0.999999999              -0.000000000              -0.000305395               0.999999999              -0.000000000              -0.000323826               0.999999999              -0.000009090               0.000000000               0.999999999              -0.000002585               0.000000000               0.999999999               0.000000376               0.000000000               0.999999999               0.000001782              -0.000000000               0.999999999               0.000002560              -0.000000000               0.999999999               0.000003181              -0.000000000               0.999999999               0.000003894               0.000000000               0.999999999               0.000004857               0.000000000               0.999999999               0.000006171               0.000000000               0.999999999               0.000007903               0.000000000               0.999999999               0.000010065               0.000000000               0.999999999               0.000012726               0.000000000               0.999999999               0.000015919               0.000000000               0.999999999               0.000019526               0.000000000               0.999999999               0.000023587               0.000000000               0.999999999               0.000028201              -0.000000000               0.999999999               0.000033301              -0.000000000               0.999999999              -0.000009000              -0.000016202               0.999999999              -0.000002724              -0.000014636               0.999999999               0.000000120              -0.000014194               0.999999999               0.000001531              -0.000014488               0.999999999               0.000002360              -0.000015232               0.999999999               0.000003083              -0.000016340               0.999999999               0.000003954              -0.000017741               0.999999999               0.000005073              -0.000019402               0.999999999               0.000006563              -0.000021285               0.999999999               0.000008458              -0.000023419               0.999999999               0.000010817              -0.000025845               0.999999999               0.000013710              -0.000028456               0.999999999               0.000017096              -0.000031235               0.999999999               0.000020957              -0.000034002               0.999999999               0.000025250              -0.000036897               0.999999999               0.000029949              -0.000040074               0.999999999               0.000035130              -0.000043462               0.999999999              -0.000008789              -0.000032268               0.999999999              -0.000003120              -0.000029091               0.999999999              -0.000000563              -0.000028326               0.999999999               0.000000803              -0.000028956               0.999999999               0.000001812              -0.000030548               0.999999999               0.000002873              -0.000032795               0.999999999               0.000004141              -0.000035651               0.999999999               0.000005723              -0.000038932               0.999999999               0.000007714              -0.000042738               0.999999999               0.000010165              -0.000046985               0.999999999               0.000013100              -0.000051808               0.999999999               0.000016545              -0.000057045               0.999999999               0.000020481              -0.000062431               0.999999999               0.000024798              -0.000067846               0.999999999               0.000029541              -0.000073490               0.999999999               0.000034774              -0.000079620               0.999999999               0.000040420              -0.000086073               0.999999999              -0.000008454              -0.000048035               0.999999999              -0.000003785              -0.000043246               0.999999999              -0.000001647              -0.000042287               0.999999999              -0.000000242              -0.000043436               0.999999999               0.000001115              -0.000045967               0.999999999               0.000002668              -0.000049487               0.999999999               0.000004575              -0.000053787               0.999999999               0.000006864              -0.000058793               0.999999999               0.000009645              -0.000064448               0.999999999               0.000012929              -0.000070869               0.999999999               0.000016725              -0.000078030               0.999999999               0.000021009              -0.000085647               0.999999999               0.000025664              -0.000093453               0.999999999               0.000030693              -0.000101343               0.999999999               0.000036150              -0.000109678               0.999999999               0.000041975              -0.000118461               0.999999999               0.000048136              -0.000127527               0.999999999              -0.000008001              -0.000063323               0.999999999              -0.000004701              -0.000056999               0.999999999              -0.000002965              -0.000056011               0.999999999              -0.000001427              -0.000057893               0.999999999               0.000000376              -0.000061487               0.999999999               0.000002639              -0.000066362               0.999999999               0.000005342              -0.000072209               0.999999999               0.000008520              -0.000078917               0.999999999               0.000012245              -0.000086558               0.999999999               0.000016530              -0.000095141               0.999999999               0.000021310              -0.000104592               0.999999999               0.000026455              -0.000114435               0.999999999               0.000031893              -0.000124475               0.999999999               0.000037654              -0.000134728               0.999999999               0.000043814              -0.000145550               0.999999999               0.000050325              -0.000156703               0.999999999               0.000057119              -0.000168116               0.999999999              -0.000007482              -0.000077986               0.999999999              -0.000005765              -0.000070253               0.999999999              -0.000004376              -0.000069462               0.999999999              -0.000002555              -0.000072202               0.999999999              -0.000000152              -0.000077012               0.999999999               0.000002872              -0.000083374               0.999999999               0.000006465              -0.000090831               0.999999999               0.000010605              -0.000099443               0.999999999               0.000015330              -0.000109084               0.999999999               0.000020632              -0.000119909               0.999999999               0.000026349              -0.000131440               0.999999999               0.000032299              -0.000143443               0.999999999               0.000038540              -0.000155599               0.999999999               0.000045057              -0.000168157               0.999999999               0.000051924              -0.000181468               0.999999999               0.000059174              -0.000195175               0.999999999               0.000066835              -0.000209233               0.999999999              -0.000006896              -0.000091852               0.999999999              -0.000006880              -0.000082930               0.999999999              -0.000005692              -0.000082519               0.999999999              -0.000003436              -0.000086229               0.999999999              -0.000000349              -0.000092409               0.999999999               0.000003488              -0.000100328               0.999999999               0.000007946              -0.000109583               0.999999999               0.000012967              -0.000120144               0.999999999               0.000018632              -0.000132014               0.999999999               0.000024902              -0.000145057               0.999999999               0.000031460              -0.000158772               0.999999999               0.000038262              -0.000172875               0.999999999               0.000045346              -0.000187274               0.999999999               0.000052728              -0.000202375               0.999999999               0.000060502              -0.000218409               0.999999999               0.000068759              -0.000235002               0.999999999               0.000077491              -0.000252166               0.999999999              -0.000006222              -0.000104724               0.999999999              -0.000007944              -0.000094962               0.999999999              -0.000006743              -0.000095074               0.999999999              -0.000003929              -0.000099846               0.999999999              -0.000000098              -0.000107457               0.999999999               0.000004479              -0.000117007               0.999999999               0.000009697              -0.000128208               0.999999999               0.000015599              -0.000140965               0.999999999               0.000022174              -0.000155226               0.999999999               0.000029201              -0.000170576               0.999999999               0.000036535              -0.000186496               0.999999999               0.000044087              -0.000202945               0.999999999               0.000051875              -0.000220183               0.999999999               0.000060081              -0.000238451               0.999999999               0.000068771              -0.000257875               0.999999999               0.000078020              -0.000278020               0.999999999               0.000087736              -0.000298698               0.999999999              -0.000005449              -0.000116416               0.999999999              -0.000008881              -0.000106337               0.999999999              -0.000007393              -0.000107019               0.999999999              -0.000003967              -0.000112879               0.999999999               0.000000570              -0.000121923               0.999999999               0.000005815              -0.000133254               0.999999999               0.000011760              -0.000146621               0.999999999               0.000018462              -0.000161758               0.999999999               0.000025825              -0.000178407               0.999999999               0.000033521              -0.000196151               0.999999999               0.000041408              -0.000214732               0.999999999               0.000049416              -0.000234337               0.999999999               0.000057802              -0.000255221               0.999999999               0.000066779              -0.000277500               0.999999999               0.000076324              -0.000300905               0.999999999               0.000086345              -0.000325139               0.999999999               0.000096682              -0.000350048               0.999999999              -0.000004444              -0.000127301               0.999999999              -0.000009277              -0.000117988               0.999999999              -0.000008461              -0.000117641               0.999999999              -0.000005490              -0.000122239               0.999999999              -0.000001485              -0.000130003               0.999999999               0.000003138              -0.000140049               0.999999999               0.000008233              -0.000152004               0.999999999               0.000013958              -0.000165600               0.999999999               0.000020364              -0.000180691               0.999999999               0.000027148              -0.000197026               0.999999999               0.000034041              -0.000214335               0.999999999               0.000040836              -0.000232694               0.999999999               0.000047646              -0.000252130               0.999999999               0.000054946              -0.000272909               0.999999999               0.000062815              -0.000294894               0.999999999               0.000071050              -0.000317970               0.999999999               0.000079668              -0.000342054               0.999999999              -0.000003501              -0.000137096               0.999999999              -0.000009160              -0.000129043               0.999999999              -0.000009055              -0.000128230               0.999999999              -0.000006642              -0.000131834               0.999999999              -0.000003191              -0.000138477               0.999999999               0.000000735              -0.000147347               0.999999999               0.000005072              -0.000157997               0.999999999               0.000009833              -0.000170229               0.999999999               0.000015225              -0.000183912               0.999999999               0.000020979              -0.000198849               0.999999999               0.000026849              -0.000214924               0.999999999               0.000032683              -0.000232018               0.999999999               0.000038401              -0.000250109               0.999999999               0.000044227              -0.000269376               0.999999999               0.000050427              -0.000289857               0.999999999               0.000057058              -0.000311456               0.999999999               0.000064150              -0.000334092               0.999999999              -0.000002671              -0.000145669               0.999999999              -0.000008571              -0.000139262               0.999999999              -0.000009032              -0.000138387               0.999999999              -0.000007238              -0.000141369               0.999999999              -0.000004424              -0.000147135               0.999999999              -0.000001184              -0.000154971               0.999999999               0.000002318              -0.000164556               0.999999999               0.000006203              -0.000175629               0.999999999               0.000010547              -0.000188079               0.999999999               0.000015175              -0.000201801               0.999999999               0.000020000              -0.000216633               0.999999999               0.000025056              -0.000232425               0.999999999               0.000029830              -0.000249305               0.999999999               0.000034403              -0.000267322               0.999999999               0.000039273              -0.000286450               0.999999999               0.000044450              -0.000306622               0.999999999               0.000049806              -0.000327873               0.999999999              -0.000001947              -0.000152857               0.999999999              -0.000007493              -0.000148275               0.999999999              -0.000008359              -0.000147717               0.999999999              -0.000007151              -0.000150410               0.999999999              -0.000004981              -0.000155537               0.999999999              -0.000002488              -0.000162620               0.999999999               0.000000247              -0.000171310               0.999999999               0.000003239              -0.000181464               0.999999999               0.000006599              -0.000192895               0.999999999               0.000010182              -0.000205532               0.999999999               0.000014103              -0.000219215               0.999999999               0.000018119              -0.000233917               0.999999999               0.000021968              -0.000249725               0.999999999               0.000025588              -0.000266627               0.999999999               0.000029270              -0.000284693               0.999999999               0.000033108              -0.000303823               0.999999999               0.000036745              -0.000323938               0.999999999              -0.000001331              -0.000158569               0.999999999              -0.000006010              -0.000155753               0.999999999              -0.000007017              -0.000155722               0.999999999              -0.000006307              -0.000158366               0.999999999              -0.000004769              -0.000163126               0.999999999              -0.000002969              -0.000169660               0.999999999              -0.000000979              -0.000177719               0.999999999               0.000001194              -0.000187146               0.999999999               0.000003655              -0.000197784               0.999999999               0.000006336              -0.000209529               0.999999999               0.000009189              -0.000222330               0.999999999               0.000012090              -0.000236279               0.999999999               0.000014992              -0.000251331               0.999999999               0.000017806              -0.000267443               0.999999999               0.000020459              -0.000284620               0.999999999               0.000022966              -0.000302892               0.999999999               0.000025156              -0.000322141               0.999999999              -0.000000827              -0.000162736               0.999999999              -0.000004194              -0.000161360               0.999999999              -0.000005065              -0.000161886               0.999999999              -0.000004720              -0.000164630               0.999999999              -0.000003765              -0.000169226               0.999999999              -0.000002574              -0.000175445               0.999999999              -0.000001331              -0.000183090               0.999999999               0.000000139              -0.000191996               0.999999999               0.000001726              -0.000202112               0.999999999               0.000003494              -0.000213353               0.999999999               0.000005273              -0.000225643               0.999999999               0.000007151              -0.000239010               0.999999999               0.000009122              -0.000253531               0.999999999               0.000011090              -0.000269227               0.999999999               0.000012869              -0.000285900               0.999999999               0.000014175              -0.000303497               0.999999999               0.000015037              -0.000322103               0.999999999              -0.000000391              -0.000165233               0.999999999              -0.000002144              -0.000164838               0.999999999              -0.000002672              -0.000165808               0.999999999              -0.000002528              -0.000168659               0.999999999              -0.000002067              -0.000173208               0.999999999              -0.000001509              -0.000179288               0.999999999              -0.000000865              -0.000186697               0.999999999              -0.000000155              -0.000195320               0.999999999               0.000000659              -0.000205148               0.999999999               0.000001387              -0.000216109               0.999999999               0.000002347              -0.000228176               0.999999999               0.000003325              -0.000241327               0.999999999               0.000004303              -0.000255563               0.999999999               0.000005273              -0.000270928               0.999999999               0.000006096              -0.000287388               0.999999999               0.000006650              -0.000304770               0.999999999               0.000006797              -0.000323072               0.999999999               0.000000000              -0.000166060               0.999999999              -0.000000000              -0.000166045               0.999999999               0.000000000              -0.000167176               0.999999999               0.000000000              -0.000170020               0.999999999              -0.000000000              -0.000174596               0.999999999               0.000000000              -0.000180626               0.999999999              -0.000000000              -0.000187954               0.999999999              -0.000000000              -0.000196541               0.999999999              -0.000000000              -0.000206255               0.999999999               0.000000000              -0.000217062               0.999999999               0.000000000              -0.000229054               0.999999999              -0.000000000              -0.000242206               0.999999999               0.000000000              -0.000256484               0.999999999               0.000000000              -0.000271708               0.999999999               0.000000000              -0.000287926               0.999999999              -0.000000000              -0.000305395               0.999999999              -0.000000000              -0.000323826               0.999999999              -0.000009090               0.000000000               0.999999999              -0.000002585               0.000000000               0.999999999               0.000000376               0.000000000               0.999999999               0.000001782              -0.000000000               0.999999999               0.000002560              -0.000000000               0.999999999               0.000003181              -0.000000000               0.999999999               0.000003894               0.000000000               0.999999999               0.000004857               0.000000000               0.999999999               0.000006171               0.000000000               0.999999999               0.000007903               0.000000000               0.999999999               0.000010065               0.000000000               0.999999999               0.000012726               0.000000000               0.999999999               0.000015919               0.000000000               0.999999999               0.000019526               0.000000000               0.999999999               0.000023587               0.000000000               0.999999999               0.000028201              -0.000000000               0.999999999               0.000033301              -0.000000000               0.999999999              -0.000009000               0.000016202               0.999999999              -0.000002724               0.000014636               0.999999999               0.000000120               0.000014194               0.999999999               0.000001531               0.000014488               0.999999999               0.000002360               0.000015232               0.999999999               0.000003083               0.000016340               0.999999999               0.000003954               0.000017741               0.999999999               0.000005073               0.000019402               0.999999999               0.000006563               0.000021285               0.999999999               0.000008458               0.000023419               0.999999999               0.000010817               0.000025845               0.999999999               0.000013710               0.000028456               0.999999999               0.000017096               0.000031235               0.999999999               0.000020957               0.000034002               0.999999999               0.000025250               0.000036897               0.999999999               0.000029949               0.000040074               0.999999999               0.000035130               0.000043462               0.999999999              -0.000008789               0.000032268               0.999999999              -0.000003120               0.000029091               0.999999999              -0.000000563               0.000028326               0.999999999               0.000000803               0.000028956               0.999999999               0.000001812               0.000030548               0.999999999               0.000002873               0.000032795               0.999999999               0.000004141               0.000035651               0.999999999               0.000005723               0.000038932               0.999999999               0.000007714               0.000042738               0.999999999               0.000010165               0.000046985               0.999999999               0.000013100               0.000051808               0.999999999               0.000016545               0.000057045               0.999999999               0.000020481               0.000062431               0.999999999               0.000024798               0.000067846               0.999999999               0.000029541               0.000073490               0.999999999               0.000034774               0.000079620               0.999999999               0.000040420               0.000086073               0.999999999              -0.000008454               0.000048035               0.999999999              -0.000003785               0.000043246               0.999999999              -0.000001647               0.000042287               0.999999999              -0.000000242               0.000043436               0.999999999               0.000001115               0.000045967               0.999999999               0.000002668               0.000049487               0.999999999               0.000004575               0.000053787               0.999999999               0.000006864               0.000058793               0.999999999               0.000009645               0.000064448               0.999999999               0.000012929               0.000070869               0.999999999               0.000016725               0.000078030               0.999999999               0.000021009               0.000085647               0.999999999               0.000025664               0.000093453               0.999999999               0.000030693               0.000101343               0.999999999               0.000036150               0.000109678               0.999999999               0.000041975               0.000118461               0.999999999               0.000048136               0.000127527               0.999999999              -0.000008001               0.000063323               0.999999999              -0.000004701               0.000056999               0.999999999              -0.000002965               0.000056011               0.999999999              -0.000001427               0.000057893               0.999999999               0.000000376               0.000061487               0.999999999               0.000002639               0.000066362               0.999999999               0.000005342               0.000072209               0.999999999               0.000008520               0.000078917               0.999999999               0.000012245               0.000086558               0.999999999               0.000016530               0.000095141               0.999999999               0.000021310               0.000104592               0.999999999               0.000026455               0.000114435               0.999999999               0.000031893               0.000124475               0.999999999               0.000037654               0.000134728               0.999999999               0.000043814               0.000145550               0.999999999               0.000050325               0.000156703               0.999999999               0.000057119               0.000168116               0.999999999              -0.000007482               0.000077986               0.999999999              -0.000005765               0.000070253               0.999999999              -0.000004376               0.000069462               0.999999999              -0.000002555               0.000072202               0.999999999              -0.000000152               0.000077012               0.999999999               0.000002872               0.000083374               0.999999999               0.000006465               0.000090831               0.999999999               0.000010605               0.000099443               0.999999999               0.000015330               0.000109084               0.999999999               0.000020632               0.000119909               0.999999999               0.000026349               0.000131440               0.999999999               0.000032299               0.000143443               0.999999999               0.000038540               0.000155599               0.999999999               0.000045057               0.000168157               0.999999999               0.000051924               0.000181468               0.999999999               0.000059174               0.000195175               0.999999999               0.000066835               0.000209233               0.999999999              -0.000006896               0.000091852               0.999999999              -0.000006880               0.000082930               0.999999999              -0.000005692               0.000082519               0.999999999              -0.000003436               0.000086229               0.999999999              -0.000000349               0.000092409               0.999999999               0.000003488               0.000100328               0.999999999               0.000007946               0.000109583               0.999999999               0.000012967               0.000120144               0.999999999               0.000018632               0.000132014               0.999999999               0.000024902               0.000145057               0.999999999               0.000031460               0.000158772               0.999999999               0.000038262               0.000172875               0.999999999               0.000045346               0.000187274               0.999999999               0.000052728               0.000202375               0.999999999               0.000060502               0.000218409               0.999999999               0.000068759               0.000235002               0.999999999               0.000077491               0.000252166               0.999999999              -0.000006222               0.000104724               0.999999999              -0.000007944               0.000094962               0.999999999              -0.000006743               0.000095074               0.999999999              -0.000003929               0.000099846               0.999999999              -0.000000098               0.000107457               0.999999999               0.000004479               0.000117007               0.999999999               0.000009697               0.000128208               0.999999999               0.000015599               0.000140965               0.999999999               0.000022174               0.000155226               0.999999999               0.000029201               0.000170576               0.999999999               0.000036535               0.000186496               0.999999999               0.000044087               0.000202945               0.999999999               0.000051875               0.000220183               0.999999999               0.000060081               0.000238451               0.999999999               0.000068771               0.000257875               0.999999999               0.000078020               0.000278020               0.999999999               0.000087736               0.000298698               0.999999999              -0.000005449               0.000116416               0.999999999              -0.000008881               0.000106337               0.999999999              -0.000007393               0.000107019               0.999999999              -0.000003967               0.000112879               0.999999999               0.000000570               0.000121923               0.999999999               0.000005815               0.000133254               0.999999999               0.000011760               0.000146621               0.999999999               0.000018462               0.000161758               0.999999999               0.000025825               0.000178407               0.999999999               0.000033521               0.000196151               0.999999999               0.000041408               0.000214732               0.999999999               0.000049416               0.000234337               0.999999999               0.000057802               0.000255221               0.999999999               0.000066779               0.000277500               0.999999999               0.000076324               0.000300905               0.999999999               0.000086345               0.000325139               0.999999999               0.000096682               0.000350048               0.999999999              -0.000004444               0.000127301               0.999999999              -0.000009277               0.000117988               0.999999999              -0.000008461               0.000117641               0.999999999              -0.000005490               0.000122239               0.999999999              -0.000001485               0.000130003               0.999999999               0.000003138               0.000140049               0.999999999               0.000008233               0.000152004               0.999999999               0.000013958               0.000165600               0.999999999               0.000020364               0.000180691               0.999999999               0.000027148               0.000197026               0.999999999               0.000034041               0.000214335               0.999999999               0.000040836               0.000232694               0.999999999               0.000047646               0.000252130               0.999999999               0.000054946               0.000272909               0.999999999               0.000062815               0.000294894               0.999999999               0.000071050               0.000317970               0.999999999               0.000079668               0.000342054               0.999999999              -0.000003501               0.000137096               0.999999999              -0.000009160               0.000129043               0.999999999              -0.000009055               0.000128230               0.999999999              -0.000006642               0.000131834               0.999999999              -0.000003191               0.000138477               0.999999999               0.000000735               0.000147347               0.999999999               0.000005072               0.000157997               0.999999999               0.000009833               0.000170229               0.999999999               0.000015225               0.000183912               0.999999999               0.000020979               0.000198849               0.999999999               0.000026849               0.000214924               0.999999999               0.000032683               0.000232018               0.999999999               0.000038401               0.000250109               0.999999999               0.000044227               0.000269376               0.999999999               0.000050427               0.000289857               0.999999999               0.000057058               0.000311456               0.999999999               0.000064150               0.000334092               0.999999999              -0.000002671               0.000145669               0.999999999              -0.000008571               0.000139262               0.999999999              -0.000009032               0.000138387               0.999999999              -0.000007238               0.000141369               0.999999999              -0.000004424               0.000147135               0.999999999              -0.000001184               0.000154971               0.999999999               0.000002318               0.000164556               0.999999999               0.000006203               0.000175629               0.999999999               0.000010547               0.000188079               0.999999999               0.000015175               0.000201801               0.999999999               0.000020000               0.000216633               0.999999999               0.000025056               0.000232425               0.999999999               0.000029830               0.000249305               0.999999999               0.000034403               0.000267322               0.999999999               0.000039273               0.000286450               0.999999999               0.000044450               0.000306622               0.999999999               0.000049806               0.000327873               0.999999999              -0.000001947               0.000152857               0.999999999              -0.000007493               0.000148275               0.999999999              -0.000008359               0.000147717               0.999999999              -0.000007151               0.000150410               0.999999999              -0.000004981               0.000155537               0.999999999              -0.000002488               0.000162620               0.999999999               0.000000247               0.000171310               0.999999999               0.000003239               0.000181464               0.999999999               0.000006599               0.000192895               0.999999999               0.000010182               0.000205532               0.999999999               0.000014103               0.000219215               0.999999999               0.000018119               0.000233917               0.999999999               0.000021968               0.000249725               0.999999999               0.000025588               0.000266627               0.999999999               0.000029270               0.000284693               0.999999999               0.000033108               0.000303823               0.999999999               0.000036745               0.000323938               0.999999999              -0.000001331               0.000158569               0.999999999              -0.000006010               0.000155753               0.999999999              -0.000007017               0.000155722               0.999999999              -0.000006307               0.000158366               0.999999999              -0.000004769               0.000163126               0.999999999              -0.000002969               0.000169660               0.999999999              -0.000000979               0.000177719               0.999999999               0.000001194               0.000187146               0.999999999               0.000003655               0.000197784               0.999999999               0.000006336               0.000209529               0.999999999               0.000009189               0.000222330               0.999999999               0.000012090               0.000236279               0.999999999               0.000014992               0.000251331               0.999999999               0.000017806               0.000267443               0.999999999               0.000020459               0.000284620               0.999999999               0.000022966               0.000302892               0.999999999               0.000025156               0.000322141               0.999999999              -0.000000827               0.000162736               0.999999999              -0.000004194               0.000161360               0.999999999              -0.000005065               0.000161886               0.999999999              -0.000004720               0.000164630               0.999999999              -0.000003765               0.000169226               0.999999999              -0.000002574               0.000175445               0.999999999              -0.000001331               0.000183090               0.999999999               0.000000139               0.000191996               0.999999999               0.000001726               0.000202112               0.999999999               0.000003494               0.000213353               0.999999999               0.000005273               0.000225643               0.999999999               0.000007151               0.000239010               0.999999999               0.000009122               0.000253531               0.999999999               0.000011090               0.000269227               0.999999999               0.000012869               0.000285900               0.999999999               0.000014175               0.000303497               0.999999999               0.000015037               0.000322103               0.999999999              -0.000000391               0.000165233               0.999999999              -0.000002144               0.000164838               0.999999999              -0.000002672               0.000165808               0.999999999              -0.000002528               0.000168659               0.999999999              -0.000002067               0.000173208               0.999999999              -0.000001509               0.000179288               0.999999999              -0.000000865               0.000186697               0.999999999              -0.000000155               0.000195320               0.999999999               0.000000659               0.000205148               0.999999999               0.000001387               0.000216109               0.999999999               0.000002347               0.000228176               0.999999999               0.000003325               0.000241327               0.999999999               0.000004303               0.000255563               0.999999999               0.000005273               0.000270928               0.999999999               0.000006096               0.000287388               0.999999999               0.000006650               0.000304770               0.999999999               0.000006797               0.000323072               0.999999999              -0.000000000               0.000166060               0.999999999              -0.000000000               0.000166045               0.999999999               0.000000000               0.000167176               0.999999999              -0.000000000               0.000170020               0.999999999              -0.000000000               0.000174596               0.999999999              -0.000000000               0.000180626               0.999999999              -0.000000000               0.000187954               0.999999999               0.000000000               0.000196541               0.999999999               0.000000000               0.000206255               0.999999999               0.000000000               0.000217062               0.999999999               0.000000000               0.000229054               0.999999999               0.000000000               0.000242206               0.999999999               0.000000000               0.000256484               0.999999999               0.000000000               0.000271708               0.999999999              -0.000000000               0.000287926               0.999999999               0.000000000               0.000305395               0.999999999               0.000000000               0.000323826               0.999999999 </DataArray>
<DataArray type="Float64"                                    Name="stress"                                                      NumberOfComponents="10" format="ascii">
              0.000272923               0.003054927               0.000000000              -0.000279519               0.001111472               0.000831953               0.000000000               0.000000000               0.000000000               0.000000000               0.000320541               0.002552329               0.000000000              -0.000198838               0.000917047               0.000718210               0.000000000               0.000000000               0.000000000               0.000000000               0.000464973               0.002138717               0.000000000              -0.000092974               0.000743890               0.000650916               0.000000000               0.000000000               0.000000000               0.000000000               0.000508801               0.001908854               0.000000000              -0.000047806               0.000652214               0.000604407               0.000000000               0.000000000               0.000000000               0.000000000               0.000506432               0.001773489              -0.000000000              -0.000031774               0.000601748               0.000569974               0.000000000               0.000000000               0.000000000               0.000000000               0.000481554               0.001693982               0.000000000              -0.000031165               0.000575043               0.000543878               0.000000000               0.000000000               0.000000000               0.000000000               0.000446403               0.001650195               0.000000000              -0.000038873               0.000563017               0.000524144               0.000000000               0.000000000               0.000000000               0.000000000               0.000404782               0.001629821              -0.000000000              -0.000051934               0.000560580               0.000508646               0.000000000               0.000000000               0.000000000               0.000000000               0.000358997               0.001625569              -0.000000000              -0.000068572               0.000564708               0.000496136               0.000000000               0.000000000               0.000000000               0.000000000               0.000313242               0.001636153              -0.000000000              -0.000087053               0.000574397               0.000487344               0.000000000               0.000000000               0.000000000               0.000000000               0.000265876               0.001658775               0.000000000              -0.000107643               0.000588800               0.000481157               0.000000000               0.000000000               0.000000000               0.000000000               0.000215831               0.001686728               0.000000000              -0.000129904               0.000605538               0.000475634               0.000000000               0.000000000               0.000000000               0.000000000               0.000171492               0.001718573              -0.000000000              -0.000150512               0.000623023               0.000472511               0.000000000               0.000000000               0.000000000               0.000000000               0.000130621               0.001748257              -0.000000000              -0.000169549               0.000639263               0.000469714               0.000000000               0.000000000               0.000000000               0.000000000               0.000085524               0.001777929              -0.000000000              -0.000190169               0.000656027               0.000465858               0.000000000               0.000000000               0.000000000               0.000000000               0.000040102               0.001813793              -0.000000000              -0.000211686               0.000675154               0.000463468               0.000000000               0.000000000               0.000000000               0.000000000               0.000022480               0.001843987               0.000000000              -0.000222068               0.000688679               0.000466611               0.000000000               0.000000000               0.000000000               0.000000000               0.000292506               0.003008876              -0.000239318              -0.000266419               0.001091755               0.000825336               0.000000000               0.000000000               0.000000000               0.000000000               0.000328430               0.002518377              -0.000163255              -0.000191635               0.000903329               0.000711694               0.000000000               0.000000000               0.000000000               0.000000000               0.000459766               0.002121676              -0.000083588              -0.000092797               0.000738151               0.000645354               0.000000000               0.000000000               0.000000000               0.000000000               0.000496502               0.001900203              -0.000045425              -0.000051337               0.000650507               0.000599170               0.000000000               0.000000000               0.000000000               0.000000000               0.000491907               0.001771378              -0.000027483              -0.000036957               0.000602773               0.000565815               0.000000000               0.000000000               0.000000000               0.000000000               0.000466048               0.001694873              -0.000018785              -0.000037091               0.000577316               0.000540225               0.000000000               0.000000000               0.000000000               0.000000000               0.000432067               0.001653134              -0.000014706              -0.000044616               0.000565911               0.000521295               0.000000000               0.000000000               0.000000000               0.000000000               0.000391915               0.001632584              -0.000012534              -0.000057105               0.000563224               0.000506119               0.000000000               0.000000000               0.000000000               0.000000000               0.000348308               0.001629329              -0.000010703              -0.000073050               0.000567454               0.000494404               0.000000000               0.000000000               0.000000000               0.000000000               0.000303883               0.001639597              -0.000007652              -0.000090993               0.000576858               0.000485865               0.000000000               0.000000000               0.000000000               0.000000000               0.000256679               0.001661209              -0.000005803              -0.000111396               0.000590863               0.000479467               0.000000000               0.000000000               0.000000000               0.000000000               0.000209018               0.001688821              -0.000006744              -0.000132720               0.000607175               0.000474454               0.000000000               0.000000000               0.000000000               0.000000000               0.000165365               0.001716866              -0.000010724              -0.000152596               0.000623148               0.000470552               0.000000000               0.000000000               0.000000000               0.000000000               0.000124323               0.001742876              -0.000013829              -0.000171238               0.000638032               0.000466794               0.000000000               0.000000000               0.000000000               0.000000000               0.000083708               0.001770345              -0.000010310              -0.000189902               0.000653410               0.000463508               0.000000000               0.000000000               0.000000000               0.000000000               0.000042377               0.001802610              -0.000004695              -0.000209434               0.000670675               0.000461241               0.000000000               0.000000000               0.000000000               0.000000000               0.000024791               0.001828724              -0.000003109              -0.000219293               0.000682666               0.000463373               0.000000000               0.000000000               0.000000000               0.000000000               0.000342286               0.002873719              -0.000455632              -0.000230857               0.001034849               0.000803992               0.000000000               0.000000000               0.000000000               0.000000000               0.000346913               0.002421376              -0.000310575              -0.000172579               0.000864644               0.000692064               0.000000000               0.000000000               0.000000000               0.000000000               0.000444229               0.002071989              -0.000160896              -0.000092413               0.000721460               0.000629048               0.000000000               0.000000000               0.000000000               0.000000000               0.000463554               0.001877588              -0.000090914              -0.000060866               0.000646145               0.000585279               0.000000000               0.000000000               0.000000000               0.000000000               0.000451295               0.001764789              -0.000058233              -0.000051363               0.000605378               0.000554015               0.000000000               0.000000000               0.000000000               0.000000000               0.000425160               0.001698263              -0.000041971              -0.000052848               0.000583698               0.000530850               0.000000000               0.000000000               0.000000000               0.000000000               0.000393975               0.001660816              -0.000033865              -0.000059861               0.000573554               0.000513692               0.000000000               0.000000000               0.000000000               0.000000000               0.000357424               0.001642711              -0.000028869              -0.000071305               0.000571333               0.000500028               0.000000000               0.000000000               0.000000000               0.000000000               0.000316864               0.001639406              -0.000024034              -0.000086101               0.000575164               0.000489062               0.000000000               0.000000000               0.000000000               0.000000000               0.000276100               0.001650028              -0.000018072              -0.000102716               0.000584243               0.000481527               0.000000000               0.000000000               0.000000000               0.000000000               0.000234041               0.001669298              -0.000013297              -0.000120896               0.000596726               0.000475830               0.000000000               0.000000000               0.000000000               0.000000000               0.000191977               0.001690793              -0.000015096              -0.000139357               0.000610044               0.000470687               0.000000000               0.000000000               0.000000000               0.000000000               0.000154251               0.001710923              -0.000021742              -0.000156021               0.000622309               0.000466288               0.000000000               0.000000000               0.000000000               0.000000000               0.000117575               0.001730612              -0.000024461              -0.000172235               0.000634277               0.000462041               0.000000000               0.000000000               0.000000000               0.000000000               0.000077145               0.001751654              -0.000017566              -0.000190027               0.000647221               0.000457194               0.000000000               0.000000000               0.000000000               0.000000000               0.000036872               0.001772938              -0.000008665              -0.000207790               0.000660237               0.000452447               0.000000000               0.000000000               0.000000000               0.000000000               0.000020279               0.001789508              -0.000006214              -0.000216083               0.000668524               0.000452441               0.000000000               0.000000000               0.000000000               0.000000000               0.000412924               0.002663396              -0.000630317              -0.000178078               0.000947149               0.000769071               0.000000000               0.000000000               0.000000000               0.000000000               0.000371275               0.002274956              -0.000430281              -0.000145141               0.000806691               0.000661550               0.000000000               0.000000000               0.000000000               0.000000000               0.000417490               0.001996465              -0.000227100              -0.000092999               0.000696481               0.000603482               0.000000000               0.000000000               0.000000000               0.000000000               0.000414312               0.001844087              -0.000136121              -0.000075144               0.000639737               0.000564594               0.000000000               0.000000000               0.000000000               0.000000000               0.000394238               0.001753629              -0.000092610              -0.000071364               0.000608325               0.000536961               0.000000000               0.000000000               0.000000000               0.000000000               0.000369007               0.001701084              -0.000071115              -0.000074258               0.000591775               0.000517517               0.000000000               0.000000000               0.000000000               0.000000000               0.000341178               0.001670554              -0.000058953              -0.000080877               0.000583805               0.000502928               0.000000000               0.000000000               0.000000000               0.000000000               0.000308933               0.001656557              -0.000050204              -0.000091220               0.000582587               0.000491367               0.000000000               0.000000000               0.000000000               0.000000000               0.000272613               0.001655842              -0.000040797              -0.000104750               0.000586859               0.000482109               0.000000000               0.000000000               0.000000000               0.000000000               0.000237329               0.001667505              -0.000029981              -0.000119439               0.000595643               0.000476203               0.000000000               0.000000000               0.000000000               0.000000000               0.000202460               0.001682900              -0.000023673              -0.000134440               0.000605774               0.000471334               0.000000000               0.000000000               0.000000000               0.000000000               0.000170072               0.001695355              -0.000025012              -0.000148142               0.000614494               0.000466351               0.000000000               0.000000000               0.000000000               0.000000000               0.000139645               0.001706534              -0.000030105              -0.000160950               0.000622489               0.000461539               0.000000000               0.000000000               0.000000000               0.000000000               0.000105047               0.001718585              -0.000028381              -0.000175430               0.000631333               0.000455903               0.000000000               0.000000000               0.000000000               0.000000000               0.000068887               0.001732971              -0.000018690              -0.000190788               0.000641247               0.000450459               0.000000000               0.000000000               0.000000000               0.000000000               0.000034501               0.001743552              -0.000009792              -0.000205006               0.000649513               0.000444508               0.000000000               0.000000000               0.000000000               0.000000000               0.000019427               0.001750937              -0.000006992              -0.000211582               0.000654167               0.000442585               0.000000000               0.000000000               0.000000000               0.000000000               0.000490730               0.002400065              -0.000750819              -0.000115985               0.000838675               0.000722690               0.000000000               0.000000000               0.000000000               0.000000000               0.000395217               0.002095232              -0.000517615              -0.000113698               0.000736303               0.000622605               0.000000000               0.000000000               0.000000000               0.000000000               0.000383428               0.001906351              -0.000282179              -0.000094508               0.000666947               0.000572438               0.000000000               0.000000000               0.000000000               0.000000000               0.000360010               0.001801005              -0.000179831              -0.000090122               0.000630369               0.000540248               0.000000000               0.000000000               0.000000000               0.000000000               0.000332463               0.001736745              -0.000130272              -0.000092419               0.000609716               0.000517296               0.000000000               0.000000000               0.000000000               0.000000000               0.000307520               0.001700261              -0.000104206              -0.000097212               0.000599152               0.000501940               0.000000000               0.000000000               0.000000000               0.000000000               0.000284376               0.001680398              -0.000087913              -0.000103408               0.000594597               0.000491188               0.000000000               0.000000000               0.000000000               0.000000000               0.000257343               0.001674699              -0.000073746              -0.000112833               0.000595839               0.000483005               0.000000000               0.000000000               0.000000000               0.000000000               0.000225718               0.001679291              -0.000057900              -0.000125267               0.000601514               0.000476247               0.000000000               0.000000000               0.000000000               0.000000000               0.000196050               0.001691324              -0.000042459              -0.000137896               0.000609734               0.000471838               0.000000000               0.000000000               0.000000000               0.000000000               0.000170702               0.001700635              -0.000033672              -0.000148566               0.000616394               0.000467829               0.000000000               0.000000000               0.000000000               0.000000000               0.000148353               0.001706602              -0.000033139              -0.000157692               0.000621426               0.000463733               0.000000000               0.000000000               0.000000000               0.000000000               0.000124089               0.001710459              -0.000033856              -0.000167273               0.000625905               0.000458632               0.000000000               0.000000000               0.000000000               0.000000000               0.000093204               0.001717266              -0.000025458              -0.000179706               0.000632318               0.000452612               0.000000000               0.000000000               0.000000000               0.000000000               0.000059449               0.001726856              -0.000013804              -0.000193563               0.000640134               0.000446571               0.000000000               0.000000000               0.000000000               0.000000000               0.000029449               0.001735578              -0.000007565              -0.000205904               0.000647155               0.000441251               0.000000000               0.000000000               0.000000000               0.000000000               0.000018109               0.001743517              -0.000006492              -0.000211148               0.000651549               0.000440401               0.000000000               0.000000000               0.000000000               0.000000000               0.000557441               0.002105334              -0.000815574              -0.000054127               0.000719813               0.000665686               0.000000000               0.000000000               0.000000000               0.000000000               0.000413974               0.001897979              -0.000572232              -0.000082007               0.000659989               0.000577982               0.000000000               0.000000000               0.000000000               0.000000000               0.000347608               0.001807447              -0.000326831              -0.000095578               0.000634336               0.000538758               0.000000000               0.000000000               0.000000000               0.000000000               0.000308354               0.001748981              -0.000221378              -0.000102990               0.000617318               0.000514328               0.000000000               0.000000000               0.000000000               0.000000000               0.000279575               0.001714529              -0.000168448              -0.000109475               0.000607996               0.000498520               0.000000000               0.000000000               0.000000000               0.000000000               0.000255285               0.001695439              -0.000137880              -0.000116198               0.000603873               0.000487675               0.000000000               0.000000000               0.000000000               0.000000000               0.000234479               0.001689116              -0.000115530              -0.000123210               0.000604103               0.000480893               0.000000000               0.000000000               0.000000000               0.000000000               0.000210408               0.001694168              -0.000094433              -0.000132868               0.000609006               0.000476138               0.000000000               0.000000000               0.000000000               0.000000000               0.000181997               0.001705804              -0.000072502              -0.000144976               0.000616921               0.000471945               0.000000000               0.000000000               0.000000000               0.000000000               0.000158783               0.001718665              -0.000054412              -0.000155289               0.000624646               0.000469357               0.000000000               0.000000000               0.000000000               0.000000000               0.000143544               0.001724945              -0.000044086              -0.000161789               0.000628905               0.000467117               0.000000000               0.000000000               0.000000000               0.000000000               0.000128203               0.001727008              -0.000041103              -0.000167799               0.000631597               0.000463797               0.000000000               0.000000000               0.000000000               0.000000000               0.000109162               0.001730223              -0.000037630              -0.000175342               0.000635183               0.000459841               0.000000000               0.000000000               0.000000000               0.000000000               0.000086685               0.001741454              -0.000023468              -0.000185174               0.000642204               0.000457029               0.000000000               0.000000000               0.000000000               0.000000000               0.000058596               0.001756610              -0.000010508              -0.000197602               0.000651398               0.000453796               0.000000000               0.000000000               0.000000000               0.000000000               0.000029864               0.001774033              -0.000006292              -0.000210555               0.000661523               0.000450969               0.000000000               0.000000000               0.000000000               0.000000000               0.000020367               0.001790328              -0.000007462              -0.000216153               0.000668821               0.000452668               0.000000000               0.000000000               0.000000000               0.000000000               0.000604916               0.001799738              -0.000828763               0.000001875               0.000599281               0.000601156               0.000000000               0.000000000               0.000000000               0.000000000               0.000425284               0.001697096              -0.000597481              -0.000052656               0.000583245               0.000530589               0.000000000               0.000000000               0.000000000               0.000000000               0.000316366               0.001704933              -0.000362745              -0.000094479               0.000599798               0.000505319               0.000000000               0.000000000               0.000000000               0.000000000               0.000269267               0.001692592              -0.000259005              -0.000110599               0.000601058               0.000490459               0.000000000               0.000000000               0.000000000               0.000000000               0.000242314               0.001685469              -0.000203024              -0.000119816               0.000601756               0.000481940               0.000000000               0.000000000               0.000000000               0.000000000               0.000219033               0.001683182              -0.000166301              -0.000128260               0.000603808               0.000475548               0.000000000               0.000000000               0.000000000               0.000000000               0.000199512               0.001693346              -0.000137155              -0.000136851               0.000610060               0.000473209               0.000000000               0.000000000               0.000000000               0.000000000               0.000176968               0.001711930              -0.000109649              -0.000147628               0.000619847               0.000472219               0.000000000               0.000000000               0.000000000               0.000000000               0.000150740               0.001733755              -0.000084238              -0.000160191               0.000631310               0.000471118               0.000000000               0.000000000               0.000000000               0.000000000               0.000131270               0.001748025              -0.000064882              -0.000169276               0.000639095               0.000469818               0.000000000               0.000000000               0.000000000               0.000000000               0.000120897               0.001755377              -0.000054249              -0.000174085               0.000643148               0.000469063               0.000000000               0.000000000               0.000000000               0.000000000               0.000108883               0.001762360              -0.000048310              -0.000179463               0.000647269               0.000467805               0.000000000               0.000000000               0.000000000               0.000000000               0.000094489               0.001781149              -0.000039147              -0.000187210               0.000656114               0.000468904               0.000000000               0.000000000               0.000000000               0.000000000               0.000077512               0.001811059              -0.000021726              -0.000197315               0.000669452               0.000472137               0.000000000               0.000000000               0.000000000               0.000000000               0.000053408               0.001843538              -0.000009446              -0.000210414               0.000684645               0.000474231               0.000000000               0.000000000               0.000000000               0.000000000               0.000027000               0.001876884              -0.000006340              -0.000224485               0.000700450               0.000475965               0.000000000               0.000000000               0.000000000               0.000000000               0.000019445               0.001902132              -0.000008172              -0.000230474               0.000710862               0.000480388               0.000000000               0.000000000               0.000000000               0.000000000               0.000632013               0.001505415              -0.000796854               0.000048827               0.000485524               0.000534351               0.000000000               0.000000000               0.000000000               0.000000000               0.000429832               0.001506985              -0.000598712              -0.000027187               0.000511385               0.000484199               0.000000000               0.000000000               0.000000000               0.000000000               0.000294627               0.001604609              -0.000391264              -0.000090091               0.000564894               0.000474804               0.000000000               0.000000000               0.000000000               0.000000000               0.000246706               0.001632573              -0.000290534              -0.000111557               0.000581371               0.000469814               0.000000000               0.000000000               0.000000000               0.000000000               0.000223061               0.001648464              -0.000229725              -0.000122410               0.000590286               0.000467876               0.000000000               0.000000000               0.000000000               0.000000000               0.000202656               0.001666639              -0.000185679              -0.000132334               0.000599652               0.000467318               0.000000000               0.000000000               0.000000000               0.000000000               0.000181564               0.001695890              -0.000150368              -0.000143899               0.000613257               0.000469358               0.000000000               0.000000000               0.000000000               0.000000000               0.000157714               0.001729061              -0.000119106              -0.000156989               0.000628678               0.000471688               0.000000000               0.000000000               0.000000000               0.000000000               0.000136127               0.001757182              -0.000091537              -0.000168600               0.000641922               0.000473322               0.000000000               0.000000000               0.000000000               0.000000000               0.000119547               0.001775503              -0.000072044              -0.000177107               0.000650864               0.000473757               0.000000000               0.000000000               0.000000000               0.000000000               0.000109477               0.001794988              -0.000059510              -0.000183319               0.000659430               0.000476111               0.000000000               0.000000000               0.000000000               0.000000000               0.000101066               0.001828372              -0.000046679              -0.000190646               0.000673000               0.000482354               0.000000000               0.000000000               0.000000000               0.000000000               0.000087910               0.001878495              -0.000031524              -0.000201845               0.000693440               0.000491595               0.000000000               0.000000000               0.000000000               0.000000000               0.000070103               0.001936266              -0.000014671              -0.000215744               0.000717330               0.000501586               0.000000000               0.000000000               0.000000000               0.000000000               0.000046875               0.001990296              -0.000004446              -0.000231208               0.000740495               0.000509286               0.000000000               0.000000000               0.000000000               0.000000000               0.000022619               0.002041284              -0.000003379              -0.000246678               0.000762647               0.000515969               0.000000000               0.000000000               0.000000000               0.000000000               0.000016018               0.002076386              -0.000006985              -0.000253541               0.000776635               0.000523095               0.000000000               0.000000000               0.000000000               0.000000000               0.000645394               0.001245983              -0.000735119               0.000086273               0.000386565               0.000472839               0.000000000               0.000000000               0.000000000               0.000000000               0.000437675               0.001336602              -0.000587850              -0.000002948               0.000446512               0.000443564               0.000000000               0.000000000               0.000000000               0.000000000               0.000288157               0.001510306              -0.000420167              -0.000080730               0.000530340               0.000449610               0.000000000               0.000000000               0.000000000               0.000000000               0.000243479               0.001574712              -0.000321700              -0.000105534               0.000560077               0.000454543               0.000000000               0.000000000               0.000000000               0.000000000               0.000222796               0.001614007              -0.000254771              -0.000118202               0.000577398               0.000459195               0.000000000               0.000000000               0.000000000               0.000000000               0.000206151               0.001654378              -0.000203882              -0.000129491               0.000594617               0.000465127               0.000000000               0.000000000               0.000000000               0.000000000               0.000183587               0.001698531              -0.000163327              -0.000143471               0.000613995               0.000470524               0.000000000               0.000000000               0.000000000               0.000000000               0.000157913               0.001739575              -0.000130317              -0.000158229               0.000632596               0.000474367               0.000000000               0.000000000               0.000000000               0.000000000               0.000139417               0.001773430              -0.000101943              -0.000169397               0.000647603               0.000478206               0.000000000               0.000000000               0.000000000               0.000000000               0.000128720               0.001801996              -0.000078705              -0.000176979               0.000659652               0.000482673               0.000000000               0.000000000               0.000000000               0.000000000               0.000122904               0.001842866              -0.000057906              -0.000184269               0.000675706               0.000491437               0.000000000               0.000000000               0.000000000               0.000000000               0.000114879               0.001905471              -0.000037075              -0.000195104               0.000700185               0.000505082               0.000000000               0.000000000               0.000000000               0.000000000               0.000098163               0.001982634              -0.000019001              -0.000211018               0.000731211               0.000520193               0.000000000               0.000000000               0.000000000               0.000000000               0.000079327               0.002062571              -0.000006727              -0.000228073               0.000763541               0.000535468               0.000000000               0.000000000               0.000000000               0.000000000               0.000060192               0.002131695               0.000000309              -0.000243889               0.000791854               0.000547965               0.000000000               0.000000000               0.000000000               0.000000000               0.000043041               0.002197142               0.000003095              -0.000258502               0.000818541               0.000560039               0.000000000               0.000000000               0.000000000               0.000000000               0.000035460               0.002236038               0.000002322              -0.000266207               0.000834074               0.000567867               0.000000000               0.000000000               0.000000000               0.000000000               0.000641047               0.000992066              -0.000657733               0.000116383               0.000291891               0.000408273               0.000000000               0.000000000               0.000000000               0.000000000               0.000452152               0.001136873              -0.000570710               0.000027447               0.000369805               0.000397251               0.000000000               0.000000000               0.000000000               0.000000000               0.000299373               0.001364637              -0.000454837              -0.000058315               0.000474313               0.000415998               0.000000000               0.000000000               0.000000000               0.000000000               0.000254961               0.001470799              -0.000362728              -0.000088240               0.000519675               0.000431435               0.000000000               0.000000000               0.000000000               0.000000000               0.000236581               0.001539321              -0.000291763              -0.000103697               0.000547668               0.000443971               0.000000000               0.000000000               0.000000000               0.000000000               0.000221157               0.001597154              -0.000234782              -0.000116710               0.000571283               0.000454573               0.000000000               0.000000000               0.000000000               0.000000000               0.000200281               0.001649667              -0.000189249              -0.000131103               0.000593584               0.000462482               0.000000000               0.000000000               0.000000000               0.000000000               0.000175192               0.001700027              -0.000154977              -0.000146806               0.000615605               0.000468799               0.000000000               0.000000000               0.000000000               0.000000000               0.000156408               0.001749328              -0.000126283              -0.000160013               0.000636441               0.000476428               0.000000000               0.000000000               0.000000000               0.000000000               0.000144907               0.001794850              -0.000098362              -0.000170016               0.000654949               0.000484934               0.000000000               0.000000000               0.000000000               0.000000000               0.000140176               0.001850721              -0.000070429              -0.000178773               0.000676492               0.000497718               0.000000000               0.000000000               0.000000000               0.000000000               0.000137883               0.001921376              -0.000043534              -0.000188465               0.000703274               0.000514809               0.000000000               0.000000000               0.000000000               0.000000000               0.000131017               0.002006993              -0.000023899              -0.000201742               0.000736239               0.000534496               0.000000000               0.000000000               0.000000000               0.000000000               0.000118720               0.002098252              -0.000012572              -0.000217761               0.000771997               0.000554236               0.000000000               0.000000000               0.000000000               0.000000000               0.000104052               0.002182012              -0.000003607              -0.000233732               0.000805240               0.000571509               0.000000000               0.000000000               0.000000000               0.000000000               0.000093193               0.002264881               0.000002671              -0.000248162               0.000837673               0.000589511               0.000000000               0.000000000               0.000000000               0.000000000               0.000083857               0.002303557               0.000006331              -0.000256498               0.000853344               0.000596846               0.000000000               0.000000000               0.000000000               0.000000000               0.000606851               0.000753007              -0.000564372               0.000133442               0.000206519               0.000339960               0.000000000               0.000000000               0.000000000               0.000000000               0.000464292               0.000935481              -0.000537941               0.000057173               0.000292766               0.000349939               0.000000000               0.000000000               0.000000000               0.000000000               0.000327571               0.001200615              -0.000478680              -0.000027238               0.000409280               0.000382042               0.000000000               0.000000000               0.000000000               0.000000000               0.000280956               0.001347466              -0.000401722              -0.000063075               0.000470176               0.000407101               0.000000000               0.000000000               0.000000000               0.000000000               0.000261628               0.001445746              -0.000330819              -0.000082608               0.000509446               0.000426839               0.000000000               0.000000000               0.000000000               0.000000000               0.000245048               0.001519936              -0.000269967              -0.000098099               0.000539340               0.000441241               0.000000000               0.000000000               0.000000000               0.000000000               0.000225918               0.001585783              -0.000221426              -0.000113504               0.000566424               0.000452920               0.000000000               0.000000000               0.000000000               0.000000000               0.000204117               0.001650485              -0.000185624              -0.000129766               0.000593411               0.000463645               0.000000000               0.000000000               0.000000000               0.000000000               0.000182717               0.001712852              -0.000155282              -0.000145587               0.000619474               0.000473887               0.000000000               0.000000000               0.000000000               0.000000000               0.000166888               0.001773328              -0.000123990              -0.000159083               0.000644131               0.000485048               0.000000000               0.000000000               0.000000000               0.000000000               0.000161225               0.001836769              -0.000094170              -0.000169136               0.000668629               0.000499493               0.000000000               0.000000000               0.000000000               0.000000000               0.000166809               0.001906830              -0.000065285              -0.000175800               0.000694203               0.000518404               0.000000000               0.000000000               0.000000000               0.000000000               0.000172481               0.001992367              -0.000040154              -0.000184365               0.000725571               0.000541206               0.000000000               0.000000000               0.000000000               0.000000000               0.000168958               0.002086403              -0.000023333              -0.000197441               0.000761274               0.000563834               0.000000000               0.000000000               0.000000000               0.000000000               0.000160803               0.002177005              -0.000012760              -0.000211824               0.000796269               0.000584445               0.000000000               0.000000000               0.000000000               0.000000000               0.000152967               0.002263324              -0.000004871              -0.000225552               0.000829618               0.000604066               0.000000000               0.000000000               0.000000000               0.000000000               0.000140840               0.002298991               0.000001847              -0.000234558               0.000844509               0.000609951               0.000000000               0.000000000               0.000000000               0.000000000               0.000543571               0.000538253              -0.000457461               0.000136556               0.000133897               0.000270453               0.000000000               0.000000000               0.000000000               0.000000000               0.000463784               0.000739267              -0.000482990               0.000081510               0.000219250               0.000300759               0.000000000               0.000000000               0.000000000               0.000000000               0.000362425               0.001021705              -0.000474963               0.000008196               0.000337833               0.000346029               0.000000000               0.000000000               0.000000000               0.000000000               0.000318645               0.001200939              -0.000418464              -0.000030626               0.000410518               0.000379892               0.000000000               0.000000000               0.000000000               0.000000000               0.000295274               0.001324204              -0.000353888              -0.000054798               0.000459663               0.000404865               0.000000000               0.000000000               0.000000000               0.000000000               0.000276793               0.001419847              -0.000293679              -0.000073683               0.000497839               0.000424155               0.000000000               0.000000000               0.000000000               0.000000000               0.000257990               0.001504063              -0.000245028              -0.000091261               0.000531770               0.000440508               0.000000000               0.000000000               0.000000000               0.000000000               0.000238099               0.001583173              -0.000209033              -0.000108609               0.000563922               0.000455313               0.000000000               0.000000000               0.000000000               0.000000000               0.000217717               0.001659408              -0.000177377              -0.000125782               0.000595058               0.000469276               0.000000000               0.000000000               0.000000000               0.000000000               0.000200996               0.001731625              -0.000146980              -0.000141079               0.000624229               0.000483150               0.000000000               0.000000000               0.000000000               0.000000000               0.000193251               0.001799102              -0.000120998              -0.000152418               0.000650501               0.000498082               0.000000000               0.000000000               0.000000000               0.000000000               0.000196858               0.001876006              -0.000091750              -0.000160679               0.000678889               0.000518210               0.000000000               0.000000000               0.000000000               0.000000000               0.000207572               0.001970423              -0.000060010              -0.000168463               0.000712956               0.000544493               0.000000000               0.000000000               0.000000000               0.000000000               0.000214578               0.002070849              -0.000039707              -0.000178389               0.000749739               0.000571350               0.000000000               0.000000000               0.000000000               0.000000000               0.000215686               0.002168130              -0.000029513              -0.000190134               0.000786081               0.000595947               0.000000000               0.000000000               0.000000000               0.000000000               0.000211427               0.002261900              -0.000017584              -0.000203452               0.000821776               0.000618324               0.000000000               0.000000000               0.000000000               0.000000000               0.000196651               0.002301106              -0.000006268              -0.000213894               0.000838326               0.000624432               0.000000000               0.000000000               0.000000000               0.000000000               0.000461079               0.000359302              -0.000346971               0.000127991               0.000077102               0.000205093               0.000000000               0.000000000               0.000000000               0.000000000               0.000452931               0.000559686              -0.000407813               0.000099887               0.000153264               0.000253151               0.000000000               0.000000000               0.000000000               0.000000000               0.000399600               0.000840682              -0.000438611               0.000044764               0.000265303               0.000310067               0.000000000               0.000000000               0.000000000               0.000000000               0.000363480               0.001038286              -0.000403847               0.000006519               0.000343919               0.000350437               0.000000000               0.000000000               0.000000000               0.000000000               0.000337931               0.001182514              -0.000350134              -0.000021090               0.000401197               0.000380107               0.000000000               0.000000000               0.000000000               0.000000000               0.000317338               0.001298931              -0.000296064              -0.000043365               0.000447428               0.000404063               0.000000000               0.000000000               0.000000000               0.000000000               0.000299674               0.001401794              -0.000251241              -0.000062846               0.000488209               0.000425362               0.000000000               0.000000000               0.000000000               0.000000000               0.000281261               0.001496009              -0.000216941              -0.000081528               0.000525841               0.000444313               0.000000000               0.000000000               0.000000000               0.000000000               0.000263586               0.001583704              -0.000187466              -0.000099118               0.000560936               0.000461818               0.000000000               0.000000000               0.000000000               0.000000000               0.000249006               0.001665364              -0.000161371              -0.000114793               0.000593380               0.000478587               0.000000000               0.000000000               0.000000000               0.000000000               0.000238339               0.001745015              -0.000137884              -0.000128749               0.000624582               0.000495833               0.000000000               0.000000000               0.000000000               0.000000000               0.000235247               0.001836675              -0.000110505              -0.000141366               0.000659341               0.000517975               0.000000000               0.000000000               0.000000000               0.000000000               0.000245351               0.001940703              -0.000081532              -0.000150581               0.000697088               0.000546507               0.000000000               0.000000000               0.000000000               0.000000000               0.000261116               0.002051420              -0.000059855              -0.000158508               0.000736636               0.000578127               0.000000000               0.000000000               0.000000000               0.000000000               0.000269761               0.002160589              -0.000045606              -0.000168913               0.000776493               0.000607581               0.000000000               0.000000000               0.000000000               0.000000000               0.000268129               0.002261129              -0.000026963              -0.000182092               0.000814400               0.000632307               0.000000000               0.000000000               0.000000000               0.000000000               0.000255234               0.002302767              -0.000011548              -0.000192133               0.000831626               0.000639493               0.000000000               0.000000000               0.000000000               0.000000000               0.000369871               0.000223231              -0.000242778               0.000110797               0.000037477               0.000148274               0.000000000               0.000000000               0.000000000               0.000000000               0.000433283               0.000407302              -0.000316986               0.000111567               0.000098577               0.000210144               0.000000000               0.000000000               0.000000000               0.000000000               0.000435165               0.000670967              -0.000367762               0.000079315               0.000197215               0.000276530               0.000000000               0.000000000               0.000000000               0.000000000               0.000411229               0.000876212              -0.000351354               0.000044684               0.000277173               0.000321857               0.000000000               0.000000000               0.000000000               0.000000000               0.000384945               0.001035034              -0.000312051               0.000014975               0.000340016               0.000354991               0.000000000               0.000000000               0.000000000               0.000000000               0.000364538               0.001169399              -0.000268591              -0.000009474               0.000392954               0.000383480               0.000000000               0.000000000               0.000000000               0.000000000               0.000345851               0.001288259              -0.000231482              -0.000031338               0.000439861               0.000408523               0.000000000               0.000000000               0.000000000               0.000000000               0.000330111               0.001396546              -0.000202408              -0.000050777               0.000482436               0.000431660               0.000000000               0.000000000               0.000000000               0.000000000               0.000313695               0.001496066              -0.000178579              -0.000069373               0.000521808               0.000452435               0.000000000               0.000000000               0.000000000               0.000000000               0.000299522               0.001590860              -0.000157111              -0.000086537               0.000559127               0.000472590               0.000000000               0.000000000               0.000000000               0.000000000               0.000286659               0.001689565              -0.000136018              -0.000103698               0.000597749               0.000494050               0.000000000               0.000000000               0.000000000               0.000000000               0.000283306               0.001798591              -0.000115277              -0.000118584               0.000639052               0.000520469               0.000000000               0.000000000               0.000000000               0.000000000               0.000292390               0.001913189              -0.000095583              -0.000129502               0.000680890               0.000551388               0.000000000               0.000000000               0.000000000               0.000000000               0.000309342               0.002030029              -0.000076668              -0.000137750               0.000722586               0.000584836               0.000000000               0.000000000               0.000000000               0.000000000               0.000322266               0.002144620              -0.000056456              -0.000147228               0.000763942               0.000616714               0.000000000               0.000000000               0.000000000               0.000000000               0.000323781               0.002251259              -0.000031190              -0.000159989               0.000803742               0.000643753               0.000000000               0.000000000               0.000000000               0.000000000               0.000314597               0.002297108              -0.000014782              -0.000169164               0.000822083               0.000652919               0.000000000               0.000000000               0.000000000               0.000000000               0.000286570               0.000127792              -0.000150173               0.000091489               0.000012100               0.000103589               0.000000000               0.000000000               0.000000000               0.000000000               0.000411413               0.000290559              -0.000215744               0.000117959               0.000057532               0.000175491               0.000000000               0.000000000               0.000000000               0.000000000               0.000463656               0.000531183              -0.000265707               0.000107472               0.000141235               0.000248707               0.000000000               0.000000000               0.000000000               0.000000000               0.000455559               0.000737529              -0.000261149               0.000078642               0.000219626               0.000298269               0.000000000               0.000000000               0.000000000               0.000000000               0.000430605               0.000905379              -0.000236908               0.000048304               0.000285688               0.000333993               0.000000000               0.000000000               0.000000000               0.000000000               0.000408335               0.001051734              -0.000206725               0.000021659               0.000343355               0.000365014               0.000000000               0.000000000               0.000000000               0.000000000               0.000389533               0.001181411              -0.000180717              -0.000001602               0.000394334               0.000392732               0.000000000               0.000000000               0.000000000               0.000000000               0.000373829               0.001302296              -0.000159906              -0.000022601               0.000441628               0.000419027               0.000000000               0.000000000               0.000000000               0.000000000               0.000358853               0.001417740              -0.000142110              -0.000042647               0.000486791               0.000444144               0.000000000               0.000000000               0.000000000               0.000000000               0.000342701               0.001526889              -0.000126479              -0.000062348               0.000529741               0.000467392               0.000000000               0.000000000               0.000000000               0.000000000               0.000334486               0.001638855              -0.000112827              -0.000079424               0.000572754               0.000493330               0.000000000               0.000000000               0.000000000               0.000000000               0.000334711               0.001759041              -0.000100998              -0.000094363               0.000617796               0.000523432               0.000000000               0.000000000               0.000000000               0.000000000               0.000342477               0.001886325              -0.000089157              -0.000107361               0.000664556               0.000557194               0.000000000               0.000000000               0.000000000               0.000000000               0.000354262               0.002009108              -0.000074520              -0.000118290               0.000709126               0.000590836               0.000000000               0.000000000               0.000000000               0.000000000               0.000365766               0.002121320              -0.000053366              -0.000128002               0.000749767               0.000621765               0.000000000               0.000000000               0.000000000               0.000000000               0.000377232               0.002232166              -0.000026854              -0.000137558               0.000789901               0.000652342               0.000000000               0.000000000               0.000000000               0.000000000               0.000378222               0.002285398              -0.000011979              -0.000143841               0.000809739               0.000665898               0.000000000               0.000000000               0.000000000               0.000000000               0.000228633               0.000075252              -0.000070536               0.000076330              -0.000000360               0.000075970               0.000000000               0.000000000               0.000000000               0.000000000               0.000394233               0.000219705              -0.000109288               0.000120373               0.000033110               0.000153483               0.000000000               0.000000000               0.000000000               0.000000000               0.000482819               0.000438760              -0.000140037               0.000126211               0.000104182               0.000230392               0.000000000               0.000000000               0.000000000               0.000000000               0.000486859               0.000642521              -0.000139624               0.000102256               0.000180086               0.000282342               0.000000000               0.000000000               0.000000000               0.000000000               0.000464205               0.000816315              -0.000128086               0.000072037               0.000248090               0.000320127               0.000000000               0.000000000               0.000000000               0.000000000               0.000439721               0.000967826              -0.000113121               0.000043917               0.000307967               0.000351883               0.000000000               0.000000000               0.000000000               0.000000000               0.000420222               0.001104309              -0.000099835               0.000019545               0.000361584               0.000381129               0.000000000               0.000000000               0.000000000               0.000000000               0.000403134               0.001234117              -0.000089425              -0.000003090               0.000412398               0.000409309               0.000000000               0.000000000               0.000000000               0.000000000               0.000389464               0.001359628              -0.000078050              -0.000023905               0.000461173               0.000437268               0.000000000               0.000000000               0.000000000               0.000000000               0.000378499               0.001482070              -0.000069988              -0.000043322               0.000508459               0.000465137               0.000000000               0.000000000               0.000000000               0.000000000               0.000373565               0.001605742              -0.000065866              -0.000060631               0.000555452               0.000494821               0.000000000               0.000000000               0.000000000               0.000000000               0.000372988               0.001731136              -0.000060621              -0.000076522               0.000602547               0.000526025               0.000000000               0.000000000               0.000000000               0.000000000               0.000376216               0.001858490              -0.000054967              -0.000091230               0.000649900               0.000558670               0.000000000               0.000000000               0.000000000               0.000000000               0.000384059               0.001984552              -0.000045497              -0.000104047               0.000696193               0.000592146               0.000000000               0.000000000               0.000000000               0.000000000               0.000398992               0.002106031              -0.000031875              -0.000113631               0.000739881               0.000626249               0.000000000               0.000000000               0.000000000               0.000000000               0.000425189               0.002225191              -0.000016449              -0.000118703               0.000781290               0.000662588               0.000000000               0.000000000               0.000000000               0.000000000               0.000441279               0.002283720              -0.000008058              -0.000119985               0.000801228               0.000681242               0.000000000               0.000000000               0.000000000               0.000000000               0.000207820               0.000060908               0.000000000               0.000070318              -0.000003137               0.000067181               0.000000000               0.000000000               0.000000000               0.000000000               0.000387416               0.000196615               0.000000000               0.000120703               0.000025303               0.000146006               0.000000000               0.000000000               0.000000000               0.000000000               0.000489877               0.000404789               0.000000000               0.000133104               0.000090560               0.000223664               0.000000000               0.000000000               0.000000000               0.000000000               0.000497966               0.000608148               0.000000000               0.000110718               0.000165808               0.000276526               0.000000000               0.000000000               0.000000000               0.000000000               0.000476359               0.000784833               0.000000000               0.000080530               0.000234765               0.000315295               0.000000000               0.000000000               0.000000000               0.000000000               0.000451732               0.000936955              -0.000000000               0.000052280               0.000294889               0.000347168               0.000000000               0.000000000               0.000000000               0.000000000               0.000430748               0.001077060               0.000000000               0.000026898               0.000350050               0.000376948               0.000000000               0.000000000               0.000000000               0.000000000               0.000413504               0.001209634               0.000000000               0.000003860               0.000401921               0.000405780               0.000000000               0.000000000               0.000000000               0.000000000               0.000399327               0.001335261               0.000000000              -0.000017160               0.000450802               0.000433643               0.000000000               0.000000000               0.000000000               0.000000000               0.000395019               0.001464738              -0.000000000              -0.000034960               0.000499895               0.000464934               0.000000000               0.000000000               0.000000000               0.000000000               0.000389069               0.001595500              -0.000000000              -0.000053536               0.000549674               0.000496137               0.000000000               0.000000000               0.000000000               0.000000000               0.000386341               0.001724902               0.000000000              -0.000070735               0.000598540               0.000527805               0.000000000               0.000000000               0.000000000               0.000000000               0.000387079               0.001847991               0.000000000              -0.000085844               0.000644606               0.000558762               0.000000000               0.000000000               0.000000000               0.000000000               0.000392870               0.001967666              -0.000000000              -0.000098632               0.000688760               0.000590128               0.000000000               0.000000000               0.000000000               0.000000000               0.000413539               0.002100253               0.000000000              -0.000107454               0.000735896               0.000628441               0.000000000               0.000000000               0.000000000               0.000000000               0.000448975               0.002233298               0.000000000              -0.000110796               0.000781357               0.000670561               0.000000000               0.000000000               0.000000000               0.000000000               0.000472373               0.002295353               0.000000000              -0.000109779               0.000801703               0.000691924               0.000000000               0.000000000               0.000000000               0.000000000               0.000000000               0.000000000               0.000000000               0.000000000               0.000000000               0.000000000               0.000000000               0.000000000               0.000000000               0.000000000               0.000000000               0.000000000               0.000000000               0.000000000               0.000000000               0.000000000               0.000000000               0.000000000               0.000000000               0.000000000               0.000000000               0.000000000               0.000000000               0.000000000               0.000000000               0.000000000               0.000000000               0.000000000               0.000000000               0.000000000               0.000000000               0.000000000               0.000000000               0.000000000               0.000000000               0.000000000               0.000000000               0.000000000               0.000000000               0.000000000               0.000000000               0.000000000               0.000000000               0.000000000               0.000000000               0.000000000               0.000000000               0.000000000               0.000000000               0.000000000               0.000000000               0.000000000               0.000000000               0.000000000               0.000000000               0.000000000               0.000000000               0.000000000               0.000000000               0.000000000               0.000000000               0.000000000               0.000000000               0.000000000               0.000000000               0.000000000               0.000000000               0.000000000               0.000000000               0.000000000               0.000000000               0.000000000               0.000000000               0.000000000               0.000000000               0.000000000               0.000000000               0.000000000               0.000000000               0.000000000               0.000000000               0.000000000               0.000000000               0.000000000               0.000000000               0.000000000               0.000000000               0.000000000               0.000000000               0.000000000               0.000000000               0.000000000               0.000000000               0.000000000               0.000000000               0.000000000               0.000000000               0.000000000               0.000000000               0.000000000               0.000000000               0.000000000               0.000000000               0.000000000               0.000000000               0.000000000               0.000000000               0.000000000               0.000000000               0.000000000               0.000000000               0.000000000               0.000000000               0.000000000               0.000000000               0.000000000               0.000000000               0.000000000               0.000000000               0.000000000               0.000000000               0.000000000               0.000000000               0.000000000               0.000000000               0.000000000               0.000000000               0.000000000               0.000000000               0.000000000               0.000000000               0.000000000               0.000000000               0.000000000               0.000000000               0.000000000               0.000000000               0.000000000               0.000000000               0.000000000               0.000000000               0.000000000               0.000000000               0.000000000               0.000000000               0.000000000               0.000000000               0.000000000               0.000000000               0.000000000               0.000000000               0.000000000               0.000000000               0.000000000               0.000000000               0.000000000               0.000000000               0.000000000               0.000000000               0.000000000               0.000000000               0.000000000               0.000000000               0.000000000               0.000000000               0.000000000               0.000000000               0.000000000               0.000000000               0.000000000               0.000292506               0.003008876               0.000239318              -0.000266419               0.001091755               0.000825336               0.000000000               0.000000000               0.000000000               0.000000000               0.000328430               0.002518377               0.000163255              -0.000191635               0.000903329               0.000711694               0.000000000               0.000000000               0.000000000               0.000000000               0.000459766               0.002121676               0.000083588              -0.000092797               0.000738151               0.000645354               0.000000000               0.000000000               0.000000000               0.000000000               0.000496502               0.001900203               0.000045425              -0.000051337               0.000650507               0.000599170               0.000000000               0.000000000               0.000000000               0.000000000               0.000491907               0.001771378               0.000027483              -0.000036957               0.000602773               0.000565815               0.000000000               0.000000000               0.000000000               0.000000000               0.000466048               0.001694873               0.000018785              -0.000037091               0.000577316               0.000540225               0.000000000               0.000000000               0.000000000               0.000000000               0.000432067               0.001653134               0.000014706              -0.000044616               0.000565911               0.000521295               0.000000000               0.000000000               0.000000000               0.000000000               0.000391915               0.001632584               0.000012534              -0.000057105               0.000563224               0.000506119               0.000000000               0.000000000               0.000000000               0.000000000               0.000348308               0.001629329               0.000010703              -0.000073050               0.000567454               0.000494404               0.000000000               0.000000000               0.000000000               0.000000000               0.000303883               0.001639597               0.000007652              -0.000090993               0.000576858               0.000485865               0.000000000               0.000000000               0.000000000               0.000000000               0.000256679               0.001661209               0.000005803              -0.000111396               0.000590863               0.000479467               0.000000000               0.000000000               0.000000000               0.000000000               0.000209018               0.001688821               0.000006744              -0.000132720               0.000607175               0.000474454               0.000000000               0.000000000               0.000000000               0.000000000               0.000165365               0.001716866               0.000010724              -0.000152596               0.000623148               0.000470552               0.000000000               0.000000000               0.000000000               0.000000000               0.000124323               0.001742876               0.000013829              -0.000171238               0.000638032               0.000466794               0.000000000               0.000000000               0.000000000               0.000000000               0.000083708               0.001770345               0.000010310              -0.000189902               0.000653410               0.000463508               0.000000000               0.000000000               0.000000000               0.000000000               0.000042377               0.001802610               0.000004695              -0.000209434               0.000670675               0.000461241               0.000000000               0.000000000               0.000000000               0.000000000               0.000024791               0.001828724               0.000003109              -0.000219293               0.000682666               0.000463373               0.000000000               0.000000000               0.000000000               0.000000000               0.000342286               0.002873719               0.000455632              -0.000230857               0.001034849               0.000803992               0.000000000               0.000000000               0.000000000               0.000000000               0.000346913               0.002421376               0.000310575              -0.000172579               0.000864644               0.000692064               0.000000000               0.000000000               0.000000000               0.000000000               0.000444229               0.002071989               0.000160896              -0.000092413               0.000721460               0.000629048               0.000000000               0.000000000               0.000000000               0.000000000               0.000463554               0.001877588               0.000090914              -0.000060866               0.000646145               0.000585279               0.000000000               0.000000000               0.000000000               0.000000000               0.000451295               0.001764789               0.000058233              -0.000051363               0.000605378               0.000554015               0.000000000               0.000000000               0.000000000               0.000000000               0.000425160               0.001698263               0.000041971              -0.000052848               0.000583698               0.000530850               0.000000000               0.000000000               0.000000000               0.000000000               0.000393975               0.001660816               0.000033865              -0.000059861               0.000573554               0.000513692               0.000000000               0.000000000               0.000000000               0.000000000               0.000357424               0.001642711               0.000028869              -0.000071305               0.000571333               0.000500028               0.000000000               0.000000000               0.000000000               0.000000000               0.000316864               0.001639406               0.000024034              -0.000086101               0.000575164               0.000489062               0.000000000               0.000000000               0.000000000               0.000000000               0.000276100               0.001650028               0.000018072              -0.000102716               0.000584243               0.000481527               0.000000000               0.000000000               0.000000000               0.000000000               0.000234041               0.001669298               0.000013297              -0.000120896               0.000596726               0.000475830               0.000000000               0.000000000               0.000000000               0.000000000               0.000191977               0.001690793               0.000015096              -0.000139357               0.000610044               0.000470687               0.000000000               0.000000000               0.000000000               0.000000000               0.000154251               0.001710923               0.000021742              -0.000156021               0.000622309               0.000466288               0.000000000               0.000000000               0.000000000               0.000000000               0.000117575               0.001730612               0.000024461              -0.000172235               0.000634277               0.000462041               0.000000000               0.000000000               0.000000000               0.000000000               0.000077145               0.001751654               0.000017566              -0.000190027               0.000647221               0.000457194               0.000000000               0.000000000               0.000000000               0.000000000               0.000036872               0.001772938               0.000008665              -0.000207790               0.000660237               0.000452447               0.000000000               0.000000000               0.000000000               0.000000000               0.000020279               0.001789508               0.000006214              -0.000216083               0.000668524               0.000452441               0.000000000               0.000000000               0.000000000               0.000000000               0.000412924               0.002663396               0.000630317              -0.000178078               0.000947149               0.000769071               0.000000000               0.000000000               0.000000000               0.000000000               0.000371275               0.002274956               0.000430281              -0.000145141               0.000806691               0.000661550               0.000000000               0.000000000               0.000000000               0.000000000               0.000417490               0.001996465               0.000227100              -0.000092999               0.000696481               0.000603482               0.000000000               0.000000000               0.000000000               0.000000000               0.000414312               0.001844087               0.000136121              -0.000075144               0.000639737               0.000564594               0.000000000               0.000000000               0.000000000               0.000000000               0.000394238               0.001753629               0.000092610              -0.000071364               0.000608325               0.000536961               0.000000000               0.000000000               0.000000000               0.000000000               0.000369007               0.001701084               0.000071115              -0.000074258               0.000591775               0.000517517               0.000000000               0.000000000               0.000000000               0.000000000               0.000341178               0.001670554               0.000058953              -0.000080877               0.000583805               0.000502928               0.000000000               0.000000000               0.000000000               0.000000000               0.000308933               0.001656557               0.000050204              -0.000091220               0.000582587               0.000491367               0.000000000               0.000000000               0.000000000               0.000000000               0.000272613               0.001655842               0.000040797              -0.000104750               0.000586859               0.000482109               0.000000000               0.000000000               0.000000000               0.000000000               0.000237329               0.001667505               0.000029981              -0.000119439               0.000595643               0.000476203               0.000000000               0.000000000               0.000000000               0.000000000               0.000202460               0.001682900               0.000023673              -0.000134440               0.000605774               0.000471334               0.000000000               0.000000000               0.000000000               0.000000000               0.000170072               0.001695355               0.000025012              -0.000148142               0.000614494               0.000466351               0.000000000               0.000000000               0.000000000               0.000000000               0.000139645               0.001706534               0.000030105              -0.000160950               0.000622489               0.000461539               0.000000000               0.000000000               0.000000000               0.000000000               0.000105047               0.001718585               0.000028381              -0.000175430               0.000631333               0.000455903               0.000000000               0.000000000               0.000000000               0.000000000               0.000068887               0.001732971               0.000018690              -0.000190788               0.000641247               0.000450459               0.000000000               0.000000000               0.000000000               0.000000000               0.000034501               0.001743552               0.000009792              -0.000205006               0.000649513               0.000444508               0.000000000               0.000000000               0.000000000               0.000000000               0.000019427               0.001750937               0.000006992              -0.000211582               0.000654167               0.000442585               0.000000000               0.000000000               0.000000000               0.000000000               0.000490730               0.002400065               0.000750819              -0.000115985               0.000838675               0.000722690               0.000000000               0.000000000               0.000000000               0.000000000               0.000395217               0.002095232               0.000517615              -0.000113698               0.000736303               0.000622605               0.000000000               0.000000000               0.000000000               0.000000000               0.000383428               0.001906351               0.000282179              -0.000094508               0.000666947               0.000572438               0.000000000               0.000000000               0.000000000               0.000000000               0.000360010               0.001801005               0.000179831              -0.000090122               0.000630369               0.000540248               0.000000000               0.000000000               0.000000000               0.000000000               0.000332463               0.001736745               0.000130272              -0.000092419               0.000609716               0.000517296               0.000000000               0.000000000               0.000000000               0.000000000               0.000307520               0.001700261               0.000104206              -0.000097212               0.000599152               0.000501940               0.000000000               0.000000000               0.000000000               0.000000000               0.000284376               0.001680398               0.000087913              -0.000103408               0.000594597               0.000491188               0.000000000               0.000000000               0.000000000               0.000000000               0.000257343               0.001674699               0.000073746              -0.000112833               0.000595839               0.000483005               0.000000000               0.000000000               0.000000000               0.000000000               0.000225718               0.001679291               0.000057900              -0.000125267               0.000601514               0.000476247               0.000000000               0.000000000               0.000000000               0.000000000               0.000196050               0.001691324               0.000042459              -0.000137896               0.000609734               0.000471838               0.000000000               0.000000000               0.000000000               0.000000000               0.000170702               0.001700635               0.000033672              -0.000148566               0.000616394               0.000467829               0.000000000               0.000000000               0.000000000               0.000000000               0.000148353               0.001706602               0.000033139              -0.000157692               0.000621426               0.000463733               0.000000000               0.000000000               0.000000000               0.000000000               0.000124089               0.001710459               0.000033856              -0.000167273               0.000625905               0.000458632               0.000000000               0.000000000               0.000000000               0.000000000               0.000093204               0.001717266               0.000025458              -0.000179706               0.000632318               0.000452612               0.000000000               0.000000000               0.000000000               0.000000000               0.000059449               0.001726856               0.000013804              -0.000193563               0.000640134               0.000446571               0.000000000               0.000000000               0.000000000               0.000000000               0.000029449               0.001735578               0.000007565              -0.000205904               0.000647155               0.000441251               0.000000000               0.000000000               0.000000000               0.000000000               0.000018109               0.001743517               0.000006492              -0.000211148               0.000651549               0.000440401               0.000000000               0.000000000               0.000000000               0.000000000               0.000557441               0.002105334               0.000815574              -0.000054127               0.000719813               0.000665686               0.000000000               0.000000000               0.000000000               0.000000000               0.000413974               0.001897979               0.000572232              -0.000082007               0.000659989               0.000577982               0.000000000               0.000000000               0.000000000               0.000000000               0.000347608               0.001807447               0.000326831              -0.000095578               0.000634336               0.000538758               0.000000000               0.000000000               0.000000000               0.000000000               0.000308354               0.001748981               0.000221378              -0.000102990               0.000617318               0.000514328               0.000000000               0.000000000               0.000000000               0.000000000               0.000279575               0.001714529               0.000168448              -0.000109475               0.000607996               0.000498520               0.000000000               0.000000000               0.000000000               0.000000000               0.000255285               0.001695439               0.000137880              -0.000116198               0.000603873               0.000487675               0.000000000               0.000000000               0.000000000               0.000000000               0.000234479               0.001689116               0.000115530              -0.000123210               0.000604103               0.000480893               0.000000000               0.000000000               0.000000000               0.000000000               0.000210408               0.001694168               0.000094433              -0.000132868               0.000609006               0.000476138               0.000000000               0.000000000               0.000000000               0.000000000               0.000181997               0.001705804               0.000072502              -0.000144976               0.000616921               0.000471945               0.000000000               0.000000000               0.000000000               0.000000000               0.000158783               0.001718665               0.000054412              -0.000155289               0.000624646               0.000469357               0.000000000               0.000000000               0.000000000               0.000000000               0.000143544               0.001724945               0.000044086              -0.000161789               0.000628905               0.000467117               0.000000000               0.000000000               0.000000000               0.000000000               0.000128203               0.001727008               0.000041103              -0.000167799               0.000631597               0.000463797               0.000000000               0.000000000               0.000000000               0.000000000               0.000109162               0.001730223               0.000037630              -0.000175342               0.000635183               0.000459841               0.000000000               0.000000000               0.000000000               0.000000000               0.000086685               0.001741454               0.000023468              -0.000185174               0.000642204               0.000457029               0.000000000               0.000000000               0.000000000               0.000000000               0.000058596               0.001756610               0.000010508              -0.000197602               0.000651398               0.000453796               0.000000000               0.000000000               0.000000000               0.000000000               0.000029864               0.001774033               0.000006292              -0.000210555               0.000661523               0.000450969               0.000000000               0.000000000               0.000000000               0.000000000               0.000020367               0.001790328               0.000007462              -0.000216153               0.000668821               0.000452668               0.000000000               0.000000000               0.000000000               0.000000000               0.000604916               0.001799738               0.000828763               0.000001875               0.000599281               0.000601156               0.000000000               0.000000000               0.000000000               0.000000000               0.000425284               0.001697096               0.000597481              -0.000052656               0.000583245               0.000530589               0.000000000               0.000000000               0.000000000               0.000000000               0.000316366               0.001704933               0.000362745              -0.000094479               0.000599798               0.000505319               0.000000000               0.000000000               0.000000000               0.000000000               0.000269267               0.001692592               0.000259005              -0.000110599               0.000601058               0.000490459               0.000000000               0.000000000               0.000000000               0.000000000               0.000242314               0.001685469               0.000203024              -0.000119816               0.000601756               0.000481940               0.000000000               0.000000000               0.000000000               0.000000000               0.000219033               0.001683182               0.000166301              -0.000128260               0.000603808               0.000475548               0.000000000               0.000000000               0.000000000               0.000000000               0.000199512               0.001693346               0.000137155              -0.000136851               0.000610060               0.000473209               0.000000000               0.000000000               0.000000000               0.000000000               0.000176968               0.001711930               0.000109649              -0.000147628               0.000619847               0.000472219               0.000000000               0.000000000               0.000000000               0.000000000               0.000150740               0.001733755               0.000084238              -0.000160191               0.000631310               0.000471118               0.000000000               0.000000000               0.000000000               0.000000000               0.000131270               0.001748025               0.000064882              -0.000169276               0.000639095               0.000469818               0.000000000               0.000000000               0.000000000               0.000000000               0.000120897               0.001755377               0.000054249              -0.000174085               0.000643148               0.000469063               0.000000000               0.000000000               0.000000000               0.000000000               0.000108883               0.001762360               0.000048310              -0.000179463               0.000647269               0.000467805               0.000000000               0.000000000               0.000000000               0.000000000               0.000094489               0.001781149               0.000039147              -0.000187210               0.000656114               0.000468904               0.000000000               0.000000000               0.000000000               0.000000000               0.000077512               0.001811059               0.000021726              -0.000197315               0.000669452               0.000472137               0.000000000               0.000000000               0.000000000               0.000000000               0.000053408               0.001843538               0.000009446              -0.000210414               0.000684645               0.000474231               0.000000000               0.000000000               0.000000000               0.000000000               0.000027000               0.001876884               0.000006340              -0.000224485               0.000700450               0.000475965               0.000000000               0.000000000               0.000000000               0.000000000               0.000019445               0.001902132               0.000008172              -0.000230474               0.000710862               0.000480388               0.000000000               0.000000000               0.000000000               0.000000000               0.000632013               0.001505415               0.000796854               0.000048827               0.000485524               0.000534351               0.000000000               0.000000000               0.000000000               0.000000000               0.000429832               0.001506985               0.000598712              -0.000027187               0.000511385               0.000484199               0.000000000               0.000000000               0.000000000               0.000000000               0.000294627               0.001604609               0.000391264              -0.000090091               0.000564894               0.000474804               0.000000000               0.000000000               0.000000000               0.000000000               0.000246706               0.001632573               0.000290534              -0.000111557               0.000581371               0.000469814               0.000000000               0.000000000               0.000000000               0.000000000               0.000223061               0.001648464               0.000229725              -0.000122410               0.000590286               0.000467876               0.000000000               0.000000000               0.000000000               0.000000000               0.000202656               0.001666639               0.000185679              -0.000132334               0.000599652               0.000467318               0.000000000               0.000000000               0.000000000               0.000000000               0.000181564               0.001695890               0.000150368              -0.000143899               0.000613257               0.000469358               0.000000000               0.000000000               0.000000000               0.000000000               0.000157714               0.001729061               0.000119106              -0.000156989               0.000628678               0.000471688               0.000000000               0.000000000               0.000000000               0.000000000               0.000136127               0.001757182               0.000091537              -0.000168600               0.000641922               0.000473322               0.000000000               0.000000000               0.000000000               0.000000000               0.000119547               0.001775503               0.000072044              -0.000177107               0.000650864               0.000473757               0.000000000               0.000000000               0.000000000               0.000000000               0.000109477               0.001794988               0.000059510              -0.000183319               0.000659430               0.000476111               0.000000000               0.000000000               0.000000000               0.000000000               0.000101066               0.001828372               0.000046679              -0.000190646               0.000673000               0.000482354               0.000000000               0.000000000               0.000000000               0.000000000               0.000087910               0.001878495               0.000031524              -0.000201845               0.000693440               0.000491595               0.000000000               0.000000000               0.000000000               0.000000000               0.000070103               0.001936266               0.000014671              -0.000215744               0.000717330               0.000501586               0.000000000               0.000000000               0.000000000               0.000000000               0.000046875               0.001990296               0.000004446              -0.000231208               0.000740495               0.000509286               0.000000000               0.000000000               0.000000000               0.000000000               0.000022619               0.002041284               0.000003379              -0.000246678               0.000762647               0.000515969               0.000000000               0.000000000               0.000000000               0.000000000               0.000016018               0.002076386               0.000006985              -0.000253541               0.000776635               0.000523095               0.000000000               0.000000000               0.000000000               0.000000000               0.000645394               0.001245983               0.000735119               0.000086273               0.000386565               0.000472839               0.000000000               0.000000000               0.000000000               0.000000000               0.000437675               0.001336602               0.000587850              -0.000002948               0.000446512               0.000443564               0.000000000               0.000000000               0.000000000               0.000000000               0.000288157               0.001510306               0.000420167              -0.000080730               0.000530340               0.000449610               0.000000000               0.000000000               0.000000000               0.000000000               0.000243479               0.001574712               0.000321700              -0.000105534               0.000560077               0.000454543               0.000000000               0.000000000               0.000000000               0.000000000               0.000222796               0.001614007               0.000254771              -0.000118202               0.000577398               0.000459195               0.000000000               0.000000000               0.000000000               0.000000000               0.000206151               0.001654378               0.000203882              -0.000129491               0.000594617               0.000465127               0.000000000               0.000000000               0.000000000               0.000000000               0.000183587               0.001698531               0.000163327              -0.000143471               0.000613995               0.000470524               0.000000000               0.000000000               0.000000000               0.000000000               0.000157913               0.001739575               0.000130317              -0.000158229               0.000632596               0.000474367               0.000000000               0.000000000               0.000000000               0.000000000               0.000139417               0.001773430               0.000101943              -0.000169397               0.000647603               0.000478206               0.000000000               0.000000000               0.000000000               0.000000000               0.000128720               0.001801996               0.000078705              -0.000176979               0.000659652               0.000482673               0.000000000               0.000000000               0.000000000               0.000000000               0.000122904               0.001842866               0.000057906              -0.000184269               0.000675706               0.000491437               0.000000000               0.000000000               0.000000000               0.000000000               0.000114879               0.001905471               0.000037075              -0.000195104               0.000700185               0.000505082               0.000000000               0.000000000               0.000000000               0.000000000               0.000098163               0.001982634               0.000019001              -0.000211018               0.000731211               0.000520193               0.000000000               0.000000000               0.000000000               0.000000000               0.000079327               0.002062571               0.000006727              -0.000228073               0.000763541               0.000535468               0.000000000               0.000000000               0.000000000               0.000000000               0.000060192               0.002131695              -0.000000309              -0.000243889               0.000791854               0.000547965               0.000000000               0.000000000               0.000000000               0.000000000               0.000043041               0.002197142              -0.000003095              -0.000258502               0.000818541               0.000560039               0.000000000               0.000000000               0.000000000               0.000000000               0.000035460               0.002236038              -0.000002322              -0.000266207               0.000834074               0.000567867               0.000000000               0.000000000               0.000000000               0.000000000               0.000641047               0.000992066               0.000657733               0.000116383               0.000291891               0.000408273               0.000000000               0.000000000               0.000000000               0.000000000               0.000452152               0.001136873               0.000570710               0.000027447               0.000369805               0.000397251               0.000000000               0.000000000               0.000000000               0.000000000               0.000299373               0.001364637               0.000454837              -0.000058315               0.000474313               0.000415998               0.000000000               0.000000000               0.000000000               0.000000000               0.000254961               0.001470799               0.000362728              -0.000088240               0.000519675               0.000431435               0.000000000               0.000000000               0.000000000               0.000000000               0.000236581               0.001539321               0.000291763              -0.000103697               0.000547668               0.000443971               0.000000000               0.000000000               0.000000000               0.000000000               0.000221157               0.001597154               0.000234782              -0.000116710               0.000571283               0.000454573               0.000000000               0.000000000               0.000000000               0.000000000               0.000200281               0.001649667               0.000189249              -0.000131103               0.000593584               0.000462482               0.000000000               0.000000000               0.000000000               0.000000000               0.000175192               0.001700027               0.000154977              -0.000146806               0.000615605               0.000468799               0.000000000               0.000000000               0.000000000               0.000000000               0.000156408               0.001749328               0.000126283              -0.000160013               0.000636441               0.000476428               0.000000000               0.000000000               0.000000000               0.000000000               0.000144907               0.001794850               0.000098362              -0.000170016               0.000654949               0.000484934               0.000000000               0.000000000               0.000000000               0.000000000               0.000140176               0.001850721               0.000070429              -0.000178773               0.000676492               0.000497718               0.000000000               0.000000000               0.000000000               0.000000000               0.000137883               0.001921376               0.000043534              -0.000188465               0.000703274               0.000514809               0.000000000               0.000000000               0.000000000               0.000000000               0.000131017               0.002006993               0.000023899              -0.000201742               0.000736239               0.000534496               0.000000000               0.000000000               0.000000000               0.000000000               0.000118720               0.002098252               0.000012572              -0.000217761               0.000771997               0.000554236               0.000000000               0.000000000               0.000000000               0.000000000               0.000104052               0.002182012               0.000003607              -0.000233732               0.000805240               0.000571509               0.000000000               0.000000000               0.000000000               0.000000000               0.000093193               0.002264881              -0.000002671              -0.000248162               0.000837673               0.000589511               0.000000000               0.000000000               0.000000000               0.000000000               0.000083857               0.002303557              -0.000006331              -0.000256498               0.000853344               0.000596846               0.000000000               0.000000000               0.000000000               0.000000000               0.000606851               0.000753007               0.000564372               0.000133442               0.000206519               0.000339960               0.000000000               0.000000000               0.000000000               0.000000000               0.000464292               0.000935481               0.000537941               0.000057173               0.000292766               0.000349939               0.000000000               0.000000000               0.000000000               0.000000000               0.000327571               0.001200615               0.000478680              -0.000027238               0.000409280               0.000382042               0.000000000               0.000000000               0.000000000               0.000000000               0.000280956               0.001347466               0.000401722              -0.000063075               0.000470176               0.000407101               0.000000000               0.000000000               0.000000000               0.000000000               0.000261628               0.001445746               0.000330819              -0.000082608               0.000509446               0.000426839               0.000000000               0.000000000               0.000000000               0.000000000               0.000245048               0.001519936               0.000269967              -0.000098099               0.000539340               0.000441241               0.000000000               0.000000000               0.000000000               0.000000000               0.000225918               0.001585783               0.000221426              -0.000113504               0.000566424               0.000452920               0.000000000               0.000000000               0.000000000               0.000000000               0.000204117               0.001650485               0.000185624              -0.000129766               0.000593411               0.000463645               0.000000000               0.000000000               0.000000000               0.000000000               0.000182717               0.001712852               0.000155282              -0.000145587               0.000619474               0.000473887               0.000000000               0.000000000               0.000000000               0.000000000               0.000166888               0.001773328               0.000123990              -0.000159083               0.000644131               0.000485048               0.000000000               0.000000000               0.000000000               0.000000000               0.000161225               0.001836769               0.000094170              -0.000169136               0.000668629               0.000499493               0.000000000               0.000000000               0.000000000               0.000000000               0.000166809               0.001906830               0.000065285              -0.000175800               0.000694203               0.000518404               0.000000000               0.000000000               0.000000000               0.000000000               0.000172481               0.001992367               0.000040154              -0.000184365               0.000725571               0.000541206               0.000000000               0.000000000               0.000000000               0.000000000               0.000168958               0.002086403               0.000023333              -0.000197441               0.000761274               0.000563834               0.000000000               0.000000000               0.000000000               0.000000000               0.000160803               0.002177005               0.000012760              -0.000211824               0.000796269               0.000584445               0.000000000               0.000000000               0.000000000               0.000000000               0.000152967               0.002263324               0.000004871              -0.000225552               0.000829618               0.000604066               0.000000000               0.000000000               0.000000000               0.000000000               0.000140840               0.002298991              -0.000001847              -0.000234558               0.000844509               0.000609951               0.000000000               0.000000000               0.000000000               0.000000000               0.000543571               0.000538253               0.000457461               0.000136556               0.000133897               0.000270453               0.000000000               0.000000000               0.000000000               0.000000000               0.000463784               0.000739267               0.000482990               0.000081510               0.000219250               0.000300759               0.000000000               0.000000000               0.000000000               0.000000000               0.000362425               0.001021705               0.000474963               0.000008196               0.000337833               0.000346029               0.000000000               0.000000000               0.000000000               0.000000000               0.000318645               0.001200939               0.000418464              -0.000030626               0.000410518               0.000379892               0.000000000               0.000000000               0.000000000               0.000000000               0.000295274               0.001324204               0.000353888              -0.000054798               0.000459663               0.000404865               0.000000000               0.000000000               0.000000000               0.000000000               0.000276793               0.001419847               0.000293679              -0.000073683               0.000497839               0.000424155               0.000000000               0.000000000               0.000000000               0.000000000               0.000257990               0.001504063               0.000245028              -0.000091261               0.000531770               0.000440508               0.000000000               0.000000000               0.000000000               0.000000000               0.000238099               0.001583173               0.000209033              -0.000108609               0.000563922               0.000455313               0.000000000               0.000000000               0.000000000               0.000000000               0.000217717               0.001659408               0.000177377              -0.000125782               0.000595058               0.000469276               0.000000000               0.000000000               0.000000000               0.000000000               0.000200996               0.001731625               0.000146980              -0.000141079               0.000624229               0.000483150               0.000000000               0.000000000               0.000000000               0.000000000               0.000193251               0.001799102               0.000120998              -0.000152418               0.000650501               0.000498082               0.000000000               0.000000000               0.000000000               0.000000000               0.000196858               0.001876006               0.000091750              -0.000160679               0.000678889               0.000518210               0.000000000               0.000000000               0.000000000               0.000000000               0.000207572               0.001970423               0.000060010              -0.000168463               0.000712956               0.000544493               0.000000000               0.000000000               0.000000000               0.000000000               0.000214578               0.002070849               0.000039707              -0.000178389               0.000749739               0.000571350               0.000000000               0.000000000               0.000000000               0.000000000               0.000215686               0.002168130               0.000029513              -0.000190134               0.000786081               0.000595947               0.000000000               0.000000000               0.000000000               0.000000000               0.000211427               0.002261900               0.000017584              -0.000203452               0.000821776               0.000618324               0.000000000               0.000000000               0.000000000               0.000000000               0.000196651               0.002301106               0.000006268              -0.000213894               0.000838326               0.000624432               0.000000000               0.000000000               0.000000000               0.000000000               0.000461079               0.000359302               0.000346971               0.000127991               0.000077102               0.000205093               0.000000000               0.000000000               0.000000000               0.000000000               0.000452931               0.000559686               0.000407813               0.000099887               0.000153264               0.000253151               0.000000000               0.000000000               0.000000000               0.000000000               0.000399600               0.000840682               0.000438611               0.000044764               0.000265303               0.000310067               0.000000000               0.000000000               0.000000000               0.000000000               0.000363480               0.001038286               0.000403847               0.000006519               0.000343919               0.000350437               0.000000000               0.000000000               0.000000000               0.000000000               0.000337931               0.001182514               0.000350134              -0.000021090               0.000401197               0.000380107               0.000000000               0.000000000               0.000000000               0.000000000               0.000317338               0.001298931               0.000296064              -0.000043365               0.000447428               0.000404063               0.000000000               0.000000000               0.000000000               0.000000000               0.000299674               0.001401794               0.000251241              -0.000062846               0.000488209               0.000425362               0.000000000               0.000000000               0.000000000               0.000000000               0.000281261               0.001496009               0.000216941              -0.000081528               0.000525841               0.000444313               0.000000000               0.000000000               0.000000000               0.000000000               0.000263586               0.001583704               0.000187466              -0.000099118               0.000560936               0.000461818               0.000000000               0.000000000               0.000000000               0.000000000               0.000249006               0.001665364               0.000161371              -0.000114793               0.000593380               0.000478587               0.000000000               0.000000000               0.000000000               0.000000000               0.000238339               0.001745015               0.000137884              -0.000128749               0.000624582               0.000495833               0.000000000               0.000000000               0.000000000               0.000000000               0.000235247               0.001836675               0.000110505              -0.000141366               0.000659341               0.000517975               0.000000000               0.000000000               0.000000000               0.000000000               0.000245351               0.001940703               0.000081532              -0.000150581               0.000697088               0.000546507               0.000000000               0.000000000               0.000000000               0.000000000               0.000261116               0.002051420               0.000059855              -0.000158508               0.000736636               0.000578127               0.000000000               0.000000000               0.000000000               0.000000000               0.000269761               0.002160589               0.000045606              -0.000168913               0.000776493               0.000607581               0.000000000               0.000000000               0.000000000               0.000000000               0.000268129               0.002261129               0.000026963              -0.000182092               0.000814400               0.000632307               0.000000000               0.000000000               0.000000000               0.000000000               0.000255234               0.002302767               0.000011548              -0.000192133               0.000831626               0.000639493               0.000000000               0.000000000               0.000000000               0.000000000               0.000369871               0.000223231               0.000242778               0.000110797               0.000037477               0.000148274               0.000000000               0.000000000               0.000000000               0.000000000               0.000433283               0.000407302               0.000316986               0.000111567               0.000098577               0.000210144               0.000000000               0.000000000               0.000000000               0.000000000               0.000435165               0.000670967               0.000367762               0.000079315               0.000197215               0.000276530               0.000000000               0.000000000               0.000000000               0.000000000               0.000411229               0.000876212               0.000351354               0.000044684               0.000277173               0.000321857               0.000000000               0.000000000               0.000000000               0.000000000               0.000384945               0.001035034               0.000312051               0.000014975               0.000340016               0.000354991               0.000000000               0.000000000               0.000000000               0.000000000               0.000364538               0.001169399               0.000268591              -0.000009474               0.000392954               0.000383480               0.000000000               0.000000000               0.000000000               0.000000000               0.000345851               0.001288259               0.000231482              -0.000031338               0.000439861               0.000408523               0.000000000               0.000000000               0.000000000               0.000000000               0.000330111               0.001396546               0.000202408              -0.000050777               0.000482436               0.000431660               0.000000000               0.000000000               0.000000000               0.000000000               0.000313695               0.001496066               0.000178579              -0.000069373               0.000521808               0.000452435               0.000000000               0.000000000               0.000000000               0.000000000               0.000299522               0.001590860               0.000157111              -0.000086537               0.000559127               0.000472590               0.000000000               0.000000000               0.000000000               0.000000000               0.000286659               0.001689565               0.000136018              -0.000103698               0.000597749               0.000494050               0.000000000               0.000000000               0.000000000               0.000000000               0.000283306               0.001798591               0.000115277              -0.000118584               0.000639052               0.000520469               0.000000000               0.000000000               0.000000000               0.000000000               0.000292390               0.001913189               0.000095583              -0.000129502               0.000680890               0.000551388               0.000000000               0.000000000               0.000000000               0.000000000               0.000309342               0.002030029               0.000076668              -0.000137750               0.000722586               0.000584836               0.000000000               0.000000000               0.000000000               0.000000000               0.000322266               0.002144620               0.000056456              -0.000147228               0.000763942               0.000616714               0.000000000               0.000000000               0.000000000               0.000000000               0.000323781               0.002251259               0.000031190              -0.000159989               0.000803742               0.000643753               0.000000000               0.000000000               0.000000000               0.000000000               0.000314597               0.002297108               0.000014782              -0.000169164               0.000822083               0.000652919               0.000000000               0.000000000               0.000000000               0.000000000               0.000286570               0.000127792               0.000150173               0.000091489               0.000012100               0.000103589               0.000000000               0.000000000               0.000000000               0.000000000               0.000411413               0.000290559               0.000215744               0.000117959               0.000057532               0.000175491               0.000000000               0.000000000               0.000000000               0.000000000               0.000463656               0.000531183               0.000265707               0.000107472               0.000141235               0.000248707               0.000000000               0.000000000               0.000000000               0.000000000               0.000455559               0.000737529               0.000261149               0.000078642               0.000219626               0.000298269               0.000000000               0.000000000               0.000000000               0.000000000               0.000430605               0.000905379               0.000236908               0.000048304               0.000285688               0.000333993               0.000000000               0.000000000               0.000000000               0.000000000               0.000408335               0.001051734               0.000206725               0.000021659               0.000343355               0.000365014               0.000000000               0.000000000               0.000000000               0.000000000               0.000389533               0.001181411               0.000180717              -0.000001602               0.000394334               0.000392732               0.000000000               0.000000000               0.000000000               0.000000000               0.000373829               0.001302296               0.000159906              -0.000022601               0.000441628               0.000419027               0.000000000               0.000000000               0.000000000               0.000000000               0.000358853               0.001417740               0.000142110              -0.000042647               0.000486791               0.000444144               0.000000000               0.000000000               0.000000000               0.000000000               0.000342701               0.001526889               0.000126479              -0.000062348               0.000529741               0.000467392               0.000000000               0.000000000               0.000000000               0.000000000               0.000334486               0.001638855               0.000112827              -0.000079424               0.000572754               0.000493330               0.000000000               0.000000000               0.000000000               0.000000000               0.000334711               0.001759041               0.000100998              -0.000094363               0.000617796               0.000523432               0.000000000               0.000000000               0.000000000               0.000000000               0.000342477               0.001886325               0.000089157              -0.000107361               0.000664556               0.000557194               0.000000000               0.000000000               0.000000000               0.000000000               0.000354262               0.002009108               0.000074520              -0.000118290               0.000709126               0.000590836               0.000000000               0.000000000               0.000000000               0.000000000               0.000365766               0.002121320               0.000053366              -0.000128002               0.000749767               0.000621765               0.000000000               0.000000000               0.000000000               0.000000000               0.000377232               0.002232166               0.000026854              -0.000137558               0.000789901               0.000652342               0.000000000               0.000000000               0.000000000               0.000000000               0.000378222               0.002285398               0.000011979              -0.000143841               0.000809739               0.000665898               0.000000000               0.000000000               0.000000000               0.000000000               0.000228633               0.000075252               0.000070536               0.000076330              -0.000000360               0.000075970               0.000000000               0.000000000               0.000000000               0.000000000               0.000394233               0.000219705               0.000109288               0.000120373               0.000033110               0.000153483               0.000000000               0.000000000               0.000000000               0.000000000               0.000482819               0.000438760               0.000140037               0.000126211               0.000104182               0.000230392               0.000000000               0.000000000               0.000000000               0.000000000               0.000486859               0.000642521               0.000139624               0.000102256               0.000180086               0.000282342               0.000000000               0.000000000               0.000000000               0.000000000               0.000464205               0.000816315               0.000128086               0.000072037               0.000248090               0.000320127               0.000000000               0.000000000               0.000000000               0.000000000               0.000439721               0.000967826               0.000113121               0.000043917               0.000307967               0.000351883               0.000000000               0.000000000               0.000000000               0.000000000               0.000420222               0.001104309               0.000099835               0.000019545               0.000361584               0.000381129               0.000000000               0.000000000               0.000000000               0.000000000               0.000403134               0.001234117               0.000089425              -0.000003090               0.000412398               0.000409309               0.000000000               0.000000000               0.000000000               0.000000000               0.000389464               0.001359628               0.000078050              -0.000023905               0.000461173               0.000437268               0.000000000               0.000000000               0.000000000               0.000000000               0.000378499               0.001482070               0.000069988              -0.000043322               0.000508459               0.000465137               0.000000000               0.000000000               0.000000000               0.000000000               0.000373565               0.001605742               0.000065866              -0.000060631               0.000555452               0.000494821               0.000000000               0.000000000               0.000000000               0.000000000               0.000372988               0.001731136               0.000060621              -0.000076522               0.000602547               0.000526025               0.000000000               0.000000000               0.000000000               0.000000000               0.000376216               0.001858490               0.000054967              -0.000091230               0.000649900               0.000558670               0.000000000               0.000000000               0.000000000               0.000000000               0.000384059               0.001984552               0.000045497              -0.000104047               0.000696193               0.000592146               0.000000000               0.000000000               0.000000000               0.000000000               0.000398992               0.002106031               0.000031875              -0.000113631               0.000739881               0.000626249               0.000000000               0.000000000               0.000000000               0.000000000               0.000425189               0.002225191               0.000016449              -0.000118703               0.000781290               0.000662588               0.000000000               0.000000000               0.000000000               0.000000000               0.000441279               0.002283720               0.000008058              -0.000119985               0.000801228               0.000681242               0.000000000               0.000000000               0.000000000               0.000000000               0.000207820               0.000060908               0.000000000               0.000070318              -0.000003137               0.000067181               0.000000000               0.000000000               0.000000000               0.000000000               0.000387416               0.000196615               0.000000000               0.000120703               0.000025303               0.000146006               0.000000000               0.000000000               0.000000000               0.000000000               0.000489877               0.000404789               0.000000000               0.000133104               0.000090560               0.000223664               0.000000000               0.000000000               0.000000000               0.000000000               0.000497966               0.000608148               0.000000000               0.000110718               0.000165808               0.000276526               0.000000000               0.000000000               0.000000000               0.000000000               0.000476359               0.000784833               0.000000000               0.000080530               0.000234765               0.000315295               0.000000000               0.000000000               0.000000000               0.000000000               0.000451732               0.000936955              -0.000000000               0.000052280               0.000294889               0.000347168               0.000000000               0.000000000               0.000000000               0.000000000               0.000430748               0.001077060               0.000000000               0.000026898               0.000350050               0.000376948               0.000000000               0.000000000               0.000000000               0.000000000               0.000413504               0.001209634               0.000000000               0.000003860               0.000401921               0.000405780               0.000000000               0.000000000               0.000000000               0.000000000               0.000399327               0.001335261               0.000000000              -0.000017160               0.000450802               0.000433643               0.000000000               0.000000000               0.000000000               0.000000000               0.000395019               0.001464738               0.000000000              -0.000034960               0.000499895               0.000464934               0.000000000               0.000000000               0.000000000               0.000000000               0.000389069               0.001595500               0.000000000              -0.000053536               0.000549674               0.000496137               0.000000000               0.000000000               0.000000000               0.000000000               0.000386341               0.001724902               0.000000000              -0.000070735               0.000598540               0.000527805               0.000000000               0.000000000               0.000000000               0.000000000               0.000387079               0.001847991              -0.000000000              -0.000085844               0.000644606               0.000558762               0.000000000               0.000000000               0.000000000               0.000000000               0.000392870               0.001967666              -0.000000000              -0.000098632               0.000688760               0.000590128               0.000000000               0.000000000               0.000000000               0.000000000               0.000413539               0.002100253               0.000000000              -0.000107454               0.000735896               0.000628441               0.000000000               0.000000000               0.000000000               0.000000000               0.000448975               0.002233298              -0.000000000              -0.000110796               0.000781357               0.000670561               0.000000000               0.000000000               0.000000000               0.000000000               0.000472373               0.002295353              -0.000000000              -0.000109779               0.000801703               0.000691924               0.000000000               0.000000000               0.000000000               0.000000000               0.000272923               0.003054927              -0.000000000              -0.000279519               0.001111472               0.000831953               0.000000000               0.000000000               0.000000000               0.000000000               0.000320541               0.002552329               0.000000000              -0.000198838               0.000917047               0.000718210               0.000000000               0.000000000               0.000000000               0.000000000               0.000464973               0.002138717               0.000000000              -0.000092974               0.000743890               0.000650916               0.000000000               0.000000000               0.000000000               0.000000000               0.000508801               0.001908854               0.000000000              -0.000047806               0.000652214               0.000604407               0.000000000               0.000000000               0.000000000               0.000000000               0.000506432               0.001773489               0.000000000              -0.000031774               0.000601748               0.000569974               0.000000000               0.000000000               0.000000000               0.000000000               0.000481554               0.001693982              -0.000000000              -0.000031165               0.000575043               0.000543878               0.000000000               0.000000000               0.000000000               0.000000000               0.000446403               0.001650195              -0.000000000              -0.000038873               0.000563017               0.000524144               0.000000000               0.000000000               0.000000000               0.000000000               0.000404782               0.001629821              -0.000000000              -0.000051934               0.000560580               0.000508646               0.000000000               0.000000000               0.000000000               0.000000000               0.000358997               0.001625569              -0.000000000              -0.000068572               0.000564708               0.000496136               0.000000000               0.000000000               0.000000000               0.000000000               0.000313242               0.001636153               0.000000000              -0.000087053               0.000574397               0.000487344               0.000000000               0.000000000               0.000000000               0.000000000               0.000265876               0.001658775              -0.000000000              -0.000107643               0.000588800               0.000481157               0.000000000               0.000000000               0.000000000               0.000000000               0.000215831               0.001686728              -0.000000000              -0.000129904               0.000605538               0.000475634               0.000000000               0.000000000               0.000000000               0.000000000               0.000171492               0.001718573              -0.000000000              -0.000150512               0.000623023               0.000472511               0.000000000               0.000000000               0.000000000               0.000000000               0.000130621               0.001748257              -0.000000000              -0.000169549               0.000639263               0.000469714               0.000000000               0.000000000               0.000000000               0.000000000               0.000085524               0.001777929               0.000000000              -0.000190169               0.000656027               0.000465858               0.000000000               0.000000000               0.000000000               0.000000000               0.000040102               0.001813793               0.000000000              -0.000211686               0.000675154               0.000463468               0.000000000               0.000000000               0.000000000               0.000000000               0.000022480               0.001843987               0.000000000              -0.000222068               0.000688679               0.000466611               0.000000000               0.000000000               0.000000000               0.000000000               0.000292506               0.003008876              -0.000239318              -0.000266419               0.001091755               0.000825336               0.000000000               0.000000000               0.000000000               0.000000000               0.000328430               0.002518377              -0.000163255              -0.000191635               0.000903329               0.000711694               0.000000000               0.000000000               0.000000000               0.000000000               0.000459766               0.002121676              -0.000083588              -0.000092797               0.000738151               0.000645354               0.000000000               0.000000000               0.000000000               0.000000000               0.000496502               0.001900203              -0.000045425              -0.000051337               0.000650507               0.000599170               0.000000000               0.000000000               0.000000000               0.000000000               0.000491907               0.001771378              -0.000027483              -0.000036957               0.000602773               0.000565815               0.000000000               0.000000000               0.000000000               0.000000000               0.000466048               0.001694873              -0.000018785              -0.000037091               0.000577316               0.000540225               0.000000000               0.000000000               0.000000000               0.000000000               0.000432067               0.001653134              -0.000014706              -0.000044616               0.000565911               0.000521295               0.000000000               0.000000000               0.000000000               0.000000000               0.000391915               0.001632584              -0.000012534              -0.000057105               0.000563224               0.000506119               0.000000000               0.000000000               0.000000000               0.000000000               0.000348308               0.001629329              -0.000010703              -0.000073050               0.000567454               0.000494404               0.000000000               0.000000000               0.000000000               0.000000000               0.000303883               0.001639597              -0.000007652              -0.000090993               0.000576858               0.000485865               0.000000000               0.000000000               0.000000000               0.000000000               0.000256679               0.001661209              -0.000005803              -0.000111396               0.000590863               0.000479467               0.000000000               0.000000000               0.000000000               0.000000000               0.000209018               0.001688821              -0.000006744              -0.000132720               0.000607175               0.000474454               0.000000000               0.000000000               0.000000000               0.000000000               0.000165365               0.001716866              -0.000010724              -0.000152596               0.000623148               0.000470552               0.000000000               0.000000000               0.000000000               0.000000000               0.000124323               0.001742876              -0.000013829              -0.000171238               0.000638032               0.000466794               0.000000000               0.000000000               0.000000000               0.000000000               0.000083708               0.001770345              -0.000010310              -0.000189902               0.000653410               0.000463508               0.000000000               0.000000000               0.000000000               0.000000000               0.000042377               0.001802610              -0.000004695              -0.000209434               0.000670675               0.000461241               0.000000000               0.000000000               0.000000000               0.000000000               0.000024791               0.001828724              -0.000003109              -0.000219293               0.000682666               0.000463373               0.000000000               0.000000000               0.000000000               0.000000000               0.000342286               0.002873719              -0.000455632              -0.000230857               0.001034849               0.000803992               0.000000000               0.000000000               0.000000000               0.000000000               0.000346913               0.002421376              -0.000310575              -0.000172579               0.000864644               0.000692064               0.000000000               0.000000000               0.000000000               0.000000000               0.000444229               0.002071989              -0.000160896              -0.000092413               0.000721460               0.000629048               0.000000000               0.000000000               0.000000000               0.000000000               0.000463554               0.001877588              -0.000090914              -0.000060866               0.000646145               0.000585279               0.000000000               0.000000000               0.000000000               0.000000000               0.000451295               0.001764789              -0.000058233              -0.000051363               0.000605378               0.000554015               0.000000000               0.000000000               0.000000000               0.000000000               0.000425160               0.001698263              -0.000041971              -0.000052848               0.000583698               0.000530850               0.000000000               0.000000000               0.000000000               0.000000000               0.000393975               0.001660816              -0.000033865              -0.000059861               0.000573554               0.000513692               0.000000000               0.000000000               0.000000000               0.000000000               0.000357424               0.001642711              -0.000028869              -0.000071305               0.000571333               0.000500028               0.000000000               0.000000000               0.000000000               0.000000000               0.000316864               0.001639406              -0.000024034              -0.000086101               0.000575164               0.000489062               0.000000000               0.000000000               0.000000000               0.000000000               0.000276100               0.001650028              -0.000018072              -0.000102716               0.000584243               0.000481527               0.000000000               0.000000000               0.000000000               0.000000000               0.000234041               0.001669298              -0.000013297              -0.000120896               0.000596726               0.000475830               0.000000000               0.000000000               0.000000000               0.000000000               0.000191977               0.001690793              -0.000015096              -0.000139357               0.000610044               0.000470687               0.000000000               0.000000000               0.000000000               0.000000000               0.000154251               0.001710923              -0.000021742              -0.000156021               0.000622309               0.000466288               0.000000000               0.000000000               0.000000000               0.000000000               0.000117575               0.001730612              -0.000024461              -0.000172235               0.000634277               0.000462041               0.000000000               0.000000000               0.000000000               0.000000000               0.000077145               0.001751654              -0.000017566              -0.000190027               0.000647221               0.000457194               0.000000000               0.000000000               0.000000000               0.000000000               0.000036872               0.001772938              -0.000008665              -0.000207790               0.000660237               0.000452447               0.000000000               0.000000000               0.000000000               0.000000000               0.000020279               0.001789508              -0.000006214              -0.000216083               0.000668524               0.000452441               0.000000000               0.000000000               0.000000000               0.000000000               0.000412924               0.002663396              -0.000630317              -0.000178078               0.000947149               0.000769071               0.000000000               0.000000000               0.000000000               0.000000000               0.000371275               0.002274956              -0.000430281              -0.000145141               0.000806691               0.000661550               0.000000000               0.000000000               0.000000000               0.000000000               0.000417490               0.001996465              -0.000227100              -0.000092999               0.000696481               0.000603482               0.000000000               0.000000000               0.000000000               0.000000000               0.000414312               0.001844087              -0.000136121              -0.000075144               0.000639737               0.000564594               0.000000000               0.000000000               0.000000000               0.000000000               0.000394238               0.001753629              -0.000092610              -0.000071364               0.000608325               0.000536961               0.000000000               0.000000000               0.000000000               0.000000000               0.000369007               0.001701084              -0.000071115              -0.000074258               0.000591775               0.000517517               0.000000000               0.000000000               0.000000000               0.000000000               0.000341178               0.001670554              -0.000058953              -0.000080877               0.000583805               0.000502928               0.000000000               0.000000000               0.000000000               0.000000000               0.000308933               0.001656557              -0.000050204              -0.000091220               0.000582587               0.000491367               0.000000000               0.000000000               0.000000000               0.000000000               0.000272613               0.001655842              -0.000040797              -0.000104750               0.000586859               0.000482109               0.000000000               0.000000000               0.000000000               0.000000000               0.000237329               0.001667505              -0.000029981              -0.000119439               0.000595643               0.000476203               0.000000000               0.000000000               0.000000000               0.000000000               0.000202460               0.001682900              -0.000023673              -0.000134440               0.000605774               0.000471334               0.000000000               0.000000000               0.000000000               0.000000000               0.000170072               0.001695355              -0.000025012              -0.000148142               0.000614494               0.000466351               0.000000000               0.000000000               0.000000000               0.000000000               0.000139645               0.001706534              -0.000030105              -0.000160950               0.000622489               0.000461539               0.000000000               0.000000000               0.000000000               0.000000000               0.000105047               0.001718585              -0.000028381              -0.000175430               0.000631333               0.000455903               0.000000000               0.000000000               0.000000000               0.000000000               0.000068887               0.001732971              -0.000018690              -0.000190788               0.000641247               0.000450459               0.000000000               0.000000000               0.000000000               0.000000000               0.000034501               0.001743552              -0.000009792              -0.000205006               0.000649513               0.000444508               0.000000000               0.000000000               0.000000000               0.000000000               0.000019427               0.001750937              -0.000006992              -0.000211582               0.000654167               0.000442585               0.000000000               0.000000000               0.000000000               0.000000000               0.000490730               0.002400065              -0.000750819              -0.000115985               0.000838675               0.000722690               0.000000000               0.000000000               0.000000000               0.000000000               0.000395217               0.002095232              -0.000517615              -0.000113698               0.000736303               0.000622605               0.000000000               0.000000000               0.000000000               0.000000000               0.000383428               0.001906351              -0.000282179              -0.000094508               0.000666947               0.000572438               0.000000000               0.000000000               0.000000000               0.000000000               0.000360010               0.001801005              -0.000179831              -0.000090122               0.000630369               0.000540248               0.000000000               0.000000000               0.000000000               0.000000000               0.000332463               0.001736745              -0.000130272              -0.000092419               0.000609716               0.000517296               0.000000000               0.000000000               0.000000000               0.000000000               0.000307520               0.001700261              -0.000104206              -0.000097212               0.000599152               0.000501940               0.000000000               0.000000000               0.000000000               0.000000000               0.000284376               0.001680398              -0.000087913              -0.000103408               0.000594597               0.000491188               0.000000000               0.000000000               0.000000000               0.000000000               0.000257343               0.001674699              -0.000073746              -0.000112833               0.000595839               0.000483005               0.000000000               0.000000000               0.000000000               0.000000000               0.000225718               0.001679291              -0.000057900              -0.000125267               0.000601514               0.000476247               0.000000000               0.000000000               0.000000000               0.000000000               0.000196050               0.001691324              -0.000042459              -0.000137896               0.000609734               0.000471838               0.000000000               0.000000000               0.000000000               0.000000000               0.000170702               0.001700635              -0.000033672              -0.000148566               0.000616394               0.000467829               0.000000000               0.000000000               0.000000000               0.000000000               0.000148353               0.001706602              -0.000033139              -0.000157692               0.000621426               0.000463733               0.000000000               0.000000000               0.000000000               0.000000000               0.000124089               0.001710459              -0.000033856              -0.000167273               0.000625905               0.000458632               0.000000000               0.000000000               0.000000000               0.000000000               0.000093204               0.001717266              -0.000025458              -0.000179706               0.000632318               0.000452612               0.000000000               0.000000000               0.000000000               0.000000000               0.000059449               0.001726856              -0.000013804              -0.000193563               0.000640134               0.000446571               0.000000000               0.000000000               0.000000000               0.000000000               0.000029449               0.001735578              -0.000007565              -0.000205904               0.000647155               0.000441251               0.000000000               0.000000000               0.000000000               0.000000000               0.000018109               0.001743517              -0.000006492              -0.000211148               0.000651549               0.000440401               0.000000000               0.000000000               0.000000000               0.000000000               0.000557441               0.002105334              -0.000815574              -0.000054127               0.000719813               0.000665686               0.000000000               0.000000000               0.000000000               0.000000000               0.000413974               0.001897979              -0.000572232              -0.000082007               0.000659989               0.000577982               0.000000000               0.000000000               0.000000000               0.000000000               0.000347608               0.001807447              -0.000326831              -0.000095578               0.000634336               0.000538758               0.000000000               0.000000000               0.000000000               0.000000000               0.000308354               0.001748981              -0.000221378              -0.000102990               0.000617318               0.000514328               0.000000000               0.000000000               0.000000000               0.000000000               0.000279575               0.001714529              -0.000168448              -0.000109475               0.000607996               0.000498520               0.000000000               0.000000000               0.000000000               0.000000000               0.000255285               0.001695439              -0.000137880              -0.000116198               0.000603873               0.000487675               0.000000000               0.000000000               0.000000000               0.000000000               0.000234479               0.001689116              -0.000115530              -0.000123210               0.000604103               0.000480893               0.000000000               0.000000000               0.000000000               0.000000000               0.000210408               0.001694168              -0.000094433              -0.000132868               0.000609006               0.000476138               0.000000000               0.000000000               0.000000000               0.000000000               0.000181997               0.001705804              -0.000072502              -0.000144976               0.000616921               0.000471945               0.000000000               0.000000000               0.000000000               0.000000000               0.000158783               0.001718665              -0.000054412              -0.000155289               0.000624646               0.000469357               0.000000000               0.000000000               0.000000000               0.000000000               0.000143544               0.001724945              -0.000044086              -0.000161789               0.000628905               0.000467117               0.000000000               0.000000000               0.000000000               0.000000000               0.000128203               0.001727008              -0.000041103              -0.000167799               0.000631597               0.000463797               0.000000000               0.000000000               0.000000000               0.000000000               0.000109162               0.001730223              -0.000037630              -0.000175342               0.000635183               0.000459841               0.000000000               0.000000000               0.000000000               0.000000000               0.000086685               0.001741454              -0.000023468              -0.000185174               0.000642204               0.000457029               0.000000000               0.000000000               0.000000000               0.000000000               0.000058596               0.001756610              -0.000010508              -0.000197602               0.000651398               0.000453796               0.000000000               0.000000000               0.000000000               0.000000000               0.000029864               0.001774033              -0.000006292              -0.000210555               0.000661523               0.000450969               0.000000000               0.000000000               0.000000000               0.000000000               0.000020367               0.001790328              -0.000007462              -0.000216153               0.000668821               0.000452668               0.000000000               0.000000000               0.000000000               0.000000000               0.000604916               0.001799738              -0.000828763               0.000001875               0.000599281               0.000601156               0.000000000               0.000000000               0.000000000               0.000000000               0.000425284               0.001697096              -0.000597481              -0.000052656               0.000583245               0.000530589               0.000000000               0.000000000               0.000000000               0.000000000               0.000316366               0.001704933              -0.000362745              -0.000094479               0.000599798               0.000505319               0.000000000               0.000000000               0.000000000               0.000000000               0.000269267               0.001692592              -0.000259005              -0.000110599               0.000601058               0.000490459               0.000000000               0.000000000               0.000000000               0.000000000               0.000242314               0.001685469              -0.000203024              -0.000119816               0.000601756               0.000481940               0.000000000               0.000000000               0.000000000               0.000000000               0.000219033               0.001683182              -0.000166301              -0.000128260               0.000603808               0.000475548               0.000000000               0.000000000               0.000000000               0.000000000               0.000199512               0.001693346              -0.000137155              -0.000136851               0.000610060               0.000473209               0.000000000               0.000000000               0.000000000               0.000000000               0.000176968               0.001711930              -0.000109649              -0.000147628               0.000619847               0.000472219               0.000000000               0.000000000               0.000000000               0.000000000               0.000150740               0.001733755              -0.000084238              -0.000160191               0.000631310               0.000471118               0.000000000               0.000000000               0.000000000               0.000000000               0.000131270               0.001748025              -0.000064882              -0.000169276               0.000639095               0.000469818               0.000000000               0.000000000               0.000000000               0.000000000               0.000120897               0.001755377              -0.000054249              -0.000174085               0.000643148               0.000469063               0.000000000               0.000000000               0.000000000               0.000000000               0.000108883               0.001762360              -0.000048310              -0.000179463               0.000647269               0.000467805               0.000000000               0.000000000               0.000000000               0.000000000               0.000094489               0.001781149              -0.000039147              -0.000187210               0.000656114               0.000468904               0.000000000               0.000000000               0.000000000               0.000000000               0.000077512               0.001811059              -0.000021726              -0.000197315               0.000669452               0.000472137               0.000000000               0.000000000               0.000000000               0.000000000               0.000053408               0.001843538              -0.000009446              -0.000210414               0.000684645               0.000474231               0.000000000               0.000000000               0.000000000               0.000000000               0.000027000               0.001876884              -0.000006340              -0.000224485               0.000700450               0.000475965               0.000000000               0.000000000               0.000000000               0.000000000               0.000019445               0.001902132              -0.000008172              -0.000230474               0.000710862               0.000480388               0.000000000               0.000000000               0.000000000               0.000000000               0.000632013               0.001505415              -0.000796854               0.000048827               0.000485524               0.000534351               0.000000000               0.000000000               0.000000000               0.000000000               0.000429832               0.001506985              -0.000598712              -0.000027187               0.000511385               0.000484199               0.000000000               0.000000000               0.000000000               0.000000000               0.000294627               0.001604609              -0.000391264              -0.000090091               0.000564894               0.000474804               0.000000000               0.000000000               0.000000000               0.000000000               0.000246706               0.001632573              -0.000290534              -0.000111557               0.000581371               0.000469814               0.000000000               0.000000000               0.000000000               0.000000000               0.000223061               0.001648464              -0.000229725              -0.000122410               0.000590286               0.000467876               0.000000000               0.000000000               0.000000000               0.000000000               0.000202656               0.001666639              -0.000185679              -0.000132334               0.000599652               0.000467318               0.000000000               0.000000000               0.000000000               0.000000000               0.000181564               0.001695890              -0.000150368              -0.000143899               0.000613257               0.000469358               0.000000000               0.000000000               0.000000000               0.000000000               0.000157714               0.001729061              -0.000119106              -0.000156989               0.000628678               0.000471688               0.000000000               0.000000000               0.000000000               0.000000000               0.000136127               0.001757182              -0.000091537              -0.000168600               0.000641922               0.000473322               0.000000000               0.000000000               0.000000000               0.000000000               0.000119547               0.001775503              -0.000072044              -0.000177107               0.000650864               0.000473757               0.000000000               0.000000000               0.000000000               0.000000000               0.000109477               0.001794988              -0.000059510              -0.000183319               0.000659430               0.000476111               0.000000000               0.000000000               0.000000000               0.000000000               0.000101066               0.001828372              -0.000046679              -0.000190646               0.000673000               0.000482354               0.000000000               0.000000000               0.000000000               0.000000000               0.000087910               0.001878495              -0.000031524              -0.000201845               0.000693440               0.000491595               0.000000000               0.000000000               0.000000000               0.000000000               0.000070103               0.001936266              -0.000014671              -0.000215744               0.000717330               0.000501586               0.000000000               0.000000000               0.000000000               0.000000000               0.000046875               0.001990296              -0.000004446              -0.000231208               0.000740495               0.000509286               0.000000000               0.000000000               0.000000000               0.000000000               0.000022619               0.002041284              -0.000003379              -0.000246678               0.000762647               0.000515969               0.000000000               0.000000000               0.000000000               0.000000000               0.000016018               0.002076386              -0.000006985              -0.000253541               0.000776635               0.000523095               0.000000000               0.000000000               0.000000000               0.000000000               0.000645394               0.001245983              -0.000735119               0.000086273               0.000386565               0.000472839               0.000000000               0.000000000               0.000000000               0.000000000               0.000437675               0.001336602              -0.000587850              -0.000002948               0.000446512               0.000443564               0.000000000               0.000000000               0.000000000               0.000000000               0.000288157               0.001510306              -0.000420167              -0.000080730               0.000530340               0.000449610               0.000000000               0.000000000               0.000000000               0.000000000               0.000243479               0.001574712              -0.000321700              -0.000105534               0.000560077               0.000454543               0.000000000               0.000000000               0.000000000               0.000000000               0.000222796               0.001614007              -0.000254771              -0.000118202               0.000577398               0.000459195               0.000000000               0.000000000               0.000000000               0.000000000               0.000206151               0.001654378              -0.000203882              -0.000129491               0.000594617               0.000465127               0.000000000               0.000000000               0.000000000               0.000000000               0.000183587               0.001698531              -0.000163327              -0.000143471               0.000613995               0.000470524               0.000000000               0.000000000               0.000000000               0.000000000               0.000157913               0.001739575              -0.000130317              -0.000158229               0.000632596               0.000474367               0.000000000               0.000000000               0.000000000               0.000000000               0.000139417               0.001773430              -0.000101943              -0.000169397               0.000647603               0.000478206               0.000000000               0.000000000               0.000000000               0.000000000               0.000128720               0.001801996              -0.000078705              -0.000176979               0.000659652               0.000482673               0.000000000               0.000000000               0.000000000               0.000000000               0.000122904               0.001842866              -0.000057906              -0.000184269               0.000675706               0.000491437               0.000000000               0.000000000               0.000000000               0.000000000               0.000114879               0.001905471              -0.000037075              -0.000195104               0.000700185               0.000505082               0.000000000               0.000000000               0.000000000               0.000000000               0.000098163               0.001982634              -0.000019001              -0.000211018               0.000731211               0.000520193               0.000000000               0.000000000               0.000000000               0.000000000               0.000079327               0.002062571              -0.000006727              -0.000228073               0.000763541               0.000535468               0.000000000               0.000000000               0.000000000               0.000000000               0.000060192               0.002131695               0.000000309              -0.000243889               0.000791854               0.000547965               0.000000000               0.000000000               0.000000000               0.000000000               0.000043041               0.002197142               0.000003095              -0.000258502               0.000818541               0.000560039               0.000000000               0.000000000               0.000000000               0.000000000               0.000035460               0.002236038               0.000002322              -0.000266207               0.000834074               0.000567867               0.000000000               0.000000000               0.000000000               0.000000000               0.000641047               0.000992066              -0.000657733               0.000116383               0.000291891               0.000408273               0.000000000               0.000000000               0.000000000               0.000000000               0.000452152               0.001136873              -0.000570710               0.000027447               0.000369805               0.000397251               0.000000000               0.000000000               0.000000000               0.000000000               0.000299373               0.001364637              -0.000454837              -0.000058315               0.000474313               0.000415998               0.000000000               0.000000000               0.000000000               0.000000000               0.000254961               0.001470799              -0.000362728              -0.000088240               0.000519675               0.000431435               0.000000000               0.000000000               0.000000000               0.000000000               0.000236581               0.001539321              -0.000291763              -0.000103697               0.000547668               0.000443971               0.000000000               0.000000000               0.000000000               0.000000000               0.000221157               0.001597154              -0.000234782              -0.000116710               0.000571283               0.000454573               0.000000000               0.000000000               0.000000000               0.000000000               0.000200281               0.001649667              -0.000189249              -0.000131103               0.000593584               0.000462482               0.000000000               0.000000000               0.000000000               0.000000000               0.000175192               0.001700027              -0.000154977              -0.000146806               0.000615605               0.000468799               0.000000000               0.000000000               0.000000000               0.000000000               0.000156408               0.001749328              -0.000126283              -0.000160013               0.000636441               0.000476428               0.000000000               0.000000000               0.000000000               0.000000000               0.000144907               0.001794850              -0.000098362              -0.000170016               0.000654949               0.000484934               0.000000000               0.000000000               0.000000000               0.000000000               0.000140176               0.001850721              -0.000070429              -0.000178773               0.000676492               0.000497718               0.000000000               0.000000000               0.000000000               0.000000000               0.000137883               0.001921376              -0.000043534              -0.000188465               0.000703274               0.000514809               0.000000000               0.000000000               0.000000000               0.000000000               0.000131017               0.002006993              -0.000023899              -0.000201742               0.000736239               0.000534496               0.000000000               0.000000000               0.000000000               0.000000000               0.000118720               0.002098252              -0.000012572              -0.000217761               0.000771997               0.000554236               0.000000000               0.000000000               0.000000000               0.000000000               0.000104052               0.002182012              -0.000003607              -0.000233732               0.000805240               0.000571509               0.000000000               0.000000000               0.000000000               0.000000000               0.000093193               0.002264881               0.000002671              -0.000248162               0.000837673               0.000589511               0.000000000               0.000000000               0.000000000               0.000000000               0.000083857               0.002303557               0.000006331              -0.000256498               0.000853344               0.000596846               0.000000000               0.000000000               0.000000000               0.000000000               0.000606851               0.000753007              -0.000564372               0.000133442               0.000206519               0.000339960               0.000000000               0.000000000               0.000000000               0.000000000               0.000464292               0.000935481              -0.000537941               0.000057173               0.000292766               0.000349939               0.000000000               0.000000000               0.000000000               0.000000000               0.000327571               0.001200615              -0.000478680              -0.000027238               0.000409280               0.000382042               0.000000000               0.000000000               0.000000000               0.000000000               0.000280956               0.001347466              -0.000401722              -0.000063075               0.000470176               0.000407101               0.000000000               0.000000000               0.000000000               0.000000000               0.000261628               0.001445746              -0.000330819              -0.000082608               0.000509446               0.000426839               0.000000000               0.000000000               0.000000000               0.000000000               0.000245048               0.001519936              -0.000269967              -0.000098099               0.000539340               0.000441241               0.000000000               0.000000000               0.000000000               0.000000000               0.000225918               0.001585783              -0.000221426              -0.000113504               0.000566424               0.000452920               0.000000000               0.000000000               0.000000000               0.000000000               0.000204117               0.001650485              -0.000185624              -0.000129766               0.000593411               0.000463645               0.000000000               0.000000000               0.000000000               0.000000000               0.000182717               0.001712852              -0.000155282              -0.000145587               0.000619474               0.000473887               0.000000000               0.000000000               0.000000000               0.000000000               0.000166888               0.001773328              -0.000123990              -0.000159083               0.000644131               0.000485048               0.000000000               0.000000000               0.000000000               0.000000000               0.000161225               0.001836769              -0.000094170              -0.000169136               0.000668629               0.000499493               0.000000000               0.000000000               0.000000000               0.000000000               0.000166809               0.001906830              -0.000065285              -0.000175800               0.000694203               0.000518404               0.000000000               0.000000000               0.000000000               0.000000000               0.000172481               0.001992367              -0.000040154              -0.000184365               0.000725571               0.000541206               0.000000000               0.000000000               0.000000000               0.000000000               0.000168958               0.002086403              -0.000023333              -0.000197441               0.000761274               0.000563834               0.000000000               0.000000000               0.000000000               0.000000000               0.000160803               0.002177005              -0.000012760              -0.000211824               0.000796269               0.000584445               0.000000000               0.000000000               0.000000000               0.000000000               0.000152967               0.002263324              -0.000004871              -0.000225552               0.000829618               0.000604066               0.000000000               0.000000000               0.000000000               0.000000000               0.000140840               0.002298991               0.000001847              -0.000234558               0.000844509               0.000609951               0.000000000               0.000000000               0.000000000               0.000000000               0.000543571               0.000538253              -0.000457461               0.000136556               0.000133897               0.000270453               0.000000000               0.000000000               0.000000000               0.000000000               0.000463784               0.000739267              -0.000482990               0.000081510               0.000219250               0.000300759               0.000000000               0.000000000               0.000000000               0.000000000               0.000362425               0.001021705              -0.000474963               0.000008196               0.000337833               0.000346029               0.000000000               0.000000000               0.000000000               0.000000000               0.000318645               0.001200939              -0.000418464              -0.000030626               0.000410518               0.000379892               0.000000000               0.000000000               0.000000000               0.000000000               0.000295274               0.001324204              -0.000353888              -0.000054798               0.000459663               0.000404865               0.000000000               0.000000000               0.000000000               0.000000000               0.000276793               0.001419847              -0.000293679              -0.000073683               0.000497839               0.000424155               0.000000000               0.000000000               0.000000000               0.000000000               0.000257990               0.001504063              -0.000245028              -0.000091261               0.000531770               0.000440508               0.000000000               0.000000000               0.000000000               0.000000000               0.000238099               0.001583173              -0.000209033              -0.000108609               0.000563922               0.000455313               0.000000000               0.000000000               0.000000000               0.000000000               0.000217717               0.001659408              -0.000177377              -0.000125782               0.000595058               0.000469276               0.000000000               0.000000000               0.000000000               0.000000000               0.000200996               0.001731625              -0.000146980              -0.000141079               0.000624229               0.000483150               0.000000000               0.000000000               0.000000000               0.000000000               0.000193251               0.001799102              -0.000120998              -0.000152418               0.000650501               0.000498082               0.000000000               0.000000000               0.000000000               0.000000000               0.000196858               0.001876006              -0.000091750              -0.000160679               0.000678889               0.000518210               0.000000000               0.000000000               0.000000000               0.000000000               0.000207572               0.001970423              -0.000060010              -0.000168463               0.000712956               0.000544493               0.000000000               0.000000000               0.000000000               0.000000000               0.000214578               0.002070849              -0.000039707              -0.000178389               0.000749739               0.000571350               0.000000000               0.000000000               0.000000000               0.000000000               0.000215686               0.002168130              -0.000029513              -0.000190134               0.000786081               0.000595947               0.000000000               0.000000000               0.000000000               0.000000000               0.000211427               0.002261900              -0.000017584              -0.000203452               0.000821776               0.000618324               0.000000000               0.000000000               0.000000000               0.000000000               0.000196651               0.002301106              -0.000006268              -0.000213894               0.000838326               0.000624432               0.000000000               0.000000000               0.000000000               0.000000000               0.000461079               0.000359302              -0.000346971               0.000127991               0.000077102               0.000205093               0.000000000               0.000000000               0.000000000               0.000000000               0.000452931               0.000559686              -0.000407813               0.000099887               0.000153264               0.000253151               0.000000000               0.000000000               0.000000000               0.000000000               0.000399600               0.000840682              -0.000438611               0.000044764               0.000265303               0.000310067               0.000000000               0.000000000               0.000000000               0.000000000               0.000363480               0.001038286              -0.000403847               0.000006519               0.000343919               0.000350437               0.000000000               0.000000000               0.000000000               0.000000000               0.000337931               0.001182514              -0.000350134              -0.000021090               0.000401197               0.000380107               0.000000000               0.000000000               0.000000000               0.000000000               0.000317338               0.001298931              -0.000296064              -0.000043365               0.000447428               0.000404063               0.000000000               0.000000000               0.000000000               0.000000000               0.000299674               0.001401794              -0.000251241              -0.000062846               0.000488209               0.000425362               0.000000000               0.000000000               0.000000000               0.000000000               0.000281261               0.001496009              -0.000216941              -0.000081528               0.000525841               0.000444313               0.000000000               0.000000000               0.000000000               0.000000000               0.000263586               0.001583704              -0.000187466              -0.000099118               0.000560936               0.000461818               0.000000000               0.000000000               0.000000000               0.000000000               0.000249006               0.001665364              -0.000161371              -0.000114793               0.000593380               0.000478587               0.000000000               0.000000000               0.000000000               0.000000000               0.000238339               0.001745015              -0.000137884              -0.000128749               0.000624582               0.000495833               0.000000000               0.000000000               0.000000000               0.000000000               0.000235247               0.001836675              -0.000110505              -0.000141366               0.000659341               0.000517975               0.000000000               0.000000000               0.000000000               0.000000000               0.000245351               0.001940703              -0.000081532              -0.000150581               0.000697088               0.000546507               0.000000000               0.000000000               0.000000000               0.000000000               0.000261116               0.002051420              -0.000059855              -0.000158508               0.000736636               0.000578127               0.000000000               0.000000000               0.000000000               0.000000000               0.000269761               0.002160589              -0.000045606              -0.000168913               0.000776493               0.000607581               0.000000000               0.000000000               0.000000000               0.000000000               0.000268129               0.002261129              -0.000026963              -0.000182092               0.000814400               0.000632307               0.000000000               0.000000000               0.000000000               0.000000000               0.000255234               0.002302767              -0.000011548              -0.000192133               0.000831626               0.000639493               0.000000000               0.000000000               0.000000000               0.000000000               0.000369871               0.000223231              -0.000242778               0.000110797               0.000037477               0.000148274               0.000000000               0.000000000               0.000000000               0.000000000               0.000433283               0.000407302              -0.000316986               0.000111567               0.000098577               0.000210144               0.000000000               0.000000000               0.000000000               0.000000000               0.000435165               0.000670967              -0.000367762               0.000079315               0.000197215               0.000276530               0.000000000               0.000000000               0.000000000               0.000000000               0.000411229               0.000876212              -0.000351354               0.000044684               0.000277173               0.000321857               0.000000000               0.000000000               0.000000000               0.000000000               0.000384945               0.001035034              -0.000312051               0.000014975               0.000340016               0.000354991               0.000000000               0.000000000               0.000000000               0.000000000               0.000364538               0.001169399              -0.000268591              -0.000009474               0.000392954               0.000383480               0.000000000               0.000000000               0.000000000               0.000000000               0.000345851               0.001288259              -0.000231482              -0.000031338               0.000439861               0.000408523               0.000000000               0.000000000               0.000000000               0.000000000               0.000330111               0.001396546              -0.000202408              -0.000050777               0.000482436               0.000431660               0.000000000               0.000000000               0.000000000               0.000000000               0.000313695               0.001496066              -0.000178579              -0.000069373               0.000521808               0.000452435               0.000000000               0.000000000               0.000000000               0.000000000               0.000299522               0.001590860              -0.000157111              -0.000086537               0.000559127               0.000472590               0.000000000               0.000000000               0.000000000               0.000000000               0.000286659               0.001689565              -0.000136018              -0.000103698               0.000597749               0.000494050               0.000000000               0.000000000               0.000000000               0.000000000               0.000283306               0.001798591              -0.000115277              -0.000118584               0.000639052               0.000520469               0.000000000               0.000000000               0.000000000               0.000000000               0.000292390               0.001913189              -0.000095583              -0.000129502               0.000680890               0.000551388               0.000000000               0.000000000               0.000000000               0.000000000               0.000309342               0.002030029              -0.000076668              -0.000137750               0.000722586               0.000584836               0.000000000               0.000000000               0.000000000               0.000000000               0.000322266               0.002144620              -0.000056456              -0.000147228               0.000763942               0.000616714               0.000000000               0.000000000               0.000000000               0.000000000               0.000323781               0.002251259              -0.000031190              -0.000159989               0.000803742               0.000643753               0.000000000               0.000000000               0.000000000               0.000000000               0.000314597               0.002297108              -0.000014782              -0.000169164               0.000822083               0.000652919               0.000000000               0.000000000               0.000000000               0.000000000               0.000286570               0.000127792              -0.000150173               0.000091489               0.000012100               0.000103589               0.000000000               0.000000000               0.000000000               0.000000000               0.000411413               0.000290559              -0.000215744               0.000117959               0.000057532               0.000175491               0.000000000               0.000000000               0.000000000               0.000000000               0.000463656               0.000531183              -0.000265707               0.000107472               0.000141235               0.000248707               0.000000000               0.000000000               0.000000000               0.000000000               0.000455559               0.000737529              -0.000261149               0.000078642               0.000219626               0.000298269               0.000000000               0.000000000               0.000000000               0.000000000               0.000430605               0.000905379              -0.000236908               0.000048304               0.000285688               0.000333993               0.000000000               0.000000000               0.000000000               0.000000000               0.000408335               0.001051734              -0.000206725               0.000021659               0.000343355               0.000365014               0.000000000               0.000000000               0.000000000               0.000000000               0.000389533               0.001181411              -0.000180717              -0.000001602               0.000394334               0.000392732               0.000000000               0.000000000               0.000000000               0.000000000               0.000373829               0.001302296              -0.000159906              -0.000022601               0.000441628               0.000419027               0.000000000               0.000000000               0.000000000               0.000000000               0.000358853               0.001417740              -0.000142110              -0.000042647               0.000486791               0.000444144               0.000000000               0.000000000               0.000000000               0.000000000               0.000342701               0.001526889              -0.000126479              -0.000062348               0.000529741               0.000467392               0.000000000               0.000000000               0.000000000               0.000000000               0.000334486               0.001638855              -0.000112827              -0.000079424               0.000572754               0.000493330               0.000000000               0.000000000               0.000000000               0.000000000               0.000334711               0.001759041              -0.000100998              -0.000094363               0.000617796               0.000523432               0.000000000               0.000000000               0.000000000               0.000000000               0.000342477               0.001886325              -0.000089157              -0.000107361               0.000664556               0.000557194               0.000000000               0.000000000               0.000000000               0.000000000               0.000354262               0.002009108              -0.000074520              -0.000118290               0.000709126               0.000590836               0.000000000               0.000000000               0.000000000               0.000000000               0.000365766               0.002121320              -0.000053366              -0.000128002               0.000749767               0.000621765               0.000000000               0.000000000               0.000000000               0.000000000               0.000377232               0.002232166              -0.000026854              -0.000137558               0.000789901               0.000652342               0.000000000               0.000000000               0.000000000               0.000000000               0.000378222               0.002285398              -0.000011979              -0.000143841               0.000809739               0.000665898               0.000000000               0.000000000               0.000000000               0.000000000               0.000228633               0.000075252              -0.000070536               0.000076330              -0.000000360               0.000075970               0.000000000               0.000000000               0.000000000               0.000000000               0.000394233               0.000219705              -0.000109288               0.000120373               0.000033110               0.000153483               0.000000000               0.000000000               0.000000000               0.000000000               0.000482819               0.000438760              -0.000140037               0.000126211               0.000104182               0.000230392               0.000000000               0.000000000               0.000000000               0.000000000               0.000486859               0.000642521              -0.000139624               0.000102256               0.000180086               0.000282342               0.000000000               0.000000000               0.000000000               0.000000000               0.000464205               0.000816315              -0.000128086               0.000072037               0.000248090               0.000320127               0.000000000               0.000000000               0.000000000               0.000000000               0.000439721               0.000967826              -0.000113121               0.000043917               0.000307967               0.000351883               0.000000000               0.000000000               0.000000000               0.000000000               0.000420222               0.001104309              -0.000099835               0.000019545               0.000361584               0.000381129               0.000000000               0.000000000               0.000000000               0.000000000               0.000403134               0.001234117              -0.000089425              -0.000003090               0.000412398               0.000409309               0.000000000               0.000000000               0.000000000               0.000000000               0.000389464               0.001359628              -0.000078050              -0.000023905               0.000461173               0.000437268               0.000000000               0.000000000               0.000000000               0.000000000               0.000378499               0.001482070              -0.000069988              -0.000043322               0.000508459               0.000465137               0.000000000               0.000000000               0.000000000               0.000000000               0.000373565               0.001605742              -0.000065866              -0.000060631               0.000555452               0.000494821               0.000000000               0.000000000               0.000000000               0.000000000               0.000372988               0.001731136              -0.000060621              -0.000076522               0.000602547               0.000526025               0.000000000               0.000000000               0.000000000               0.000000000               0.000376216               0.001858490              -0.000054967              -0.000091230               0.000649900               0.000558670               0.000000000               0.000000000               0.000000000               0.000000000               0.000384059               0.001984552              -0.000045497              -0.000104047               0.000696193               0.000592146               0.000000000               0.000000000               0.000000000               0.000000000               0.000398992               0.002106031              -0.000031875              -0.000113631               0.000739881               0.000626249               0.000000000               0.000000000               0.000000000               0.000000000               0.000425189               0.002225191              -0.000016449              -0.000118703               0.000781290               0.000662588               0.000000000               0.000000000               0.000000000               0.000000000               0.000441279               0.002283720              -0.000008058              -0.000119985               0.000801228               0.000681242               0.000000000               0.000000000               0.000000000               0.000000000               0.000000000               0.000000000               0.000000000               0.000000000               0.000000000               0.000000000               0.000000000               0.000000000               0.000000000               0.000000000               0.000000000               0.000000000               0.000000000               0.000000000               0.000000000               0.000000000               0.000000000               0.000000000               0.000000000               0.000000000               0.000000000               0.000000000               0.000000000               0.000000000               0.000000000               0.000000000               0.000000000               0.000000000               0.000000000               0.000000000               0.000000000               0.000000000               0.000000000               0.000000000               0.000000000               0.000000000               0.000000000               0.000000000               0.000000000               0.000000000               0.000000000               0.000000000               0.000000000               0.000000000               0.000000000               0.000000000               0.000000000               0.000000000               0.000000000               0.000000000               0.000000000               0.000000000               0.000000000               0.000000000               0.000000000               0.000000000               0.000000000               0.000000000               0.000000000               0.000000000               0.000000000               0.000000000               0.000000000               0.000000000               0.000000000               0.000000000               0.000000000               0.000000000               0.000000000               0.000000000               0.000000000               0.000000000               0.000000000               0.000000000               0.000000000               0.000000000               0.000000000               0.000000000               0.000000000               0.000000000               0.000000000               0.000000000               0.000000000               0.000000000               0.000000000               0.000000000               0.000000000               0.000000000               0.000000000               0.000000000               0.000000000               0.000000000               0.000000000               0.000000000               0.000000000               0.000000000               0.000000000               0.000000000               0.000000000               0.000000000               0.000000000               0.000000000               0.000000000               0.000000000               0.000000000               0.000000000               0.000000000               0.000000000               0.000000000               0.000000000               0.000000000               0.000000000               0.000000000               0.000000000               0.000000000               0.000000000               0.000000000               0.000000000               0.000000000               0.000000000               0.000000000               0.000000000               0.000000000               0.000000000               0.000000000               0.000000000               0.000000000               0.000000000               0.000000000               0.000000000               0.000000000               0.000000000               0.000000000               0.000000000               0.000000000               0.000000000               0.000000000               0.000000000               0.000000000               0.000000000               0.000000000               0.000000000               0.000000000               0.000000000               0.000000000               0.000000000               0.000000000               0.000000000               0.000000000               0.000000000               0.000000000               0.000000000               0.000000000               0.000000000               0.000000000               0.000000000               0.000000000               0.000000000               0.000000000               0.000000000               0.000000000               0.000000000               0.000000000               0.000000000               0.000000000               0.000000000               0.000000000               0.000000000               0.000000000               0.000000000               0.000000000               0.000000000               0.000000000               0.000000000               0.000000000               0.000000000               0.000000000               0.000000000               0.000000000               0.000000000               0.000000000               0.000000000               0.000000000               0.000000000               0.000000000               0.000000000               0.000000000               0.000000000               0.000000000               0.000000000               0.000000000               0.000000000               0.000000000               0.000000000               0.000000000               0.000000000               0.000000000               0.000000000               0.000000000               0.000000000               0.000000000               0.000000000               0.000000000               0.000000000               0.000000000               0.000000000               0.000000000               0.000000000               0.000000000               0.000000000               0.000000000               0.000000000               0.000000000               0.000000000               0.000000000               0.000000000               0.000000000               0.000000000               0.000000000               0.000000000               0.000000000               0.000000000               0.000000000               0.000000000               0.000000000               0.000000000               0.000000000               0.000000000               0.000000000               0.000000000               0.000000000               0.000000000               0.000000000               0.000000000               0.000000000               0.000000000               0.000000000               0.000000000               0.000000000               0.000000000               0.000000000               0.000000000               0.000000000               0.000000000               0.000000000               0.000000000               0.000000000               0.000000000               0.000000000               0.000000000               0.000000000               0.000000000               0.000000000               0.000000000               0.000000000               0.000000000               0.000000000               0.000000000               0.000000000               0.000000000               0.000000000               0.000000000               0.000000000               0.000000000               0.000000000               0.000000000               0.000000000               0.000000000               0.000000000               0.000000000               0.000000000               0.000000000               0.000000000               0.000000000               0.000000000               0.000000000               0.000000000               0.000000000               0.000000000               0.000000000               0.000000000               0.000000000               0.000000000               0.000000000               0.000000000               0.000000000               0.000000000               0.000000000               0.000000000               0.000000000               0.000000000               0.000000000               0.000000000               0.000000000               0.000000000               0.000000000               0.000000000               0.000000000               0.000000000               0.000000000               0.000000000               0.000000000               0.000000000               0.000000000               0.000000000               0.000000000               0.000000000               0.000000000               0.000000000               0.000000000               0.000000000               0.000000000               0.000000000               0.000000000               0.000000000               0.000000000               0.000000000               0.000000000               0.000000000               0.000000000               0.000000000               0.000000000               0.000000000               0.000000000               0.000000000               0.000000000               0.000000000               0.000000000               0.000000000               0.000000000               0.000000000               0.000000000               0.000000000               0.000000000               0.000000000               0.000000000               0.000000000               0.000000000               0.000000000               0.000000000               0.000292506               0.003008876               0.000239318              -0.000266419               0.001091755               0.000825336               0.000000000               0.000000000               0.000000000               0.000000000               0.000328430               0.002518377               0.000163255              -0.000191635               0.000903329               0.000711694               0.000000000               0.000000000               0.000000000               0.000000000               0.000459766               0.002121676               0.000083588              -0.000092797               0.000738151               0.000645354               0.000000000               0.000000000               0.000000000               0.000000000               0.000496502               0.001900203               0.000045425              -0.000051337               0.000650507               0.000599170               0.000000000               0.000000000               0.000000000               0.000000000               0.000491907               0.001771378               0.000027483              -0.000036957               0.000602773               0.000565815               0.000000000               0.000000000               0.000000000               0.000000000               0.000466048               0.001694873               0.000018785              -0.000037091               0.000577316               0.000540225               0.000000000               0.000000000               0.000000000               0.000000000               0.000432067               0.001653134               0.000014706              -0.000044616               0.000565911               0.000521295               0.000000000               0.000000000               0.000000000               0.000000000               0.000391915               0.001632584               0.000012534              -0.000057105               0.000563224               0.000506119               0.000000000               0.000000000               0.000000000               0.000000000               0.000348308               0.001629329               0.000010703              -0.000073050               0.000567454               0.000494404               0.000000000               0.000000000               0.000000000               0.000000000               0.000303883               0.001639597               0.000007652              -0.000090993               0.000576858               0.000485865               0.000000000               0.000000000               0.000000000               0.000000000               0.000256679               0.001661209               0.000005803              -0.000111396               0.000590863               0.000479467               0.000000000               0.000000000               0.000000000               0.000000000               0.000209018               0.001688821               0.000006744              -0.000132720               0.000607175               0.000474454               0.000000000               0.000000000               0.000000000               0.000000000               0.000165365               0.001716866               0.000010724              -0.000152596               0.000623148               0.000470552               0.000000000               0.000000000               0.000000000               0.000000000               0.000124323               0.001742876               0.000013829              -0.000171238               0.000638032               0.000466794               0.000000000               0.000000000               0.000000000               0.000000000               0.000083708               0.001770345               0.000010310              -0.000189902               0.000653410               0.000463508               0.000000000               0.000000000               0.000000000               0.000000000               0.000042377               0.001802610               0.000004695              -0.000209434               0.000670675               0.000461241               0.000000000               0.000000000               0.000000000               0.000000000               0.000024791               0.001828724               0.000003109              -0.000219293               0.000682666               0.000463373               0.000000000               0.000000000               0.000000000               0.000000000               0.000342286               0.002873719               0.000455632              -0.000230857               0.001034849               0.000803992               0.000000000               0.000000000               0.000000000               0.000000000               0.000346913               0.002421376               0.000310575              -0.000172579               0.000864644               0.000692064               0.000000000               0.000000000               0.000000000               0.000000000               0.000444229               0.002071989               0.000160896              -0.000092413               0.000721460               0.000629048               0.000000000               0.000000000               0.000000000               0.000000000               0.000463554               0.001877588               0.000090914              -0.000060866               0.000646145               0.000585279               0.000000000               0.000000000               0.000000000               0.000000000               0.000451295               0.001764789               0.000058233              -0.000051363               0.000605378               0.000554015               0.000000000               0.000000000               0.000000000               0.000000000               0.000425160               0.001698263               0.000041971              -0.000052848               0.000583698               0.000530850               0.000000000               0.000000000               0.000000000               0.000000000               0.000393975               0.001660816               0.000033865              -0.000059861               0.000573554               0.000513692               0.000000000               0.000000000               0.000000000               0.000000000               0.000357424               0.001642711               0.000028869              -0.000071305               0.000571333               0.000500028               0.000000000               0.000000000               0.000000000               0.000000000               0.000316864               0.001639406               0.000024034              -0.000086101               0.000575164               0.000489062               0.000000000               0.000000000               0.000000000               0.000000000               0.000276100               0.001650028               0.000018072              -0.000102716               0.000584243               0.000481527               0.000000000               0.000000000               0.000000000               0.000000000               0.000234041               0.001669298               0.000013297              -0.000120896               0.000596726               0.000475830               0.000000000               0.000000000               0.000000000               0.000000000               0.000191977               0.001690793               0.000015096              -0.000139357               0.000610044               0.000470687               0.000000000               0.000000000               0.000000000               0.000000000               0.000154251               0.001710923               0.000021742              -0.000156021               0.000622309               0.000466288               0.000000000               0.000000000               0.000000000               0.000000000               0.000117575               0.001730612               0.000024461              -0.000172235               0.000634277               0.000462041               0.000000000               0.000000000               0.000000000               0.000000000               0.000077145               0.001751654               0.000017566              -0.000190027               0.000647221               0.000457194               0.000000000               0.000000000               0.000000000               0.000000000               0.000036872               0.001772938               0.000008665              -0.000207790               0.000660237               0.000452447               0.000000000               0.000000000               0.000000000               0.000000000               0.000020279               0.001789508               0.000006214              -0.000216083               0.000668524               0.000452441               0.000000000               0.000000000               0.000000000               0.000000000               0.000412924               0.002663396               0.000630317              -0.000178078               0.000947149               0.000769071               0.000000000               0.000000000               0.000000000               0.000000000               0.000371275               0.002274956               0.000430281              -0.000145141               0.000806691               0.000661550               0.000000000               0.000000000               0.000000000               0.000000000               0.000417490               0.001996465               0.000227100              -0.000092999               0.000696481               0.000603482               0.000000000               0.000000000               0.000000000               0.000000000               0.000414312               0.001844087               0.000136121              -0.000075144               0.000639737               0.000564594               0.000000000               0.000000000               0.000000000               0.000000000               0.000394238               0.001753629               0.000092610              -0.000071364               0.000608325               0.000536961               0.000000000               0.000000000               0.000000000               0.000000000               0.000369007               0.001701084               0.000071115              -0.000074258               0.000591775               0.000517517               0.000000000               0.000000000               0.000000000               0.000000000               0.000341178               0.001670554               0.000058953              -0.000080877               0.000583805               0.000502928               0.000000000               0.000000000               0.000000000               0.000000000               0.000308933               0.001656557               0.000050204              -0.000091220               0.000582587               0.000491367               0.000000000               0.000000000               0.000000000               0.000000000               0.000272613               0.001655842               0.000040797              -0.000104750               0.000586859               0.000482109               0.000000000               0.000000000               0.000000000               0.000000000               0.000237329               0.001667505               0.000029981              -0.000119439               0.000595643               0.000476203               0.000000000               0.000000000               0.000000000               0.000000000               0.000202460               0.001682900               0.000023673              -0.000134440               0.000605774               0.000471334               0.000000000               0.000000000               0.000000000               0.000000000               0.000170072               0.001695355               0.000025012              -0.000148142               0.000614494               0.000466351               0.000000000               0.000000000               0.000000000               0.000000000               0.000139645               0.001706534               0.000030105              -0.000160950               0.000622489               0.000461539               0.000000000               0.000000000               0.000000000               0.000000000               0.000105047               0.001718585               0.000028381              -0.000175430               0.000631333               0.000455903               0.000000000               0.000000000               0.000000000               0.000000000               0.000068887               0.001732971               0.000018690              -0.000190788               0.000641247               0.000450459               0.000000000               0.000000000               0.000000000               0.000000000               0.000034501               0.001743552               0.000009792              -0.000205006               0.000649513               0.000444508               0.000000000               0.000000000               0.000000000               0.000000000               0.000019427               0.001750937               0.000006992              -0.000211582               0.000654167               0.000442585               0.000000000               0.000000000               0.000000000               0.000000000               0.000490730               0.002400065               0.000750819              -0.000115985               0.000838675               0.000722690               0.000000000               0.000000000               0.000000000               0.000000000               0.000395217               0.002095232               0.000517615              -0.000113698               0.000736303               0.000622605               0.000000000               0.000000000               0.000000000               0.000000000               0.000383428               0.001906351               0.000282179              -0.000094508               0.000666947               0.000572438               0.000000000               0.000000000               0.000000000               0.000000000               0.000360010               0.001801005               0.000179831              -0.000090122               0.000630369               0.000540248               0.000000000               0.000000000               0.000000000               0.000000000               0.000332463               0.001736745               0.000130272              -0.000092419               0.000609716               0.000517296               0.000000000               0.000000000               0.000000000               0.000000000               0.000307520               0.001700261               0.000104206              -0.000097212               0.000599152               0.000501940               0.000000000               0.000000000               0.000000000               0.000000000               0.000284376               0.001680398               0.000087913              -0.000103408               0.000594597               0.000491188               0.000000000               0.000000000               0.000000000               0.000000000               0.000257343               0.001674699               0.000073746              -0.000112833               0.000595839               0.000483005               0.000000000               0.000000000               0.000000000               0.000000000               0.000225718               0.001679291               0.000057900              -0.000125267               0.000601514               0.000476247               0.000000000               0.000000000               0.000000000               0.000000000               0.000196050               0.001691324               0.000042459              -0.000137896               0.000609734               0.000471838               0.000000000               0.000000000               0.000000000               0.000000000               0.000170702               0.001700635               0.000033672              -0.000148566               0.000616394               0.000467829               0.000000000               0.000000000               0.000000000               0.000000000               0.000148353               0.001706602               0.000033139              -0.000157692               0.000621426               0.000463733               0.000000000               0.000000000               0.000000000               0.000000000               0.000124089               0.001710459               0.000033856              -0.000167273               0.000625905               0.000458632               0.000000000               0.000000000               0.000000000               0.000000000               0.000093204               0.001717266               0.000025458              -0.000179706               0.000632318               0.000452612               0.000000000               0.000000000               0.000000000               0.000000000               0.000059449               0.001726856               0.000013804              -0.000193563               0.000640134               0.000446571               0.000000000               0.000000000               0.000000000               0.000000000               0.000029449               0.001735578               0.000007565              -0.000205904               0.000647155               0.000441251               0.000000000               0.000000000               0.000000000               0.000000000               0.000018109               0.001743517               0.000006492              -0.000211148               0.000651549               0.000440401               0.000000000               0.000000000               0.000000000               0.000000000               0.000557441               0.002105334               0.000815574              -0.000054127               0.000719813               0.000665686               0.000000000               0.000000000               0.000000000               0.000000000               0.000413974               0.001897979               0.000572232              -0.000082007               0.000659989               0.000577982               0.000000000               0.000000000               0.000000000               0.000000000               0.000347608               0.001807447               0.000326831              -0.000095578               0.000634336               0.000538758               0.000000000               0.000000000               0.000000000               0.000000000               0.000308354               0.001748981               0.000221378              -0.000102990               0.000617318               0.000514328               0.000000000               0.000000000               0.000000000               0.000000000               0.000279575               0.001714529               0.000168448              -0.000109475               0.000607996               0.000498520               0.000000000               0.000000000               0.000000000               0.000000000               0.000255285               0.001695439               0.000137880              -0.000116198               0.000603873               0.000487675               0.000000000               0.000000000               0.000000000               0.000000000               0.000234479               0.001689116               0.000115530              -0.000123210               0.000604103               0.000480893               0.000000000               0.000000000               0.000000000               0.000000000               0.000210408               0.001694168               0.000094433              -0.000132868               0.000609006               0.000476138               0.000000000               0.000000000               0.000000000               0.000000000               0.000181997               0.001705804               0.000072502              -0.000144976               0.000616921               0.000471945               0.000000000               0.000000000               0.000000000               0.000000000               0.000158783               0.001718665               0.000054412              -0.000155289               0.000624646               0.000469357               0.000000000               0.000000000               0.000000000               0.000000000               0.000143544               0.001724945               0.000044086              -0.000161789               0.000628905               0.000467117               0.000000000               0.000000000               0.000000000               0.000000000               0.000128203               0.001727008               0.000041103              -0.000167799               0.000631597               0.000463797               0.000000000               0.000000000               0.000000000               0.000000000               0.000109162               0.001730223               0.000037630              -0.000175342               0.000635183               0.000459841               0.000000000               0.000000000               0.000000000               0.000000000               0.000086685               0.001741454               0.000023468              -0.000185174               0.000642204               0.000457029               0.000000000               0.000000000               0.000000000               0.000000000               0.000058596               0.001756610               0.000010508              -0.000197602               0.000651398               0.000453796               0.000000000               0.000000000               0.000000000               0.000000000               0.000029864               0.001774033               0.000006292              -0.000210555               0.000661523               0.000450969               0.000000000               0.000000000               0.000000000               0.000000000               0.000020367               0.001790328               0.000007462              -0.000216153               0.000668821               0.000452668               0.000000000               0.000000000               0.000000000               0.000000000               0.000604916               0.001799738               0.000828763               0.000001875               0.000599281               0.000601156               0.000000000               0.000000000               0.000000000               0.000000000               0.000425284               0.001697096               0.000597481              -0.000052656               0.000583245               0.000530589               0.000000000               0.000000000               0.000000000               0.000000000               0.000316366               0.001704933               0.000362745              -0.000094479               0.000599798               0.000505319               0.000000000               0.000000000               0.000000000               0.000000000               0.000269267               0.001692592               0.000259005              -0.000110599               0.000601058               0.000490459               0.000000000               0.000000000               0.000000000               0.000000000               0.000242314               0.001685469               0.000203024              -0.000119816               0.000601756               0.000481940               0.000000000               0.000000000               0.000000000               0.000000000               0.000219033               0.001683182               0.000166301              -0.000128260               0.000603808               0.000475548               0.000000000               0.000000000               0.000000000               0.000000000               0.000199512               0.001693346               0.000137155              -0.000136851               0.000610060               0.000473209               0.000000000               0.000000000               0.000000000               0.000000000               0.000176968               0.001711930               0.000109649              -0.000147628               0.000619847               0.000472219               0.000000000               0.000000000               0.000000000               0.000000000               0.000150740               0.001733755               0.000084238              -0.000160191               0.000631310               0.000471118               0.000000000               0.000000000               0.000000000               0.000000000               0.000131270               0.001748025               0.000064882              -0.000169276               0.000639095               0.000469818               0.000000000               0.000000000               0.000000000               0.000000000               0.000120897               0.001755377               0.000054249              -0.000174085               0.000643148               0.000469063               0.000000000               0.000000000               0.000000000               0.000000000               0.000108883               0.001762360               0.000048310              -0.000179463               0.000647269               0.000467805               0.000000000               0.000000000               0.000000000               0.000000000               0.000094489               0.001781149               0.000039147              -0.000187210               0.000656114               0.000468904               0.000000000               0.000000000               0.000000000               0.000000000               0.000077512               0.001811059               0.000021726              -0.000197315               0.000669452               0.000472137               0.000000000               0.000000000               0.000000000               0.000000000               0.000053408               0.001843538               0.000009446              -0.000210414               0.000684645               0.000474231               0.000000000               0.000000000               0.000000000               0.000000000               0.000027000               0.001876884               0.000006340              -0.000224485               0.000700450               0.000475965               0.000000000               0.000000000               0.000000000               0.000000000               0.000019445               0.001902132               0.000008172              -0.000230474               0.000710862               0.000480388               0.000000000               0.000000000               0.000000000               0.000000000               0.000632013               0.001505415               0.000796854               0.000048827               0.000485524               0.000534351               0.000000000               0.000000000               0.000000000               0.000000000               0.000429832               0.001506985               0.000598712              -0.000027187               0.000511385               0.000484199               0.000000000               0.000000000               0.000000000               0.000000000               0.000294627               0.001604609               0.000391264              -0.000090091               0.000564894               0.000474804               0.000000000               0.000000000               0.000000000               0.000000000               0.000246706               0.001632573               0.000290534              -0.000111557               0.000581371               0.000469814               0.000000000               0.000000000               0.000000000               0.000000000               0.000223061               0.001648464               0.000229725              -0.000122410               0.000590286               0.000467876               0.000000000               0.000000000               0.000000000               0.000000000               0.000202656               0.001666639               0.000185679              -0.000132334               0.000599652               0.000467318               0.000000000               0.000000000               0.000000000               0.000000000               0.000181564               0.001695890               0.000150368              -0.000143899               0.000613257               0.000469358               0.000000000               0.000000000               0.000000000               0.000000000               0.000157714               0.001729061               0.000119106              -0.000156989               0.000628678               0.000471688               0.000000000               0.000000000               0.000000000               0.000000000               0.000136127               0.001757182               0.000091537              -0.000168600               0.000641922               0.000473322               0.000000000               0.000000000               0.000000000               0.000000000               0.000119547               0.001775503               0.000072044              -0.000177107               0.000650864               0.000473757               0.000000000               0.000000000               0.000000000               0.000000000               0.000109477               0.001794988               0.000059510              -0.000183319               0.000659430               0.000476111               0.000000000               0.000000000               0.000000000               0.000000000               0.000101066               0.001828372               0.000046679              -0.000190646               0.000673000               0.000482354               0.000000000               0.000000000               0.000000000               0.000000000               0.000087910               0.001878495               0.000031524              -0.000201845               0.000693440               0.000491595               0.000000000               0.000000000               0.000000000               0.000000000               0.000070103               0.001936266               0.000014671              -0.000215744               0.000717330               0.000501586               0.000000000               0.000000000               0.000000000               0.000000000               0.000046875               0.001990296               0.000004446              -0.000231208               0.000740495               0.000509286               0.000000000               0.000000000               0.000000000               0.000000000               0.000022619               0.002041284               0.000003379              -0.000246678               0.000762647               0.000515969               0.000000000               0.000000000               0.000000000               0.000000000               0.000016018               0.002076386               0.000006985              -0.000253541               0.000776635               0.000523095               0.000000000               0.000000000               0.000000000               0.000000000               0.000645394               0.001245983               0.000735119               0.000086273               0.000386565               0.000472839               0.000000000               0.000000000               0.000000000               0.000000000               0.000437675               0.001336602               0.000587850              -0.000002948               0.000446512               0.000443564               0.000000000               0.000000000               0.000000000               0.000000000               0.000288157               0.001510306               0.000420167              -0.000080730               0.000530340               0.000449610               0.000000000               0.000000000               0.000000000               0.000000000               0.000243479               0.001574712               0.000321700              -0.000105534               0.000560077               0.000454543               0.000000000               0.000000000               0.000000000               0.000000000               0.000222796               0.001614007               0.000254771              -0.000118202               0.000577398               0.000459195               0.000000000               0.000000000               0.000000000               0.000000000               0.000206151               0.001654378               0.000203882              -0.000129491               0.000594617               0.000465127               0.000000000               0.000000000               0.000000000               0.000000000               0.000183587               0.001698531               0.000163327              -0.000143471               0.000613995               0.000470524               0.000000000               0.000000000               0.000000000               0.000000000               0.000157913               0.001739575               0.000130317              -0.000158229               0.000632596               0.000474367               0.000000000               0.000000000               0.000000000               0.000000000               0.000139417               0.001773430               0.000101943              -0.000169397               0.000647603               0.000478206               0.000000000               0.000000000               0.000000000               0.000000000               0.000128720               0.001801996               0.000078705              -0.000176979               0.000659652               0.000482673               0.000000000               0.000000000               0.000000000               0.000000000               0.000122904               0.001842866               0.000057906              -0.000184269               0.000675706               0.000491437               0.000000000               0.000000000               0.000000000               0.000000000               0.000114879               0.001905471               0.000037075              -0.000195104               0.000700185               0.000505082               0.000000000               0.000000000               0.000000000               0.000000000               0.000098163               0.001982634               0.000019001              -0.000211018               0.000731211               0.000520193               0.000000000               0.000000000               0.000000000               0.000000000               0.000079327               0.002062571               0.000006727              -0.000228073               0.000763541               0.000535468               0.000000000               0.000000000               0.000000000               0.000000000               0.000060192               0.002131695              -0.000000309              -0.000243889               0.000791854               0.000547965               0.000000000               0.000000000               0.000000000               0.000000000               0.000043041               0.002197142              -0.000003095              -0.000258502               0.000818541               0.000560039               0.000000000               0.000000000               0.000000000               0.000000000               0.000035460               0.002236038              -0.000002322              -0.000266207               0.000834074               0.000567867               0.000000000               0.000000000               0.000000000               0.000000000               0.000641047               0.000992066               0.000657733               0.000116383               0.000291891               0.000408273               0.000000000               0.000000000               0.000000000               0.000000000               0.000452152               0.001136873               0.000570710               0.000027447               0.000369805               0.000397251               0.000000000               0.000000000               0.000000000               0.000000000               0.000299373               0.001364637               0.000454837              -0.000058315               0.000474313               0.000415998               0.000000000               0.000000000               0.000000000               0.000000000               0.000254961               0.001470799               0.000362728              -0.000088240               0.000519675               0.000431435               0.000000000               0.000000000               0.000000000               0.000000000               0.000236581               0.001539321               0.000291763              -0.000103697               0.000547668               0.000443971               0.000000000               0.000000000               0.000000000               0.000000000               0.000221157               0.001597154               0.000234782              -0.000116710               0.000571283               0.000454573               0.000000000               0.000000000               0.000000000               0.000000000               0.000200281               0.001649667               0.000189249              -0.000131103               0.000593584               0.000462482               0.000000000               0.000000000               0.000000000               0.000000000               0.000175192               0.001700027               0.000154977              -0.000146806               0.000615605               0.000468799               0.000000000               0.000000000               0.000000000               0.000000000               0.000156408               0.001749328               0.000126283              -0.000160013               0.000636441               0.000476428               0.000000000               0.000000000               0.000000000               0.000000000               0.000144907               0.001794850               0.000098362              -0.000170016               0.000654949               0.000484934               0.000000000               0.000000000               0.000000000               0.000000000               0.000140176               0.001850721               0.000070429              -0.000178773               0.000676492               0.000497718               0.000000000               0.000000000               0.000000000               0.000000000               0.000137883               0.001921376               0.000043534              -0.000188465               0.000703274               0.000514809               0.000000000               0.000000000               0.000000000               0.000000000               0.000131017               0.002006993               0.000023899              -0.000201742               0.000736239               0.000534496               0.000000000               0.000000000               0.000000000               0.000000000               0.000118720               0.002098252               0.000012572              -0.000217761               0.000771997               0.000554236               0.000000000               0.000000000               0.000000000               0.000000000               0.000104052               0.002182012               0.000003607              -0.000233732               0.000805240               0.000571509               0.000000000               0.000000000               0.000000000               0.000000000               0.000093193               0.002264881              -0.000002671              -0.000248162               0.000837673               0.000589511               0.000000000               0.000000000               0.000000000               0.000000000               0.000083857               0.002303557              -0.000006331              -0.000256498               0.000853344               0.000596846               0.000000000               0.000000000               0.000000000               0.000000000               0.000606851               0.000753007               0.000564372               0.000133442               0.000206519               0.000339960               0.000000000               0.000000000               0.000000000               0.000000000               0.000464292               0.000935481               0.000537941               0.000057173               0.000292766               0.000349939               0.000000000               0.000000000               0.000000000               0.000000000               0.000327571               0.001200615               0.000478680              -0.000027238               0.000409280               0.000382042               0.000000000               0.000000000               0.000000000               0.000000000               0.000280956               0.001347466               0.000401722              -0.000063075               0.000470176               0.000407101               0.000000000               0.000000000               0.000000000               0.000000000               0.000261628               0.001445746               0.000330819              -0.000082608               0.000509446               0.000426839               0.000000000               0.000000000               0.000000000               0.000000000               0.000245048               0.001519936               0.000269967              -0.000098099               0.000539340               0.000441241               0.000000000               0.000000000               0.000000000               0.000000000               0.000225918               0.001585783               0.000221426              -0.000113504               0.000566424               0.000452920               0.000000000               0.000000000               0.000000000               0.000000000               0.000204117               0.001650485               0.000185624              -0.000129766               0.000593411               0.000463645               0.000000000               0.000000000               0.000000000               0.000000000               0.000182717               0.001712852               0.000155282              -0.000145587               0.000619474               0.000473887               0.000000000               0.000000000               0.000000000               0.000000000               0.000166888               0.001773328               0.000123990              -0.000159083               0.000644131               0.000485048               0.000000000               0.000000000               0.000000000               0.000000000               0.000161225               0.001836769               0.000094170              -0.000169136               0.000668629               0.000499493               0.000000000               0.000000000               0.000000000               0.000000000               0.000166809               0.001906830               0.000065285              -0.000175800               0.000694203               0.000518404               0.000000000               0.000000000               0.000000000               0.000000000               0.000172481               0.001992367               0.000040154              -0.000184365               0.000725571               0.000541206               0.000000000               0.000000000               0.000000000               0.000000000               0.000168958               0.002086403               0.000023333              -0.000197441               0.000761274               0.000563834               0.000000000               0.000000000               0.000000000               0.000000000               0.000160803               0.002177005               0.000012760              -0.000211824               0.000796269               0.000584445               0.000000000               0.000000000               0.000000000               0.000000000               0.000152967               0.002263324               0.000004871              -0.000225552               0.000829618               0.000604066               0.000000000               0.000000000               0.000000000               0.000000000               0.000140840               0.002298991              -0.000001847              -0.000234558               0.000844509               0.000609951               0.000000000               0.000000000               0.000000000               0.000000000               0.000543571               0.000538253               0.000457461               0.000136556               0.000133897               0.000270453               0.000000000               0.000000000               0.000000000               0.000000000               0.000463784               0.000739267               0.000482990               0.000081510               0.000219250               0.000300759               0.000000000               0.000000000               0.000000000               0.000000000               0.000362425               0.001021705               0.000474963               0.000008196               0.000337833               0.000346029               0.000000000               0.000000000               0.000000000               0.000000000               0.000318645               0.001200939               0.000418464              -0.000030626               0.000410518               0.000379892               0.000000000               0.000000000               0.000000000               0.000000000               0.000295274               0.001324204               0.000353888              -0.000054798               0.000459663               0.000404865               0.000000000               0.000000000               0.000000000               0.000000000               0.000276793               0.001419847               0.000293679              -0.000073683               0.000497839               0.000424155               0.000000000               0.000000000               0.000000000               0.000000000               0.000257990               0.001504063               0.000245028              -0.000091261               0.000531770               0.000440508               0.000000000               0.000000000               0.000000000               0.000000000               0.000238099               0.001583173               0.000209033              -0.000108609               0.000563922               0.000455313               0.000000000               0.000000000               0.000000000               0.000000000               0.000217717               0.001659408               0.000177377              -0.000125782               0.000595058               0.000469276               0.000000000               0.000000000               0.000000000               0.000000000               0.000200996               0.001731625               0.000146980              -0.000141079               0.000624229               0.000483150               0.000000000               0.000000000               0.000000000               0.000000000               0.000193251               0.001799102               0.000120998              -0.000152418               0.000650501               0.000498082               0.000000000               0.000000000               0.000000000               0.000000000               0.000196858               0.001876006               0.000091750              -0.000160679               0.000678889               0.000518210               0.000000000               0.000000000               0.000000000               0.000000000               0.000207572               0.001970423               0.000060010              -0.000168463               0.000712956               0.000544493               0.000000000               0.000000000               0.000000000               0.000000000               0.000214578               0.002070849               0.000039707              -0.000178389               0.000749739               0.000571350               0.000000000               0.000000000               0.000000000               0.000000000               0.000215686               0.002168130               0.000029513              -0.000190134               0.000786081               0.000595947               0.000000000               0.000000000               0.000000000               0.000000000               0.000211427               0.002261900               0.000017584              -0.000203452               0.000821776               0.000618324               0.000000000               0.000000000               0.000000000               0.000000000               0.000196651               0.002301106               0.000006268              -0.000213894               0.000838326               0.000624432               0.000000000               0.000000000               0.000000000               0.000000000               0.000461079               0.000359302               0.000346971               0.000127991               0.000077102               0.000205093               0.000000000               0.000000000               0.000000000               0.000000000               0.000452931               0.000559686               0.000407813               0.000099887               0.000153264               0.000253151               0.000000000               0.000000000               0.000000000               0.000000000               0.000399600               0.000840682               0.000438611               0.000044764               0.000265303               0.000310067               0.000000000               0.000000000               0.000000000               0.000000000               0.000363480               0.001038286               0.000403847               0.000006519               0.000343919               0.000350437               0.000000000               0.000000000               0.000000000               0.000000000               0.000337931               0.001182514               0.000350134              -0.000021090               0.000401197               0.000380107               0.000000000               0.000000000               0.000000000               0.000000000               0.000317338               0.001298931               0.000296064              -0.000043365               0.000447428               0.000404063               0.000000000               0.000000000               0.000000000               0.000000000               0.000299674               0.001401794               0.000251241              -0.000062846               0.000488209               0.000425362               0.000000000               0.000000000               0.000000000               0.000000000               0.000281261               0.001496009               0.000216941              -0.000081528               0.000525841               0.000444313               0.000000000               0.000000000               0.000000000               0.000000000               0.000263586               0.001583704               0.000187466              -0.000099118               0.000560936               0.000461818               0.000000000               0.000000000               0.000000000               0.000000000               0.000249006               0.001665364               0.000161371              -0.000114793               0.000593380               0.000478587               0.000000000               0.000000000               0.000000000               0.000000000               0.000238339               0.001745015               0.000137884              -0.000128749               0.000624582               0.000495833               0.000000000               0.000000000               0.000000000               0.000000000               0.000235247               0.001836675               0.000110505              -0.000141366               0.000659341               0.000517975               0.000000000               0.000000000               0.000000000               0.000000000               0.000245351               0.001940703               0.000081532              -0.000150581               0.000697088               0.000546507               0.000000000               0.000000000               0.000000000               0.000000000               0.000261116               0.002051420               0.000059855              -0.000158508               0.000736636               0.000578127               0.000000000               0.000000000               0.000000000               0.000000000               0.000269761               0.002160589               0.000045606              -0.000168913               0.000776493               0.000607581               0.000000000               0.000000000               0.000000000               0.000000000               0.000268129               0.002261129               0.000026963              -0.000182092               0.000814400               0.000632307               0.000000000               0.000000000               0.000000000               0.000000000               0.000255234               0.002302767               0.000011548              -0.000192133               0.000831626               0.000639493               0.000000000               0.000000000               0.000000000               0.000000000               0.000369871               0.000223231               0.000242778               0.000110797               0.000037477               0.000148274               0.000000000               0.000000000               0.000000000               0.000000000               0.000433283               0.000407302               0.000316986               0.000111567               0.000098577               0.000210144               0.000000000               0.000000000               0.000000000               0.000000000               0.000435165               0.000670967               0.000367762               0.000079315               0.000197215               0.000276530               0.000000000               0.000000000               0.000000000               0.000000000               0.000411229               0.000876212               0.000351354               0.000044684               0.000277173               0.000321857               0.000000000               0.000000000               0.000000000               0.000000000               0.000384945               0.001035034               0.000312051               0.000014975               0.000340016               0.000354991               0.000000000               0.000000000               0.000000000               0.000000000               0.000364538               0.001169399               0.000268591              -0.000009474               0.000392954               0.000383480               0.000000000               0.000000000               0.000000000               0.000000000               0.000345851               0.001288259               0.000231482              -0.000031338               0.000439861               0.000408523               0.000000000               0.000000000               0.000000000               0.000000000               0.000330111               0.001396546               0.000202408              -0.000050777               0.000482436               0.000431660               0.000000000               0.000000000               0.000000000               0.000000000               0.000313695               0.001496066               0.000178579              -0.000069373               0.000521808               0.000452435               0.000000000               0.000000000               0.000000000               0.000000000               0.000299522               0.001590860               0.000157111              -0.000086537               0.000559127               0.000472590               0.000000000               0.000000000               0.000000000               0.000000000               0.000286659               0.001689565               0.000136018              -0.000103698               0.000597749               0.000494050               0.000000000               0.000000000               0.000000000               0.000000000               0.000283306               0.001798591               0.000115277              -0.000118584               0.000639052               0.000520469               0.000000000               0.000000000               0.000000000               0.000000000               0.000292390               0.001913189               0.000095583              -0.000129502               0.000680890               0.000551388               0.000000000               0.000000000               0.000000000               0.000000000               0.000309342               0.002030029               0.000076668              -0.000137750               0.000722586               0.000584836               0.000000000               0.000000000               0.000000000               0.000000000               0.000322266               0.002144620               0.000056456              -0.000147228               0.000763942               0.000616714               0.000000000               0.000000000               0.000000000               0.000000000               0.000323781               0.002251259               0.000031190              -0.000159989               0.000803742               0.000643753               0.000000000               0.000000000               0.000000000               0.000000000               0.000314597               0.002297108               0.000014782              -0.000169164               0.000822083               0.000652919               0.000000000               0.000000000               0.000000000               0.000000000               0.000286570               0.000127792               0.000150173               0.000091489               0.000012100               0.000103589               0.000000000               0.000000000               0.000000000               0.000000000               0.000411413               0.000290559               0.000215744               0.000117959               0.000057532               0.000175491               0.000000000               0.000000000               0.000000000               0.000000000               0.000463656               0.000531183               0.000265707               0.000107472               0.000141235               0.000248707               0.000000000               0.000000000               0.000000000               0.000000000               0.000455559               0.000737529               0.000261149               0.000078642               0.000219626               0.000298269               0.000000000               0.000000000               0.000000000               0.000000000               0.000430605               0.000905379               0.000236908               0.000048304               0.000285688               0.000333993               0.000000000               0.000000000               0.000000000               0.000000000               0.000408335               0.001051734               0.000206725               0.000021659               0.000343355               0.000365014               0.000000000               0.000000000               0.000000000               0.000000000               0.000389533               0.001181411               0.000180717              -0.000001602               0.000394334               0.000392732               0.000000000               0.000000000               0.000000000               0.000000000               0.000373829               0.001302296               0.000159906              -0.000022601               0.000441628               0.000419027               0.000000000               0.000000000               0.000000000               0.000000000               0.000358853               0.001417740               0.000142110              -0.000042647               0.000486791               0.000444144               0.000000000               0.000000000               0.000000000               0.000000000               0.000342701               0.001526889               0.000126479              -0.000062348               0.000529741               0.000467392               0.000000000               0.000000000               0.000000000               0.000000000               0.000334486               0.001638855               0.000112827              -0.000079424               0.000572754               0.000493330               0.000000000               0.000000000               0.000000000               0.000000000               0.000334711               0.001759041               0.000100998              -0.000094363               0.000617796               0.000523432               0.000000000               0.000000000               0.000000000               0.000000000               0.000342477               0.001886325               0.000089157              -0.000107361               0.000664556               0.000557194               0.000000000               0.000000000               0.000000000               0.000000000               0.000354262               0.002009108               0.000074520              -0.000118290               0.000709126               0.000590836               0.000000000               0.000000000               0.000000000               0.000000000               0.000365766               0.002121320               0.000053366              -0.000128002               0.000749767               0.000621765               0.000000000               0.000000000               0.000000000               0.000000000               0.000377232               0.002232166               0.000026854              -0.000137558               0.000789901               0.000652342               0.000000000               0.000000000               0.000000000               0.000000000               0.000378222               0.002285398               0.000011979              -0.000143841               0.000809739               0.000665898               0.000000000               0.000000000               0.000000000               0.000000000               0.000228633               0.000075252               0.000070536               0.000076330              -0.000000360               0.000075970               0.000000000               0.000000000               0.000000000               0.000000000               0.000394233               0.000219705               0.000109288               0.000120373               0.000033110               0.000153483               0.000000000               0.000000000               0.000000000               0.000000000               0.000482819               0.000438760               0.000140037               0.000126211               0.000104182               0.000230392               0.000000000               0.000000000               0.000000000               0.000000000               0.000486859               0.000642521               0.000139624               0.000102256               0.000180086               0.000282342               0.000000000               0.000000000               0.000000000               0.000000000               0.000464205               0.000816315               0.000128086               0.000072037               0.000248090               0.000320127               0.000000000               0.000000000               0.000000000               0.000000000               0.000439721               0.000967826               0.000113121               0.000043917               0.000307967               0.000351883               0.000000000               0.000000000               0.000000000               0.000000000               0.000420222               0.001104309               0.000099835               0.000019545               0.000361584               0.000381129               0.000000000               0.000000000               0.000000000               0.000000000               0.000403134               0.001234117               0.000089425              -0.000003090               0.000412398               0.000409309               0.000000000               0.000000000               0.000000000               0.000000000               0.000389464               0.001359628               0.000078050              -0.000023905               0.000461173               0.000437268               0.000000000               0.000000000               0.000000000               0.000000000               0.000378499               0.001482070               0.000069988              -0.000043322               0.000508459               0.000465137               0.000000000               0.000000000               0.000000000               0.000000000               0.000373565               0.001605742               0.000065866              -0.000060631               0.000555452               0.000494821               0.000000000               0.000000000               0.000000000               0.000000000               0.000372988               0.001731136               0.000060621              -0.000076522               0.000602547               0.000526025               0.000000000               0.000000000               0.000000000               0.000000000               0.000376216               0.001858490               0.000054967              -0.000091230               0.000649900               0.000558670               0.000000000               0.000000000               0.000000000               0.000000000               0.000384059               0.001984552               0.000045497              -0.000104047               0.000696193               0.000592146               0.000000000               0.000000000               0.000000000               0.000000000               0.000398992               0.002106031               0.000031875              -0.000113631               0.000739881               0.000626249               0.000000000               0.000000000               0.000000000               0.000000000               0.000425189               0.002225191               0.000016449              -0.000118703               0.000781290               0.000662588               0.000000000               0.000000000               0.000000000               0.000000000               0.000441279               0.002283720               0.000008058              -0.000119985               0.000801228               0.000681242               0.000000000               0.000000000               0.000000000               0.000000000               0.000000000               0.000000000               0.000000000               0.000000000               0.000000000               0.000000000               0.000000000               0.000000000               0.000000000               0.000000000               0.000000000               0.000000000               0.000000000               0.000000000               0.000000000               0.000000000               0.000000000               0.000000000               0.000000000               0.000000000               0.000000000               0.000000000               0.000000000               0.000000000               0.000000000               0.000000000               0.000000000               0.000000000               0.000000000               0.000000000               0.000000000               0.000000000               0.000000000               0.000000000               0.000000000               0.000000000               0.000000000               0.000000000               0.000000000               0.000000000               0.000000000               0.000000000               0.000000000               0.000000000               0.000000000               0.000000000               0.000000000               0.000000000               0.000000000               0.000000000               0.000000000               0.000000000               0.000000000               0.000000000               0.000000000               0.000000000               0.000000000               0.000000000               0.000000000               0.000000000               0.000000000               0.000000000               0.000000000               0.000000000               0.000000000               0.000000000               0.000000000               0.000000000               0.000000000               0.000000000               0.000000000               0.000000000               0.000000000               0.000000000               0.000000000               0.000000000               0.000000000               0.000000000               0.000000000               0.000000000               0.000000000               0.000000000               0.000000000               0.000000000               0.000000000               0.000000000               0.000000000               0.000000000               0.000000000               0.000000000               0.000000000               0.000000000               0.000000000               0.000000000               0.000000000               0.000000000               0.000000000               0.000000000               0.000000000               0.000000000               0.000000000               0.000000000               0.000000000               0.000000000               0.000000000               0.000000000               0.000000000               0.000000000               0.000000000               0.000000000               0.000000000               0.000000000               0.000000000               0.000000000               0.000000000               0.000000000               0.000000000               0.000000000               0.000000000               0.000000000               0.000000000               0.000000000               0.000000000               0.000000000               0.000000000               0.000000000               0.000000000               0.000000000               0.000000000               0.000000000               0.000000000               0.000000000               0.000000000               0.000000000               0.000000000               0.000000000               0.000000000               0.000000000               0.000000000               0.000000000               0.000000000               0.000000000               0.000000000               0.000000000               0.000000000               0.000000000               0.000000000               0.000000000               0.000000000               0.000000000               0.000000000               0.000000000               0.000000000               0.000000000               0.000000000               0.000000000               0.000000000               0.000000000               0.000000000               0.000000000               0.000000000               0.000000000               0.000000000               0.000000000               0.000000000               0.000000000               0.000000000               0.000000000               0.000000000               0.000000000 </DataArray>
</PointData>
</Piece>
</UnstructuredGrid> </VTKFile>
