<?xml version="1.0"?>
<VTKFile type="UnstructuredGrid" version="0.1">
<UnstructuredGrid>
<Piece NumberOfPoints="      1156" NumberOfCells="      1024">
<Points>
<DataArray type="Float64"                                    Name="coordinates"                                                      NumberOfComponents=" 3" format="ascii">
              0.133000000               0.000000000               0.000000000               0.155937500               0.000000000               0.000000000               0.178875000               0.000000000               0.000000000               0.201812500               0.000000000               0.000000000               0.224750000               0.000000000               0.000000000               0.247687500               0.000000000               0.000000000               0.270625000               0.000000000               0.000000000               0.293562500               0.000000000               0.000000000               0.316500000               0.000000000               0.000000000               0.339437500               0.000000000               0.000000000               0.362375000               0.000000000               0.000000000               0.385312500               0.000000000               0.000000000               0.408250000               0.000000000               0.000000000               0.431187500               0.000000000               0.000000000               0.454125000               0.000000000               0.000000000               0.477062500               0.000000000               0.000000000               0.500000000               0.000000000               0.000000000               0.132359569               0.013036280               0.000000000               0.155337096               0.016127762               0.000000000               0.178314623               0.019219245               0.000000000               0.201292150               0.022310727               0.000000000               0.224269676               0.025402210               0.000000000               0.247247203               0.028493692               0.000000000               0.270224730               0.031585175               0.000000000               0.293202257               0.034676657               0.000000000               0.316179784               0.037768140               0.000000000               0.339157311               0.040859622               0.000000000               0.362134838               0.043951105               0.000000000               0.385112365               0.047042587               0.000000000               0.408089892               0.050134070               0.000000000               0.431067419               0.053225552               0.000000000               0.454044946               0.056317035               0.000000000               0.477022473               0.059408517               0.000000000               0.500000000               0.062500000               0.000000000               0.130444442               0.025947013               0.000000000               0.153541665               0.032137825               0.000000000               0.176638887               0.038328636               0.000000000               0.199736109               0.044519448               0.000000000               0.222833332               0.050710260               0.000000000               0.245930554               0.056901071               0.000000000               0.269027776               0.063091883               0.000000000               0.292124999               0.069282695               0.000000000               0.315222221               0.075473506               0.000000000               0.338319444               0.081664318               0.000000000               0.361416666               0.087855130               0.000000000               0.384513888               0.094045942               0.000000000               0.407611111               0.100236753               0.000000000               0.430708333               0.106427565               0.000000000               0.453805555               0.112618377               0.000000000               0.476902778               0.118809188               0.000000000               0.500000000               0.125000000               0.000000000               0.127273065               0.038607862               0.000000000               0.150568498               0.047913621               0.000000000               0.173863932               0.057219379               0.000000000               0.197159365               0.066525138               0.000000000               0.220454798               0.075830897               0.000000000               0.243750232               0.085136655               0.000000000               0.267045665               0.094442414               0.000000000               0.290341099               0.103748172               0.000000000               0.313636532               0.113053931               0.000000000               0.336931966               0.122359690               0.000000000               0.360227399               0.131665448               0.000000000               0.383522833               0.140971207               0.000000000               0.406818266               0.150276966               0.000000000               0.430113700               0.159582724               0.000000000               0.453409133               0.168888483               0.000000000               0.476704567               0.178194241               0.000000000               0.500000000               0.187500000               0.000000000               0.122875978               0.050896897               0.000000000               0.146446229               0.063340840               0.000000000               0.170016481               0.075784784               0.000000000               0.193586732               0.088228728               0.000000000               0.217156983               0.100672672               0.000000000               0.240727235               0.113116616               0.000000000               0.264297486               0.125560560               0.000000000               0.287867738               0.138004504               0.000000000               0.311437989               0.150448448               0.000000000               0.335008240               0.162892392               0.000000000               0.358578492               0.175336336               0.000000000               0.382148743               0.187780280               0.000000000               0.405718994               0.200224224               0.000000000               0.429289246               0.212668168               0.000000000               0.452859497               0.225112112               0.000000000               0.476429749               0.237556056               0.000000000               0.500000000               0.250000000               0.000000000               0.117295528               0.062695766               0.000000000               0.141214558               0.078308531               0.000000000               0.165133587               0.093921295               0.000000000               0.189052617               0.109534060               0.000000000               0.212971646               0.125146824               0.000000000               0.236890676               0.140759589               0.000000000               0.260809705               0.156372354               0.000000000               0.284728735               0.171985118               0.000000000               0.308647764               0.187597883               0.000000000               0.332566794               0.203210648               0.000000000               0.356485823               0.218823412               0.000000000               0.380404853               0.234436177               0.000000000               0.404323882               0.250048941               0.000000000               0.428242912               0.265661706               0.000000000               0.452161941               0.281274471               0.000000000               0.476080971               0.296887235               0.000000000               0.500000000               0.312500000               0.000000000               0.110585458               0.073890841               0.000000000               0.134923867               0.092710163               0.000000000               0.159262276               0.111529486               0.000000000               0.183600685               0.130348808               0.000000000               0.207939094               0.149168131               0.000000000               0.232277503               0.167987453               0.000000000               0.256615912               0.186806776               0.000000000               0.280954320               0.205626098               0.000000000               0.305292729               0.224445420               0.000000000               0.329631138               0.243264743               0.000000000               0.353969547               0.262084065               0.000000000               0.378307956               0.280903388               0.000000000               0.402646365               0.299722710               0.000000000               0.426984773               0.318542033               0.000000000               0.451323182               0.337361355               0.000000000               0.475661591               0.356180678               0.000000000               0.500000000               0.375000000               0.000000000               0.102810390               0.084374307               0.000000000               0.127634741               0.106444663               0.000000000               0.152459092               0.128515018               0.000000000               0.177283442               0.150585374               0.000000000               0.202107793               0.172655730               0.000000000               0.226932143               0.194726086               0.000000000               0.251756494               0.216796442               0.000000000               0.276580845               0.238866798               0.000000000               0.301405195               0.260937153               0.000000000               0.326229546               0.283007509               0.000000000               0.351053896               0.305077865               0.000000000               0.375878247               0.327148221               0.000000000               0.400702598               0.349218577               0.000000000               0.425526948               0.371288933               0.000000000               0.450351299               0.393359288               0.000000000               0.475175649               0.415429644               0.000000000               0.500000000               0.437500000               0.000000000               0.094045202               0.094045202               0.000000000               0.119417377               0.119417377               0.000000000               0.144789552               0.144789552               0.000000000               0.170161727               0.170161727               0.000000000               0.195533901               0.195533901               0.000000000               0.220906076               0.220906076               0.000000000               0.246278251               0.246278251               0.000000000               0.271650426               0.271650426               0.000000000               0.297022601               0.297022601               0.000000000               0.322394776               0.322394776               0.000000000               0.347766951               0.347766951               0.000000000               0.373139126               0.373139126               0.000000000               0.398511300               0.398511300               0.000000000               0.423883475               0.423883475               0.000000000               0.449255650               0.449255650               0.000000000               0.474627825               0.474627825               0.000000000               0.500000000               0.500000000               0.000000000               0.084374307               0.102810390               0.000000000               0.106444663               0.127634741               0.000000000               0.128515018               0.152459092               0.000000000               0.150585374               0.177283442               0.000000000               0.172655730               0.202107793               0.000000000               0.194726086               0.226932143               0.000000000               0.216796442               0.251756494               0.000000000               0.238866798               0.276580845               0.000000000               0.260937153               0.301405195               0.000000000               0.283007509               0.326229546               0.000000000               0.305077865               0.351053896               0.000000000               0.327148221               0.375878247               0.000000000               0.349218577               0.400702598               0.000000000               0.371288933               0.425526948               0.000000000               0.393359288               0.450351299               0.000000000               0.415429644               0.475175649               0.000000000               0.437500000               0.500000000               0.000000000               0.073890841               0.110585458               0.000000000               0.092710163               0.134923867               0.000000000               0.111529486               0.159262276               0.000000000               0.130348808               0.183600685               0.000000000               0.149168131               0.207939094               0.000000000               0.167987453               0.232277503               0.000000000               0.186806776               0.256615912               0.000000000               0.205626098               0.280954320               0.000000000               0.224445420               0.305292729               0.000000000               0.243264743               0.329631138               0.000000000               0.262084065               0.353969547               0.000000000               0.280903388               0.378307956               0.000000000               0.299722710               0.402646365               0.000000000               0.318542033               0.426984773               0.000000000               0.337361355               0.451323182               0.000000000               0.356180678               0.475661591               0.000000000               0.375000000               0.500000000               0.000000000               0.062695766               0.117295528               0.000000000               0.078308531               0.141214558               0.000000000               0.093921295               0.165133587               0.000000000               0.109534060               0.189052617               0.000000000               0.125146824               0.212971646               0.000000000               0.140759589               0.236890676               0.000000000               0.156372354               0.260809705               0.000000000               0.171985118               0.284728735               0.000000000               0.187597883               0.308647764               0.000000000               0.203210648               0.332566794               0.000000000               0.218823412               0.356485823               0.000000000               0.234436177               0.380404853               0.000000000               0.250048941               0.404323882               0.000000000               0.265661706               0.428242912               0.000000000               0.281274471               0.452161941               0.000000000               0.296887235               0.476080971               0.000000000               0.312500000               0.500000000               0.000000000               0.050896897               0.122875978               0.000000000               0.063340840               0.146446229               0.000000000               0.075784784               0.170016481               0.000000000               0.088228728               0.193586732               0.000000000               0.100672672               0.217156983               0.000000000               0.113116616               0.240727235               0.000000000               0.125560560               0.264297486               0.000000000               0.138004504               0.287867738               0.000000000               0.150448448               0.311437989               0.000000000               0.162892392               0.335008240               0.000000000               0.175336336               0.358578492               0.000000000               0.187780280               0.382148743               0.000000000               0.200224224               0.405718994               0.000000000               0.212668168               0.429289246               0.000000000               0.225112112               0.452859497               0.000000000               0.237556056               0.476429749               0.000000000               0.250000000               0.500000000               0.000000000               0.038607862               0.127273065               0.000000000               0.047913621               0.150568498               0.000000000               0.057219379               0.173863932               0.000000000               0.066525138               0.197159365               0.000000000               0.075830897               0.220454798               0.000000000               0.085136655               0.243750232               0.000000000               0.094442414               0.267045665               0.000000000               0.103748172               0.290341099               0.000000000               0.113053931               0.313636532               0.000000000               0.122359690               0.336931966               0.000000000               0.131665448               0.360227399               0.000000000               0.140971207               0.383522833               0.000000000               0.150276966               0.406818266               0.000000000               0.159582724               0.430113700               0.000000000               0.168888483               0.453409133               0.000000000               0.178194241               0.476704567               0.000000000               0.187500000               0.500000000               0.000000000               0.025947013               0.130444442               0.000000000               0.032137825               0.153541665               0.000000000               0.038328636               0.176638887               0.000000000               0.044519448               0.199736109               0.000000000               0.050710260               0.222833332               0.000000000               0.056901071               0.245930554               0.000000000               0.063091883               0.269027776               0.000000000               0.069282695               0.292124999               0.000000000               0.075473506               0.315222221               0.000000000               0.081664318               0.338319444               0.000000000               0.087855130               0.361416666               0.000000000               0.094045942               0.384513888               0.000000000               0.100236753               0.407611111               0.000000000               0.106427565               0.430708333               0.000000000               0.112618377               0.453805555               0.000000000               0.118809188               0.476902778               0.000000000               0.125000000               0.500000000               0.000000000               0.013036280               0.132359569               0.000000000               0.016127762               0.155337096               0.000000000               0.019219245               0.178314623               0.000000000               0.022310727               0.201292150               0.000000000               0.025402210               0.224269676               0.000000000               0.028493692               0.247247203               0.000000000               0.031585175               0.270224730               0.000000000               0.034676657               0.293202257               0.000000000               0.037768140               0.316179784               0.000000000               0.040859622               0.339157311               0.000000000               0.043951105               0.362134838               0.000000000               0.047042587               0.385112365               0.000000000               0.050134070               0.408089892               0.000000000               0.053225552               0.431067419               0.000000000               0.056317035               0.454044946               0.000000000               0.059408517               0.477022473               0.000000000               0.062500000               0.500000000               0.000000000               0.000000000               0.133000000               0.000000000               0.000000000               0.155937500               0.000000000               0.000000000               0.178875000               0.000000000               0.000000000               0.201812500               0.000000000               0.000000000               0.224750000               0.000000000               0.000000000               0.247687500               0.000000000               0.000000000               0.270625000               0.000000000               0.000000000               0.293562500               0.000000000               0.000000000               0.316500000               0.000000000               0.000000000               0.339437500               0.000000000               0.000000000               0.362375000               0.000000000               0.000000000               0.385312500               0.000000000               0.000000000               0.408250000               0.000000000               0.000000000               0.431187500               0.000000000               0.000000000               0.454125000               0.000000000               0.000000000               0.477062500               0.000000000               0.000000000               0.500000000               0.000000000               0.133000000               0.000000000               0.000000000               0.155937500               0.000000000               0.000000000               0.178875000               0.000000000               0.000000000               0.201812500               0.000000000               0.000000000               0.224750000               0.000000000               0.000000000               0.247687500               0.000000000               0.000000000               0.270625000               0.000000000               0.000000000               0.293562500               0.000000000               0.000000000               0.316500000               0.000000000               0.000000000               0.339437500               0.000000000               0.000000000               0.362375000               0.000000000               0.000000000               0.385312500               0.000000000               0.000000000               0.408250000               0.000000000               0.000000000               0.431187500               0.000000000               0.000000000               0.454125000               0.000000000               0.000000000               0.477062500               0.000000000               0.000000000               0.500000000               0.000000000               0.000000000               0.132359569              -0.013036280               0.000000000               0.155337096              -0.016127762               0.000000000               0.178314623              -0.019219245               0.000000000               0.201292150              -0.022310727               0.000000000               0.224269676              -0.025402210               0.000000000               0.247247203              -0.028493692               0.000000000               0.270224730              -0.031585175               0.000000000               0.293202257              -0.034676657               0.000000000               0.316179784              -0.037768140               0.000000000               0.339157311              -0.040859622               0.000000000               0.362134838              -0.043951105               0.000000000               0.385112365              -0.047042587               0.000000000               0.408089892              -0.050134070               0.000000000               0.431067419              -0.053225552               0.000000000               0.454044946              -0.056317035               0.000000000               0.477022473              -0.059408517               0.000000000               0.500000000              -0.062500000               0.000000000               0.130444442              -0.025947013               0.000000000               0.153541665              -0.032137825               0.000000000               0.176638887              -0.038328636               0.000000000               0.199736109              -0.044519448               0.000000000               0.222833332              -0.050710260               0.000000000               0.245930554              -0.056901071               0.000000000               0.269027776              -0.063091883               0.000000000               0.292124999              -0.069282695               0.000000000               0.315222221              -0.075473506               0.000000000               0.338319444              -0.081664318               0.000000000               0.361416666              -0.087855130               0.000000000               0.384513888              -0.094045942               0.000000000               0.407611111              -0.100236753               0.000000000               0.430708333              -0.106427565               0.000000000               0.453805555              -0.112618377               0.000000000               0.476902778              -0.118809188               0.000000000               0.500000000              -0.125000000               0.000000000               0.127273065              -0.038607862               0.000000000               0.150568498              -0.047913621               0.000000000               0.173863932              -0.057219379               0.000000000               0.197159365              -0.066525138               0.000000000               0.220454798              -0.075830897               0.000000000               0.243750232              -0.085136655               0.000000000               0.267045665              -0.094442414               0.000000000               0.290341099              -0.103748172               0.000000000               0.313636532              -0.113053931               0.000000000               0.336931966              -0.122359690               0.000000000               0.360227399              -0.131665448               0.000000000               0.383522833              -0.140971207               0.000000000               0.406818266              -0.150276966               0.000000000               0.430113700              -0.159582724               0.000000000               0.453409133              -0.168888483               0.000000000               0.476704567              -0.178194241               0.000000000               0.500000000              -0.187500000               0.000000000               0.122875978              -0.050896897               0.000000000               0.146446229              -0.063340840               0.000000000               0.170016481              -0.075784784               0.000000000               0.193586732              -0.088228728               0.000000000               0.217156983              -0.100672672               0.000000000               0.240727235              -0.113116616               0.000000000               0.264297486              -0.125560560               0.000000000               0.287867738              -0.138004504               0.000000000               0.311437989              -0.150448448               0.000000000               0.335008240              -0.162892392               0.000000000               0.358578492              -0.175336336               0.000000000               0.382148743              -0.187780280               0.000000000               0.405718994              -0.200224224               0.000000000               0.429289246              -0.212668168               0.000000000               0.452859497              -0.225112112               0.000000000               0.476429749              -0.237556056               0.000000000               0.500000000              -0.250000000               0.000000000               0.117295528              -0.062695766               0.000000000               0.141214558              -0.078308531               0.000000000               0.165133587              -0.093921295               0.000000000               0.189052617              -0.109534060               0.000000000               0.212971646              -0.125146824               0.000000000               0.236890676              -0.140759589               0.000000000               0.260809705              -0.156372354               0.000000000               0.284728735              -0.171985118               0.000000000               0.308647764              -0.187597883               0.000000000               0.332566794              -0.203210648               0.000000000               0.356485823              -0.218823412               0.000000000               0.380404853              -0.234436177               0.000000000               0.404323882              -0.250048941               0.000000000               0.428242912              -0.265661706               0.000000000               0.452161941              -0.281274471               0.000000000               0.476080971              -0.296887235               0.000000000               0.500000000              -0.312500000               0.000000000               0.110585458              -0.073890841               0.000000000               0.134923867              -0.092710163               0.000000000               0.159262276              -0.111529486               0.000000000               0.183600685              -0.130348808               0.000000000               0.207939094              -0.149168131               0.000000000               0.232277503              -0.167987453               0.000000000               0.256615912              -0.186806776               0.000000000               0.280954320              -0.205626098               0.000000000               0.305292729              -0.224445420               0.000000000               0.329631138              -0.243264743               0.000000000               0.353969547              -0.262084065               0.000000000               0.378307956              -0.280903388               0.000000000               0.402646365              -0.299722710               0.000000000               0.426984773              -0.318542033               0.000000000               0.451323182              -0.337361355               0.000000000               0.475661591              -0.356180678               0.000000000               0.500000000              -0.375000000               0.000000000               0.102810390              -0.084374307               0.000000000               0.127634741              -0.106444663               0.000000000               0.152459092              -0.128515018               0.000000000               0.177283442              -0.150585374               0.000000000               0.202107793              -0.172655730               0.000000000               0.226932143              -0.194726086               0.000000000               0.251756494              -0.216796442               0.000000000               0.276580845              -0.238866798               0.000000000               0.301405195              -0.260937153               0.000000000               0.326229546              -0.283007509               0.000000000               0.351053896              -0.305077865               0.000000000               0.375878247              -0.327148221               0.000000000               0.400702598              -0.349218577               0.000000000               0.425526948              -0.371288933               0.000000000               0.450351299              -0.393359288               0.000000000               0.475175649              -0.415429644               0.000000000               0.500000000              -0.437500000               0.000000000               0.094045202              -0.094045202               0.000000000               0.119417377              -0.119417377               0.000000000               0.144789552              -0.144789552               0.000000000               0.170161727              -0.170161727               0.000000000               0.195533901              -0.195533901               0.000000000               0.220906076              -0.220906076               0.000000000               0.246278251              -0.246278251               0.000000000               0.271650426              -0.271650426               0.000000000               0.297022601              -0.297022601               0.000000000               0.322394776              -0.322394776               0.000000000               0.347766951              -0.347766951               0.000000000               0.373139126              -0.373139126               0.000000000               0.398511300              -0.398511300               0.000000000               0.423883475              -0.423883475               0.000000000               0.449255650              -0.449255650               0.000000000               0.474627825              -0.474627825               0.000000000               0.500000000              -0.500000000               0.000000000               0.084374307              -0.102810390               0.000000000               0.106444663              -0.127634741               0.000000000               0.128515018              -0.152459092               0.000000000               0.150585374              -0.177283442               0.000000000               0.172655730              -0.202107793               0.000000000               0.194726086              -0.226932143               0.000000000               0.216796442              -0.251756494               0.000000000               0.238866798              -0.276580845               0.000000000               0.260937153              -0.301405195               0.000000000               0.283007509              -0.326229546               0.000000000               0.305077865              -0.351053896               0.000000000               0.327148221              -0.375878247               0.000000000               0.349218577              -0.400702598               0.000000000               0.371288933              -0.425526948               0.000000000               0.393359288              -0.450351299               0.000000000               0.415429644              -0.475175649               0.000000000               0.437500000              -0.500000000               0.000000000               0.073890841              -0.110585458               0.000000000               0.092710163              -0.134923867               0.000000000               0.111529486              -0.159262276               0.000000000               0.130348808              -0.183600685               0.000000000               0.149168131              -0.207939094               0.000000000               0.167987453              -0.232277503               0.000000000               0.186806776              -0.256615912               0.000000000               0.205626098              -0.280954320               0.000000000               0.224445420              -0.305292729               0.000000000               0.243264743              -0.329631138               0.000000000               0.262084065              -0.353969547               0.000000000               0.280903388              -0.378307956               0.000000000               0.299722710              -0.402646365               0.000000000               0.318542033              -0.426984773               0.000000000               0.337361355              -0.451323182               0.000000000               0.356180678              -0.475661591               0.000000000               0.375000000              -0.500000000               0.000000000               0.062695766              -0.117295528               0.000000000               0.078308531              -0.141214558               0.000000000               0.093921295              -0.165133587               0.000000000               0.109534060              -0.189052617               0.000000000               0.125146824              -0.212971646               0.000000000               0.140759589              -0.236890676               0.000000000               0.156372354              -0.260809705               0.000000000               0.171985118              -0.284728735               0.000000000               0.187597883              -0.308647764               0.000000000               0.203210648              -0.332566794               0.000000000               0.218823412              -0.356485823               0.000000000               0.234436177              -0.380404853               0.000000000               0.250048941              -0.404323882               0.000000000               0.265661706              -0.428242912               0.000000000               0.281274471              -0.452161941               0.000000000               0.296887235              -0.476080971               0.000000000               0.312500000              -0.500000000               0.000000000               0.050896897              -0.122875978               0.000000000               0.063340840              -0.146446229               0.000000000               0.075784784              -0.170016481               0.000000000               0.088228728              -0.193586732               0.000000000               0.100672672              -0.217156983               0.000000000               0.113116616              -0.240727235               0.000000000               0.125560560              -0.264297486               0.000000000               0.138004504              -0.287867738               0.000000000               0.150448448              -0.311437989               0.000000000               0.162892392              -0.335008240               0.000000000               0.175336336              -0.358578492               0.000000000               0.187780280              -0.382148743               0.000000000               0.200224224              -0.405718994               0.000000000               0.212668168              -0.429289246               0.000000000               0.225112112              -0.452859497               0.000000000               0.237556056              -0.476429749               0.000000000               0.250000000              -0.500000000               0.000000000               0.038607862              -0.127273065               0.000000000               0.047913621              -0.150568498               0.000000000               0.057219379              -0.173863932               0.000000000               0.066525138              -0.197159365               0.000000000               0.075830897              -0.220454798               0.000000000               0.085136655              -0.243750232               0.000000000               0.094442414              -0.267045665               0.000000000               0.103748172              -0.290341099               0.000000000               0.113053931              -0.313636532               0.000000000               0.122359690              -0.336931966               0.000000000               0.131665448              -0.360227399               0.000000000               0.140971207              -0.383522833               0.000000000               0.150276966              -0.406818266               0.000000000               0.159582724              -0.430113700               0.000000000               0.168888483              -0.453409133               0.000000000               0.178194241              -0.476704567               0.000000000               0.187500000              -0.500000000               0.000000000               0.025947013              -0.130444442               0.000000000               0.032137825              -0.153541665               0.000000000               0.038328636              -0.176638887               0.000000000               0.044519448              -0.199736109               0.000000000               0.050710260              -0.222833332               0.000000000               0.056901071              -0.245930554               0.000000000               0.063091883              -0.269027776               0.000000000               0.069282695              -0.292124999               0.000000000               0.075473506              -0.315222221               0.000000000               0.081664318              -0.338319444               0.000000000               0.087855130              -0.361416666               0.000000000               0.094045942              -0.384513888               0.000000000               0.100236753              -0.407611111               0.000000000               0.106427565              -0.430708333               0.000000000               0.112618377              -0.453805555               0.000000000               0.118809188              -0.476902778               0.000000000               0.125000000              -0.500000000               0.000000000               0.013036280              -0.132359569               0.000000000               0.016127762              -0.155337096               0.000000000               0.019219245              -0.178314623               0.000000000               0.022310727              -0.201292150               0.000000000               0.025402210              -0.224269676               0.000000000               0.028493692              -0.247247203               0.000000000               0.031585175              -0.270224730               0.000000000               0.034676657              -0.293202257               0.000000000               0.037768140              -0.316179784               0.000000000               0.040859622              -0.339157311               0.000000000               0.043951105              -0.362134838               0.000000000               0.047042587              -0.385112365               0.000000000               0.050134070              -0.408089892               0.000000000               0.053225552              -0.431067419               0.000000000               0.056317035              -0.454044946               0.000000000               0.059408517              -0.477022473               0.000000000               0.062500000              -0.500000000               0.000000000               0.000000000              -0.133000000               0.000000000               0.000000000              -0.155937500               0.000000000               0.000000000              -0.178875000               0.000000000               0.000000000              -0.201812500               0.000000000               0.000000000              -0.224750000               0.000000000               0.000000000              -0.247687500               0.000000000               0.000000000              -0.270625000               0.000000000               0.000000000              -0.293562500               0.000000000               0.000000000              -0.316500000               0.000000000               0.000000000              -0.339437500               0.000000000               0.000000000              -0.362375000               0.000000000               0.000000000              -0.385312500               0.000000000               0.000000000              -0.408250000               0.000000000               0.000000000              -0.431187500               0.000000000               0.000000000              -0.454125000               0.000000000               0.000000000              -0.477062500               0.000000000               0.000000000              -0.500000000               0.000000000              -0.133000000               0.000000000               0.000000000              -0.155937500               0.000000000               0.000000000              -0.178875000               0.000000000               0.000000000              -0.201812500               0.000000000               0.000000000              -0.224750000               0.000000000               0.000000000              -0.247687500               0.000000000               0.000000000              -0.270625000               0.000000000               0.000000000              -0.293562500               0.000000000               0.000000000              -0.316500000               0.000000000               0.000000000              -0.339437500               0.000000000               0.000000000              -0.362375000               0.000000000               0.000000000              -0.385312500               0.000000000               0.000000000              -0.408250000               0.000000000               0.000000000              -0.431187500               0.000000000               0.000000000              -0.454125000               0.000000000               0.000000000              -0.477062500               0.000000000               0.000000000              -0.500000000               0.000000000               0.000000000              -0.132359569              -0.013036280               0.000000000              -0.155337096              -0.016127762               0.000000000              -0.178314623              -0.019219245               0.000000000              -0.201292150              -0.022310727               0.000000000              -0.224269676              -0.025402210               0.000000000              -0.247247203              -0.028493692               0.000000000              -0.270224730              -0.031585175               0.000000000              -0.293202257              -0.034676657               0.000000000              -0.316179784              -0.037768140               0.000000000              -0.339157311              -0.040859622               0.000000000              -0.362134838              -0.043951105               0.000000000              -0.385112365              -0.047042587               0.000000000              -0.408089892              -0.050134070               0.000000000              -0.431067419              -0.053225552               0.000000000              -0.454044946              -0.056317035               0.000000000              -0.477022473              -0.059408517               0.000000000              -0.500000000              -0.062500000               0.000000000              -0.130444442              -0.025947013               0.000000000              -0.153541665              -0.032137825               0.000000000              -0.176638887              -0.038328636               0.000000000              -0.199736109              -0.044519448               0.000000000              -0.222833332              -0.050710260               0.000000000              -0.245930554              -0.056901071               0.000000000              -0.269027776              -0.063091883               0.000000000              -0.292124999              -0.069282695               0.000000000              -0.315222221              -0.075473506               0.000000000              -0.338319444              -0.081664318               0.000000000              -0.361416666              -0.087855130               0.000000000              -0.384513888              -0.094045942               0.000000000              -0.407611111              -0.100236753               0.000000000              -0.430708333              -0.106427565               0.000000000              -0.453805555              -0.112618377               0.000000000              -0.476902778              -0.118809188               0.000000000              -0.500000000              -0.125000000               0.000000000              -0.127273065              -0.038607862               0.000000000              -0.150568498              -0.047913621               0.000000000              -0.173863932              -0.057219379               0.000000000              -0.197159365              -0.066525138               0.000000000              -0.220454798              -0.075830897               0.000000000              -0.243750232              -0.085136655               0.000000000              -0.267045665              -0.094442414               0.000000000              -0.290341099              -0.103748172               0.000000000              -0.313636532              -0.113053931               0.000000000              -0.336931966              -0.122359690               0.000000000              -0.360227399              -0.131665448               0.000000000              -0.383522833              -0.140971207               0.000000000              -0.406818266              -0.150276966               0.000000000              -0.430113700              -0.159582724               0.000000000              -0.453409133              -0.168888483               0.000000000              -0.476704567              -0.178194241               0.000000000              -0.500000000              -0.187500000               0.000000000              -0.122875978              -0.050896897               0.000000000              -0.146446229              -0.063340840               0.000000000              -0.170016481              -0.075784784               0.000000000              -0.193586732              -0.088228728               0.000000000              -0.217156983              -0.100672672               0.000000000              -0.240727235              -0.113116616               0.000000000              -0.264297486              -0.125560560               0.000000000              -0.287867738              -0.138004504               0.000000000              -0.311437989              -0.150448448               0.000000000              -0.335008240              -0.162892392               0.000000000              -0.358578492              -0.175336336               0.000000000              -0.382148743              -0.187780280               0.000000000              -0.405718994              -0.200224224               0.000000000              -0.429289246              -0.212668168               0.000000000              -0.452859497              -0.225112112               0.000000000              -0.476429749              -0.237556056               0.000000000              -0.500000000              -0.250000000               0.000000000              -0.117295528              -0.062695766               0.000000000              -0.141214558              -0.078308531               0.000000000              -0.165133587              -0.093921295               0.000000000              -0.189052617              -0.109534060               0.000000000              -0.212971646              -0.125146824               0.000000000              -0.236890676              -0.140759589               0.000000000              -0.260809705              -0.156372354               0.000000000              -0.284728735              -0.171985118               0.000000000              -0.308647764              -0.187597883               0.000000000              -0.332566794              -0.203210648               0.000000000              -0.356485823              -0.218823412               0.000000000              -0.380404853              -0.234436177               0.000000000              -0.404323882              -0.250048941               0.000000000              -0.428242912              -0.265661706               0.000000000              -0.452161941              -0.281274471               0.000000000              -0.476080971              -0.296887235               0.000000000              -0.500000000              -0.312500000               0.000000000              -0.110585458              -0.073890841               0.000000000              -0.134923867              -0.092710163               0.000000000              -0.159262276              -0.111529486               0.000000000              -0.183600685              -0.130348808               0.000000000              -0.207939094              -0.149168131               0.000000000              -0.232277503              -0.167987453               0.000000000              -0.256615912              -0.186806776               0.000000000              -0.280954320              -0.205626098               0.000000000              -0.305292729              -0.224445420               0.000000000              -0.329631138              -0.243264743               0.000000000              -0.353969547              -0.262084065               0.000000000              -0.378307956              -0.280903388               0.000000000              -0.402646365              -0.299722710               0.000000000              -0.426984773              -0.318542033               0.000000000              -0.451323182              -0.337361355               0.000000000              -0.475661591              -0.356180678               0.000000000              -0.500000000              -0.375000000               0.000000000              -0.102810390              -0.084374307               0.000000000              -0.127634741              -0.106444663               0.000000000              -0.152459092              -0.128515018               0.000000000              -0.177283442              -0.150585374               0.000000000              -0.202107793              -0.172655730               0.000000000              -0.226932143              -0.194726086               0.000000000              -0.251756494              -0.216796442               0.000000000              -0.276580845              -0.238866798               0.000000000              -0.301405195              -0.260937153               0.000000000              -0.326229546              -0.283007509               0.000000000              -0.351053896              -0.305077865               0.000000000              -0.375878247              -0.327148221               0.000000000              -0.400702598              -0.349218577               0.000000000              -0.425526948              -0.371288933               0.000000000              -0.450351299              -0.393359288               0.000000000              -0.475175649              -0.415429644               0.000000000              -0.500000000              -0.437500000               0.000000000              -0.094045202              -0.094045202               0.000000000              -0.119417377              -0.119417377               0.000000000              -0.144789552              -0.144789552               0.000000000              -0.170161727              -0.170161727               0.000000000              -0.195533901              -0.195533901               0.000000000              -0.220906076              -0.220906076               0.000000000              -0.246278251              -0.246278251               0.000000000              -0.271650426              -0.271650426               0.000000000              -0.297022601              -0.297022601               0.000000000              -0.322394776              -0.322394776               0.000000000              -0.347766951              -0.347766951               0.000000000              -0.373139126              -0.373139126               0.000000000              -0.398511300              -0.398511300               0.000000000              -0.423883475              -0.423883475               0.000000000              -0.449255650              -0.449255650               0.000000000              -0.474627825              -0.474627825               0.000000000              -0.500000000              -0.500000000               0.000000000              -0.084374307              -0.102810390               0.000000000              -0.106444663              -0.127634741               0.000000000              -0.128515018              -0.152459092               0.000000000              -0.150585374              -0.177283442               0.000000000              -0.172655730              -0.202107793               0.000000000              -0.194726086              -0.226932143               0.000000000              -0.216796442              -0.251756494               0.000000000              -0.238866798              -0.276580845               0.000000000              -0.260937153              -0.301405195               0.000000000              -0.283007509              -0.326229546               0.000000000              -0.305077865              -0.351053896               0.000000000              -0.327148221              -0.375878247               0.000000000              -0.349218577              -0.400702598               0.000000000              -0.371288933              -0.425526948               0.000000000              -0.393359288              -0.450351299               0.000000000              -0.415429644              -0.475175649               0.000000000              -0.437500000              -0.500000000               0.000000000              -0.073890841              -0.110585458               0.000000000              -0.092710163              -0.134923867               0.000000000              -0.111529486              -0.159262276               0.000000000              -0.130348808              -0.183600685               0.000000000              -0.149168131              -0.207939094               0.000000000              -0.167987453              -0.232277503               0.000000000              -0.186806776              -0.256615912               0.000000000              -0.205626098              -0.280954320               0.000000000              -0.224445420              -0.305292729               0.000000000              -0.243264743              -0.329631138               0.000000000              -0.262084065              -0.353969547               0.000000000              -0.280903388              -0.378307956               0.000000000              -0.299722710              -0.402646365               0.000000000              -0.318542033              -0.426984773               0.000000000              -0.337361355              -0.451323182               0.000000000              -0.356180678              -0.475661591               0.000000000              -0.375000000              -0.500000000               0.000000000              -0.062695766              -0.117295528               0.000000000              -0.078308531              -0.141214558               0.000000000              -0.093921295              -0.165133587               0.000000000              -0.109534060              -0.189052617               0.000000000              -0.125146824              -0.212971646               0.000000000              -0.140759589              -0.236890676               0.000000000              -0.156372354              -0.260809705               0.000000000              -0.171985118              -0.284728735               0.000000000              -0.187597883              -0.308647764               0.000000000              -0.203210648              -0.332566794               0.000000000              -0.218823412              -0.356485823               0.000000000              -0.234436177              -0.380404853               0.000000000              -0.250048941              -0.404323882               0.000000000              -0.265661706              -0.428242912               0.000000000              -0.281274471              -0.452161941               0.000000000              -0.296887235              -0.476080971               0.000000000              -0.312500000              -0.500000000               0.000000000              -0.050896897              -0.122875978               0.000000000              -0.063340840              -0.146446229               0.000000000              -0.075784784              -0.170016481               0.000000000              -0.088228728              -0.193586732               0.000000000              -0.100672672              -0.217156983               0.000000000              -0.113116616              -0.240727235               0.000000000              -0.125560560              -0.264297486               0.000000000              -0.138004504              -0.287867738               0.000000000              -0.150448448              -0.311437989               0.000000000              -0.162892392              -0.335008240               0.000000000              -0.175336336              -0.358578492               0.000000000              -0.187780280              -0.382148743               0.000000000              -0.200224224              -0.405718994               0.000000000              -0.212668168              -0.429289246               0.000000000              -0.225112112              -0.452859497               0.000000000              -0.237556056              -0.476429749               0.000000000              -0.250000000              -0.500000000               0.000000000              -0.038607862              -0.127273065               0.000000000              -0.047913621              -0.150568498               0.000000000              -0.057219379              -0.173863932               0.000000000              -0.066525138              -0.197159365               0.000000000              -0.075830897              -0.220454798               0.000000000              -0.085136655              -0.243750232               0.000000000              -0.094442414              -0.267045665               0.000000000              -0.103748172              -0.290341099               0.000000000              -0.113053931              -0.313636532               0.000000000              -0.122359690              -0.336931966               0.000000000              -0.131665448              -0.360227399               0.000000000              -0.140971207              -0.383522833               0.000000000              -0.150276966              -0.406818266               0.000000000              -0.159582724              -0.430113700               0.000000000              -0.168888483              -0.453409133               0.000000000              -0.178194241              -0.476704567               0.000000000              -0.187500000              -0.500000000               0.000000000              -0.025947013              -0.130444442               0.000000000              -0.032137825              -0.153541665               0.000000000              -0.038328636              -0.176638887               0.000000000              -0.044519448              -0.199736109               0.000000000              -0.050710260              -0.222833332               0.000000000              -0.056901071              -0.245930554               0.000000000              -0.063091883              -0.269027776               0.000000000              -0.069282695              -0.292124999               0.000000000              -0.075473506              -0.315222221               0.000000000              -0.081664318              -0.338319444               0.000000000              -0.087855130              -0.361416666               0.000000000              -0.094045942              -0.384513888               0.000000000              -0.100236753              -0.407611111               0.000000000              -0.106427565              -0.430708333               0.000000000              -0.112618377              -0.453805555               0.000000000              -0.118809188              -0.476902778               0.000000000              -0.125000000              -0.500000000               0.000000000              -0.013036280              -0.132359569               0.000000000              -0.016127762              -0.155337096               0.000000000              -0.019219245              -0.178314623               0.000000000              -0.022310727              -0.201292150               0.000000000              -0.025402210              -0.224269676               0.000000000              -0.028493692              -0.247247203               0.000000000              -0.031585175              -0.270224730               0.000000000              -0.034676657              -0.293202257               0.000000000              -0.037768140              -0.316179784               0.000000000              -0.040859622              -0.339157311               0.000000000              -0.043951105              -0.362134838               0.000000000              -0.047042587              -0.385112365               0.000000000              -0.050134070              -0.408089892               0.000000000              -0.053225552              -0.431067419               0.000000000              -0.056317035              -0.454044946               0.000000000              -0.059408517              -0.477022473               0.000000000              -0.062500000              -0.500000000               0.000000000               0.000000000              -0.133000000               0.000000000               0.000000000              -0.155937500               0.000000000               0.000000000              -0.178875000               0.000000000               0.000000000              -0.201812500               0.000000000               0.000000000              -0.224750000               0.000000000               0.000000000              -0.247687500               0.000000000               0.000000000              -0.270625000               0.000000000               0.000000000              -0.293562500               0.000000000               0.000000000              -0.316500000               0.000000000               0.000000000              -0.339437500               0.000000000               0.000000000              -0.362375000               0.000000000               0.000000000              -0.385312500               0.000000000               0.000000000              -0.408250000               0.000000000               0.000000000              -0.431187500               0.000000000               0.000000000              -0.454125000               0.000000000               0.000000000              -0.477062500               0.000000000               0.000000000              -0.500000000               0.000000000              -0.133000000               0.000000000               0.000000000              -0.155937500               0.000000000               0.000000000              -0.178875000               0.000000000               0.000000000              -0.201812500               0.000000000               0.000000000              -0.224750000               0.000000000               0.000000000              -0.247687500               0.000000000               0.000000000              -0.270625000               0.000000000               0.000000000              -0.293562500               0.000000000               0.000000000              -0.316500000               0.000000000               0.000000000              -0.339437500               0.000000000               0.000000000              -0.362375000               0.000000000               0.000000000              -0.385312500               0.000000000               0.000000000              -0.408250000               0.000000000               0.000000000              -0.431187500               0.000000000               0.000000000              -0.454125000               0.000000000               0.000000000              -0.477062500               0.000000000               0.000000000              -0.500000000               0.000000000               0.000000000              -0.132359569               0.013036280               0.000000000              -0.155337096               0.016127762               0.000000000              -0.178314623               0.019219245               0.000000000              -0.201292150               0.022310727               0.000000000              -0.224269676               0.025402210               0.000000000              -0.247247203               0.028493692               0.000000000              -0.270224730               0.031585175               0.000000000              -0.293202257               0.034676657               0.000000000              -0.316179784               0.037768140               0.000000000              -0.339157311               0.040859622               0.000000000              -0.362134838               0.043951105               0.000000000              -0.385112365               0.047042587               0.000000000              -0.408089892               0.050134070               0.000000000              -0.431067419               0.053225552               0.000000000              -0.454044946               0.056317035               0.000000000              -0.477022473               0.059408517               0.000000000              -0.500000000               0.062500000               0.000000000              -0.130444442               0.025947013               0.000000000              -0.153541665               0.032137825               0.000000000              -0.176638887               0.038328636               0.000000000              -0.199736109               0.044519448               0.000000000              -0.222833332               0.050710260               0.000000000              -0.245930554               0.056901071               0.000000000              -0.269027776               0.063091883               0.000000000              -0.292124999               0.069282695               0.000000000              -0.315222221               0.075473506               0.000000000              -0.338319444               0.081664318               0.000000000              -0.361416666               0.087855130               0.000000000              -0.384513888               0.094045942               0.000000000              -0.407611111               0.100236753               0.000000000              -0.430708333               0.106427565               0.000000000              -0.453805555               0.112618377               0.000000000              -0.476902778               0.118809188               0.000000000              -0.500000000               0.125000000               0.000000000              -0.127273065               0.038607862               0.000000000              -0.150568498               0.047913621               0.000000000              -0.173863932               0.057219379               0.000000000              -0.197159365               0.066525138               0.000000000              -0.220454798               0.075830897               0.000000000              -0.243750232               0.085136655               0.000000000              -0.267045665               0.094442414               0.000000000              -0.290341099               0.103748172               0.000000000              -0.313636532               0.113053931               0.000000000              -0.336931966               0.122359690               0.000000000              -0.360227399               0.131665448               0.000000000              -0.383522833               0.140971207               0.000000000              -0.406818266               0.150276966               0.000000000              -0.430113700               0.159582724               0.000000000              -0.453409133               0.168888483               0.000000000              -0.476704567               0.178194241               0.000000000              -0.500000000               0.187500000               0.000000000              -0.122875978               0.050896897               0.000000000              -0.146446229               0.063340840               0.000000000              -0.170016481               0.075784784               0.000000000              -0.193586732               0.088228728               0.000000000              -0.217156983               0.100672672               0.000000000              -0.240727235               0.113116616               0.000000000              -0.264297486               0.125560560               0.000000000              -0.287867738               0.138004504               0.000000000              -0.311437989               0.150448448               0.000000000              -0.335008240               0.162892392               0.000000000              -0.358578492               0.175336336               0.000000000              -0.382148743               0.187780280               0.000000000              -0.405718994               0.200224224               0.000000000              -0.429289246               0.212668168               0.000000000              -0.452859497               0.225112112               0.000000000              -0.476429749               0.237556056               0.000000000              -0.500000000               0.250000000               0.000000000              -0.117295528               0.062695766               0.000000000              -0.141214558               0.078308531               0.000000000              -0.165133587               0.093921295               0.000000000              -0.189052617               0.109534060               0.000000000              -0.212971646               0.125146824               0.000000000              -0.236890676               0.140759589               0.000000000              -0.260809705               0.156372354               0.000000000              -0.284728735               0.171985118               0.000000000              -0.308647764               0.187597883               0.000000000              -0.332566794               0.203210648               0.000000000              -0.356485823               0.218823412               0.000000000              -0.380404853               0.234436177               0.000000000              -0.404323882               0.250048941               0.000000000              -0.428242912               0.265661706               0.000000000              -0.452161941               0.281274471               0.000000000              -0.476080971               0.296887235               0.000000000              -0.500000000               0.312500000               0.000000000              -0.110585458               0.073890841               0.000000000              -0.134923867               0.092710163               0.000000000              -0.159262276               0.111529486               0.000000000              -0.183600685               0.130348808               0.000000000              -0.207939094               0.149168131               0.000000000              -0.232277503               0.167987453               0.000000000              -0.256615912               0.186806776               0.000000000              -0.280954320               0.205626098               0.000000000              -0.305292729               0.224445420               0.000000000              -0.329631138               0.243264743               0.000000000              -0.353969547               0.262084065               0.000000000              -0.378307956               0.280903388               0.000000000              -0.402646365               0.299722710               0.000000000              -0.426984773               0.318542033               0.000000000              -0.451323182               0.337361355               0.000000000              -0.475661591               0.356180678               0.000000000              -0.500000000               0.375000000               0.000000000              -0.102810390               0.084374307               0.000000000              -0.127634741               0.106444663               0.000000000              -0.152459092               0.128515018               0.000000000              -0.177283442               0.150585374               0.000000000              -0.202107793               0.172655730               0.000000000              -0.226932143               0.194726086               0.000000000              -0.251756494               0.216796442               0.000000000              -0.276580845               0.238866798               0.000000000              -0.301405195               0.260937153               0.000000000              -0.326229546               0.283007509               0.000000000              -0.351053896               0.305077865               0.000000000              -0.375878247               0.327148221               0.000000000              -0.400702598               0.349218577               0.000000000              -0.425526948               0.371288933               0.000000000              -0.450351299               0.393359288               0.000000000              -0.475175649               0.415429644               0.000000000              -0.500000000               0.437500000               0.000000000              -0.094045202               0.094045202               0.000000000              -0.119417377               0.119417377               0.000000000              -0.144789552               0.144789552               0.000000000              -0.170161727               0.170161727               0.000000000              -0.195533901               0.195533901               0.000000000              -0.220906076               0.220906076               0.000000000              -0.246278251               0.246278251               0.000000000              -0.271650426               0.271650426               0.000000000              -0.297022601               0.297022601               0.000000000              -0.322394776               0.322394776               0.000000000              -0.347766951               0.347766951               0.000000000              -0.373139126               0.373139126               0.000000000              -0.398511300               0.398511300               0.000000000              -0.423883475               0.423883475               0.000000000              -0.449255650               0.449255650               0.000000000              -0.474627825               0.474627825               0.000000000              -0.500000000               0.500000000               0.000000000              -0.084374307               0.102810390               0.000000000              -0.106444663               0.127634741               0.000000000              -0.128515018               0.152459092               0.000000000              -0.150585374               0.177283442               0.000000000              -0.172655730               0.202107793               0.000000000              -0.194726086               0.226932143               0.000000000              -0.216796442               0.251756494               0.000000000              -0.238866798               0.276580845               0.000000000              -0.260937153               0.301405195               0.000000000              -0.283007509               0.326229546               0.000000000              -0.305077865               0.351053896               0.000000000              -0.327148221               0.375878247               0.000000000              -0.349218577               0.400702598               0.000000000              -0.371288933               0.425526948               0.000000000              -0.393359288               0.450351299               0.000000000              -0.415429644               0.475175649               0.000000000              -0.437500000               0.500000000               0.000000000              -0.073890841               0.110585458               0.000000000              -0.092710163               0.134923867               0.000000000              -0.111529486               0.159262276               0.000000000              -0.130348808               0.183600685               0.000000000              -0.149168131               0.207939094               0.000000000              -0.167987453               0.232277503               0.000000000              -0.186806776               0.256615912               0.000000000              -0.205626098               0.280954320               0.000000000              -0.224445420               0.305292729               0.000000000              -0.243264743               0.329631138               0.000000000              -0.262084065               0.353969547               0.000000000              -0.280903388               0.378307956               0.000000000              -0.299722710               0.402646365               0.000000000              -0.318542033               0.426984773               0.000000000              -0.337361355               0.451323182               0.000000000              -0.356180678               0.475661591               0.000000000              -0.375000000               0.500000000               0.000000000              -0.062695766               0.117295528               0.000000000              -0.078308531               0.141214558               0.000000000              -0.093921295               0.165133587               0.000000000              -0.109534060               0.189052617               0.000000000              -0.125146824               0.212971646               0.000000000              -0.140759589               0.236890676               0.000000000              -0.156372354               0.260809705               0.000000000              -0.171985118               0.284728735               0.000000000              -0.187597883               0.308647764               0.000000000              -0.203210648               0.332566794               0.000000000              -0.218823412               0.356485823               0.000000000              -0.234436177               0.380404853               0.000000000              -0.250048941               0.404323882               0.000000000              -0.265661706               0.428242912               0.000000000              -0.281274471               0.452161941               0.000000000              -0.296887235               0.476080971               0.000000000              -0.312500000               0.500000000               0.000000000              -0.050896897               0.122875978               0.000000000              -0.063340840               0.146446229               0.000000000              -0.075784784               0.170016481               0.000000000              -0.088228728               0.193586732               0.000000000              -0.100672672               0.217156983               0.000000000              -0.113116616               0.240727235               0.000000000              -0.125560560               0.264297486               0.000000000              -0.138004504               0.287867738               0.000000000              -0.150448448               0.311437989               0.000000000              -0.162892392               0.335008240               0.000000000              -0.175336336               0.358578492               0.000000000              -0.187780280               0.382148743               0.000000000              -0.200224224               0.405718994               0.000000000              -0.212668168               0.429289246               0.000000000              -0.225112112               0.452859497               0.000000000              -0.237556056               0.476429749               0.000000000              -0.250000000               0.500000000               0.000000000              -0.038607862               0.127273065               0.000000000              -0.047913621               0.150568498               0.000000000              -0.057219379               0.173863932               0.000000000              -0.066525138               0.197159365               0.000000000              -0.075830897               0.220454798               0.000000000              -0.085136655               0.243750232               0.000000000              -0.094442414               0.267045665               0.000000000              -0.103748172               0.290341099               0.000000000              -0.113053931               0.313636532               0.000000000              -0.122359690               0.336931966               0.000000000              -0.131665448               0.360227399               0.000000000              -0.140971207               0.383522833               0.000000000              -0.150276966               0.406818266               0.000000000              -0.159582724               0.430113700               0.000000000              -0.168888483               0.453409133               0.000000000              -0.178194241               0.476704567               0.000000000              -0.187500000               0.500000000               0.000000000              -0.025947013               0.130444442               0.000000000              -0.032137825               0.153541665               0.000000000              -0.038328636               0.176638887               0.000000000              -0.044519448               0.199736109               0.000000000              -0.050710260               0.222833332               0.000000000              -0.056901071               0.245930554               0.000000000              -0.063091883               0.269027776               0.000000000              -0.069282695               0.292124999               0.000000000              -0.075473506               0.315222221               0.000000000              -0.081664318               0.338319444               0.000000000              -0.087855130               0.361416666               0.000000000              -0.094045942               0.384513888               0.000000000              -0.100236753               0.407611111               0.000000000              -0.106427565               0.430708333               0.000000000              -0.112618377               0.453805555               0.000000000              -0.118809188               0.476902778               0.000000000              -0.125000000               0.500000000               0.000000000              -0.013036280               0.132359569               0.000000000              -0.016127762               0.155337096               0.000000000              -0.019219245               0.178314623               0.000000000              -0.022310727               0.201292150               0.000000000              -0.025402210               0.224269676               0.000000000              -0.028493692               0.247247203               0.000000000              -0.031585175               0.270224730               0.000000000              -0.034676657               0.293202257               0.000000000              -0.037768140               0.316179784               0.000000000              -0.040859622               0.339157311               0.000000000              -0.043951105               0.362134838               0.000000000              -0.047042587               0.385112365               0.000000000              -0.050134070               0.408089892               0.000000000              -0.053225552               0.431067419               0.000000000              -0.056317035               0.454044946               0.000000000              -0.059408517               0.477022473               0.000000000              -0.062500000               0.500000000               0.000000000               0.000000000               0.133000000               0.000000000               0.000000000               0.155937500               0.000000000               0.000000000               0.178875000               0.000000000               0.000000000               0.201812500               0.000000000               0.000000000               0.224750000               0.000000000               0.000000000               0.247687500               0.000000000               0.000000000               0.270625000               0.000000000               0.000000000               0.293562500               0.000000000               0.000000000               0.316500000               0.000000000               0.000000000               0.339437500               0.000000000               0.000000000               0.362375000               0.000000000               0.000000000               0.385312500               0.000000000               0.000000000               0.408250000               0.000000000               0.000000000               0.431187500               0.000000000               0.000000000               0.454125000               0.000000000               0.000000000               0.477062500               0.000000000               0.000000000               0.500000000               0.000000000 </DataArray>
</Points>
<Cells>
<DataArray type="Int32"                                    Name="connectivity"                                                      NumberOfComponents=" 1" format="ascii">
         0          1         18         17          1          2         19         18          2          3         20         19          3          4         21         20          4          5         22         21          5          6         23         22          6          7         24         23          7          8         25         24          8          9         26         25          9         10         27         26         10         11         28         27         11         12         29         28         12         13         30         29         13         14         31         30         14         15         32         31         15         16         33         32         17         18         35         34         18         19         36         35         19         20         37         36         20         21         38         37         21         22         39         38         22         23         40         39         23         24         41         40         24         25         42         41         25         26         43         42         26         27         44         43         27         28         45         44         28         29         46         45         29         30         47         46         30         31         48         47         31         32         49         48         32         33         50         49         34         35         52         51         35         36         53         52         36         37         54         53         37         38         55         54         38         39         56         55         39         40         57         56         40         41         58         57         41         42         59         58         42         43         60         59         43         44         61         60         44         45         62         61         45         46         63         62         46         47         64         63         47         48         65         64         48         49         66         65         49         50         67         66         51         52         69         68         52         53         70         69         53         54         71         70         54         55         72         71         55         56         73         72         56         57         74         73         57         58         75         74         58         59         76         75         59         60         77         76         60         61         78         77         61         62         79         78         62         63         80         79         63         64         81         80         64         65         82         81         65         66         83         82         66         67         84         83         68         69         86         85         69         70         87         86         70         71         88         87         71         72         89         88         72         73         90         89         73         74         91         90         74         75         92         91         75         76         93         92         76         77         94         93         77         78         95         94         78         79         96         95         79         80         97         96         80         81         98         97         81         82         99         98         82         83        100         99         83         84        101        100         85         86        103        102         86         87        104        103         87         88        105        104         88         89        106        105         89         90        107        106         90         91        108        107         91         92        109        108         92         93        110        109         93         94        111        110         94         95        112        111         95         96        113        112         96         97        114        113         97         98        115        114         98         99        116        115         99        100        117        116        100        101        118        117        102        103        120        119        103        104        121        120        104        105        122        121        105        106        123        122        106        107        124        123        107        108        125        124        108        109        126        125        109        110        127        126        110        111        128        127        111        112        129        128        112        113        130        129        113        114        131        130        114        115        132        131        115        116        133        132        116        117        134        133        117        118        135        134        119        120        137        136        120        121        138        137        121        122        139        138        122        123        140        139        123        124        141        140        124        125        142        141        125        126        143        142        126        127        144        143        127        128        145        144        128        129        146        145        129        130        147        146        130        131        148        147        131        132        149        148        132        133        150        149        133        134        151        150        134        135        152        151        136        137        154        153        137        138        155        154        138        139        156        155        139        140        157        156        140        141        158        157        141        142        159        158        142        143        160        159        143        144        161        160        144        145        162        161        145        146        163        162        146        147        164        163        147        148        165        164        148        149        166        165        149        150        167        166        150        151        168        167        151        152        169        168        153        154        171        170        154        155        172        171        155        156        173        172        156        157        174        173        157        158        175        174        158        159        176        175        159        160        177        176        160        161        178        177        161        162        179        178        162        163        180        179        163        164        181        180        164        165        182        181        165        166        183        182        166        167        184        183        167        168        185        184        168        169        186        185        170        171        188        187        171        172        189        188        172        173        190        189        173        174        191        190        174        175        192        191        175        176        193        192        176        177        194        193        177        178        195        194        178        179        196        195        179        180        197        196        180        181        198        197        181        182        199        198        182        183        200        199        183        184        201        200        184        185        202        201        185        186        203        202        187        188        205        204        188        189        206        205        189        190        207        206        190        191        208        207        191        192        209        208        192        193        210        209        193        194        211        210        194        195        212        211        195        196        213        212        196        197        214        213        197        198        215        214        198        199        216        215        199        200        217        216        200        201        218        217        201        202        219        218        202        203        220        219        204        205        222        221        205        206        223        222        206        207        224        223        207        208        225        224        208        209        226        225        209        210        227        226        210        211        228        227        211        212        229        228        212        213        230        229        213        214        231        230        214        215        232        231        215        216        233        232        216        217        234        233        217        218        235        234        218        219        236        235        219        220        237        236        221        222        239        238        222        223        240        239        223        224        241        240        224        225        242        241        225        226        243        242        226        227        244        243        227        228        245        244        228        229        246        245        229        230        247        246        230        231        248        247        231        232        249        248        232        233        250        249        233        234        251        250        234        235        252        251        235        236        253        252        236        237        254        253        238        239        256        255        239        240        257        256        240        241        258        257        241        242        259        258        242        243        260        259        243        244        261        260        244        245        262        261        245        246        263        262        246        247        264        263        247        248        265        264        248        249        266        265        249        250        267        266        250        251        268        267        251        252        269        268        252        253        270        269        253        254        271        270        255        256        273        272        256        257        274        273        257        258        275        274        258        259        276        275        259        260        277        276        260        261        278        277        261        262        279        278        262        263        280        279        263        264        281        280        264        265        282        281        265        266        283        282        266        267        284        283        267        268        285        284        268        269        286        285        269        270        287        286        270        271        288        287        306        307          1          0        307        308          2          1        308        309          3          2        309        310          4          3        310        311          5          4        311        312          6          5        312        313          7          6        313        314          8          7        314        315          9          8        315        316         10          9        316        317         11         10        317        318         12         11        318        319         13         12        319        320         14         13        320        321         15         14        321        322         16         15        323        324        307        306        324        325        308        307        325        326        309        308        326        327        310        309        327        328        311        310        328        329        312        311        329        330        313        312        330        331        314        313        331        332        315        314        332        333        316        315        333        334        317        316        334        335        318        317        335        336        319        318        336        337        320        319        337        338        321        320        338        339        322        321        340        341        324        323        341        342        325        324        342        343        326        325        343        344        327        326        344        345        328        327        345        346        329        328        346        347        330        329        347        348        331        330        348        349        332        331        349        350        333        332        350        351        334        333        351        352        335        334        352        353        336        335        353        354        337        336        354        355        338        337        355        356        339        338        357        358        341        340        358        359        342        341        359        360        343        342        360        361        344        343        361        362        345        344        362        363        346        345        363        364        347        346        364        365        348        347        365        366        349        348        366        367        350        349        367        368        351        350        368        369        352        351        369        370        353        352        370        371        354        353        371        372        355        354        372        373        356        355        374        375        358        357        375        376        359        358        376        377        360        359        377        378        361        360        378        379        362        361        379        380        363        362        380        381        364        363        381        382        365        364        382        383        366        365        383        384        367        366        384        385        368        367        385        386        369        368        386        387        370        369        387        388        371        370        388        389        372        371        389        390        373        372        391        392        375        374        392        393        376        375        393        394        377        376        394        395        378        377        395        396        379        378        396        397        380        379        397        398        381        380        398        399        382        381        399        400        383        382        400        401        384        383        401        402        385        384        402        403        386        385        403        404        387        386        404        405        388        387        405        406        389        388        406        407        390        389        408        409        392        391        409        410        393        392        410        411        394        393        411        412        395        394        412        413        396        395        413        414        397        396        414        415        398        397        415        416        399        398        416        417        400        399        417        418        401        400        418        419        402        401        419        420        403        402        420        421        404        403        421        422        405        404        422        423        406        405        423        424        407        406        425        426        409        408        426        427        410        409        427        428        411        410        428        429        412        411        429        430        413        412        430        431        414        413        431        432        415        414        432        433        416        415        433        434        417        416        434        435        418        417        435        436        419        418        436        437        420        419        437        438        421        420        438        439        422        421        439        440        423        422        440        441        424        423        442        443        426        425        443        444        427        426        444        445        428        427        445        446        429        428        446        447        430        429        447        448        431        430        448        449        432        431        449        450        433        432        450        451        434        433        451        452        435        434        452        453        436        435        453        454        437        436        454        455        438        437        455        456        439        438        456        457        440        439        457        458        441        440        459        460        443        442        460        461        444        443        461        462        445        444        462        463        446        445        463        464        447        446        464        465        448        447        465        466        449        448        466        467        450        449        467        468        451        450        468        469        452        451        469        470        453        452        470        471        454        453        471        472        455        454        472        473        456        455        473        474        457        456        474        475        458        457        476        477        460        459        477        478        461        460        478        479        462        461        479        480        463        462        480        481        464        463        481        482        465        464        482        483        466        465        483        484        467        466        484        485        468        467        485        486        469        468        486        487        470        469        487        488        471        470        488        489        472        471        489        490        473        472        490        491        474        473        491        492        475        474        493        494        477        476        494        495        478        477        495        496        479        478        496        497        480        479        497        498        481        480        498        499        482        481        499        500        483        482        500        501        484        483        501        502        485        484        502        503        486        485        503        504        487        486        504        505        488        487        505        506        489        488        506        507        490        489        507        508        491        490        508        509        492        491        510        511        494        493        511        512        495        494        512        513        496        495        513        514        497        496        514        515        498        497        515        516        499        498        516        517        500        499        517        518        501        500        518        519        502        501        519        520        503        502        520        521        504        503        521        522        505        504        522        523        506        505        523        524        507        506        524        525        508        507        525        526        509        508        527        528        511        510        528        529        512        511        529        530        513        512        530        531        514        513        531        532        515        514        532        533        516        515        533        534        517        516        534        535        518        517        535        536        519        518        536        537        520        519        537        538        521        520        538        539        522        521        539        540        523        522        540        541        524        523        541        542        525        524        542        543        526        525        544        545        528        527        545        546        529        528        546        547        530        529        547        548        531        530        548        549        532        531        549        550        533        532        550        551        534        533        551        552        535        534        552        553        536        535        553        554        537        536        554        555        538        537        555        556        539        538        556        557        540        539        557        558        541        540        558        559        542        541        559        560        543        542        561        562        545        544        562        563        546        545        563        564        547        546        564        565        548        547        565        566        549        548        566        567        550        549        567        568        551        550        568        569        552        551        569        570        553        552        570        571        554        553        571        572        555        554        572        573        556        555        573        574        557        556        574        575        558        557        575        576        559        558        576        577        560        559        578        579        596        595        579        580        597        596        580        581        598        597        581        582        599        598        582        583        600        599        583        584        601        600        584        585        602        601        585        586        603        602        586        587        604        603        587        588        605        604        588        589        606        605        589        590        607        606        590        591        608        607        591        592        609        608        592        593        610        609        593        594        611        610        595        596        613        612        596        597        614        613        597        598        615        614        598        599        616        615        599        600        617        616        600        601        618        617        601        602        619        618        602        603        620        619        603        604        621        620        604        605        622        621        605        606        623        622        606        607        624        623        607        608        625        624        608        609        626        625        609        610        627        626        610        611        628        627        612        613        630        629        613        614        631        630        614        615        632        631        615        616        633        632        616        617        634        633        617        618        635        634        618        619        636        635        619        620        637        636        620        621        638        637        621        622        639        638        622        623        640        639        623        624        641        640        624        625        642        641        625        626        643        642        626        627        644        643        627        628        645        644        629        630        647        646        630        631        648        647        631        632        649        648        632        633        650        649        633        634        651        650        634        635        652        651        635        636        653        652        636        637        654        653        637        638        655        654        638        639        656        655        639        640        657        656        640        641        658        657        641        642        659        658        642        643        660        659        643        644        661        660        644        645        662        661        646        647        664        663        647        648        665        664        648        649        666        665        649        650        667        666        650        651        668        667        651        652        669        668        652        653        670        669        653        654        671        670        654        655        672        671        655        656        673        672        656        657        674        673        657        658        675        674        658        659        676        675        659        660        677        676        660        661        678        677        661        662        679        678        663        664        681        680        664        665        682        681        665        666        683        682        666        667        684        683        667        668        685        684        668        669        686        685        669        670        687        686        670        671        688        687        671        672        689        688        672        673        690        689        673        674        691        690        674        675        692        691        675        676        693        692        676        677        694        693        677        678        695        694        678        679        696        695        680        681        698        697        681        682        699        698        682        683        700        699        683        684        701        700        684        685        702        701        685        686        703        702        686        687        704        703        687        688        705        704        688        689        706        705        689        690        707        706        690        691        708        707        691        692        709        708        692        693        710        709        693        694        711        710        694        695        712        711        695        696        713        712        697        698        715        714        698        699        716        715        699        700        717        716        700        701        718        717        701        702        719        718        702        703        720        719        703        704        721        720        704        705        722        721        705        706        723        722        706        707        724        723        707        708        725        724        708        709        726        725        709        710        727        726        710        711        728        727        711        712        729        728        712        713        730        729        714        715        732        731        715        716        733        732        716        717        734        733        717        718        735        734        718        719        736        735        719        720        737        736        720        721        738        737        721        722        739        738        722        723        740        739        723        724        741        740        724        725        742        741        725        726        743        742        726        727        744        743        727        728        745        744        728        729        746        745        729        730        747        746        731        732        749        748        732        733        750        749        733        734        751        750        734        735        752        751        735        736        753        752        736        737        754        753        737        738        755        754        738        739        756        755        739        740        757        756        740        741        758        757        741        742        759        758        742        743        760        759        743        744        761        760        744        745        762        761        745        746        763        762        746        747        764        763        748        749        766        765        749        750        767        766        750        751        768        767        751        752        769        768        752        753        770        769        753        754        771        770        754        755        772        771        755        756        773        772        756        757        774        773        757        758        775        774        758        759        776        775        759        760        777        776        760        761        778        777        761        762        779        778        762        763        780        779        763        764        781        780        765        766        783        782        766        767        784        783        767        768        785        784        768        769        786        785        769        770        787        786        770        771        788        787        771        772        789        788        772        773        790        789        773        774        791        790        774        775        792        791        775        776        793        792        776        777        794        793        777        778        795        794        778        779        796        795        779        780        797        796        780        781        798        797        782        783        800        799        783        784        801        800        784        785        802        801        785        786        803        802        786        787        804        803        787        788        805        804        788        789        806        805        789        790        807        806        790        791        808        807        791        792        809        808        792        793        810        809        793        794        811        810        794        795        812        811        795        796        813        812        796        797        814        813        797        798        815        814        799        800        817        816        800        801        818        817        801        802        819        818        802        803        820        819        803        804        821        820        804        805        822        821        805        806        823        822        806        807        824        823        807        808        825        824        808        809        826        825        809        810        827        826        810        811        828        827        811        812        829        828        812        813        830        829        813        814        831        830        814        815        832        831        816        817        834        833        817        818        835        834        818        819        836        835        819        820        837        836        820        821        838        837        821        822        839        838        822        823        840        839        823        824        841        840        824        825        842        841        825        826        843        842        826        827        844        843        827        828        845        844        828        829        846        845        829        830        847        846        830        831        848        847        831        832        849        848        833        834        562        561        834        835        563        562        835        836        564        563        836        837        565        564        837        838        566        565        838        839        567        566        839        840        568        567        840        841        569        568        841        842        570        569        842        843        571        570        843        844        572        571        844        845        573        572        845        846        574        573        846        847        575        574        847        848        576        575        848        849        577        576        884        885        579        578        885        886        580        579        886        887        581        580        887        888        582        581        888        889        583        582        889        890        584        583        890        891        585        584        891        892        586        585        892        893        587        586        893        894        588        587        894        895        589        588        895        896        590        589        896        897        591        590        897        898        592        591        898        899        593        592        899        900        594        593        901        902        885        884        902        903        886        885        903        904        887        886        904        905        888        887        905        906        889        888        906        907        890        889        907        908        891        890        908        909        892        891        909        910        893        892        910        911        894        893        911        912        895        894        912        913        896        895        913        914        897        896        914        915        898        897        915        916        899        898        916        917        900        899        918        919        902        901        919        920        903        902        920        921        904        903        921        922        905        904        922        923        906        905        923        924        907        906        924        925        908        907        925        926        909        908        926        927        910        909        927        928        911        910        928        929        912        911        929        930        913        912        930        931        914        913        931        932        915        914        932        933        916        915        933        934        917        916        935        936        919        918        936        937        920        919        937        938        921        920        938        939        922        921        939        940        923        922        940        941        924        923        941        942        925        924        942        943        926        925        943        944        927        926        944        945        928        927        945        946        929        928        946        947        930        929        947        948        931        930        948        949        932        931        949        950        933        932        950        951        934        933        952        953        936        935        953        954        937        936        954        955        938        937        955        956        939        938        956        957        940        939        957        958        941        940        958        959        942        941        959        960        943        942        960        961        944        943        961        962        945        944        962        963        946        945        963        964        947        946        964        965        948        947        965        966        949        948        966        967        950        949        967        968        951        950        969        970        953        952        970        971        954        953        971        972        955        954        972        973        956        955        973        974        957        956        974        975        958        957        975        976        959        958        976        977        960        959        977        978        961        960        978        979        962        961        979        980        963        962        980        981        964        963        981        982        965        964        982        983        966        965        983        984        967        966        984        985        968        967        986        987        970        969        987        988        971        970        988        989        972        971        989        990        973        972        990        991        974        973        991        992        975        974        992        993        976        975        993        994        977        976        994        995        978        977        995        996        979        978        996        997        980        979        997        998        981        980        998        999        982        981        999       1000        983        982       1000       1001        984        983       1001       1002        985        984       1003       1004        987        986       1004       1005        988        987       1005       1006        989        988       1006       1007        990        989       1007       1008        991        990       1008       1009        992        991       1009       1010        993        992       1010       1011        994        993       1011       1012        995        994       1012       1013        996        995       1013       1014        997        996       1014       1015        998        997       1015       1016        999        998       1016       1017       1000        999       1017       1018       1001       1000       1018       1019       1002       1001       1020       1021       1004       1003       1021       1022       1005       1004       1022       1023       1006       1005       1023       1024       1007       1006       1024       1025       1008       1007       1025       1026       1009       1008       1026       1027       1010       1009       1027       1028       1011       1010       1028       1029       1012       1011       1029       1030       1013       1012       1030       1031       1014       1013       1031       1032       1015       1014       1032       1033       1016       1015       1033       1034       1017       1016       1034       1035       1018       1017       1035       1036       1019       1018       1037       1038       1021       1020       1038       1039       1022       1021       1039       1040       1023       1022       1040       1041       1024       1023       1041       1042       1025       1024       1042       1043       1026       1025       1043       1044       1027       1026       1044       1045       1028       1027       1045       1046       1029       1028       1046       1047       1030       1029       1047       1048       1031       1030       1048       1049       1032       1031       1049       1050       1033       1032       1050       1051       1034       1033       1051       1052       1035       1034       1052       1053       1036       1035       1054       1055       1038       1037       1055       1056       1039       1038       1056       1057       1040       1039       1057       1058       1041       1040       1058       1059       1042       1041       1059       1060       1043       1042       1060       1061       1044       1043       1061       1062       1045       1044       1062       1063       1046       1045       1063       1064       1047       1046       1064       1065       1048       1047       1065       1066       1049       1048       1066       1067       1050       1049       1067       1068       1051       1050       1068       1069       1052       1051       1069       1070       1053       1052       1071       1072       1055       1054       1072       1073       1056       1055       1073       1074       1057       1056       1074       1075       1058       1057       1075       1076       1059       1058       1076       1077       1060       1059       1077       1078       1061       1060       1078       1079       1062       1061       1079       1080       1063       1062       1080       1081       1064       1063       1081       1082       1065       1064       1082       1083       1066       1065       1083       1084       1067       1066       1084       1085       1068       1067       1085       1086       1069       1068       1086       1087       1070       1069       1088       1089       1072       1071       1089       1090       1073       1072       1090       1091       1074       1073       1091       1092       1075       1074       1092       1093       1076       1075       1093       1094       1077       1076       1094       1095       1078       1077       1095       1096       1079       1078       1096       1097       1080       1079       1097       1098       1081       1080       1098       1099       1082       1081       1099       1100       1083       1082       1100       1101       1084       1083       1101       1102       1085       1084       1102       1103       1086       1085       1103       1104       1087       1086       1105       1106       1089       1088       1106       1107       1090       1089       1107       1108       1091       1090       1108       1109       1092       1091       1109       1110       1093       1092       1110       1111       1094       1093       1111       1112       1095       1094       1112       1113       1096       1095       1113       1114       1097       1096       1114       1115       1098       1097       1115       1116       1099       1098       1116       1117       1100       1099       1117       1118       1101       1100       1118       1119       1102       1101       1119       1120       1103       1102       1120       1121       1104       1103       1122       1123       1106       1105       1123       1124       1107       1106       1124       1125       1108       1107       1125       1126       1109       1108       1126       1127       1110       1109       1127       1128       1111       1110       1128       1129       1112       1111       1129       1130       1113       1112       1130       1131       1114       1113       1131       1132       1115       1114       1132       1133       1116       1115       1133       1134       1117       1116       1134       1135       1118       1117       1135       1136       1119       1118       1136       1137       1120       1119       1137       1138       1121       1120        272        273       1123       1122        273        274       1124       1123        274        275       1125       1124        275        276       1126       1125        276        277       1127       1126        277        278       1128       1127        278        279       1129       1128        279        280       1130       1129        280        281       1131       1130        281        282       1132       1131        282        283       1133       1132        283        284       1134       1133        284        285       1135       1134        285        286       1136       1135        286        287       1137       1136        287        288       1138       1137 </DataArray>
<DataArray type="Int32"                                    Name="offsets"                                                      NumberOfComponents=" 1" format="ascii">
         4          8         12         16         20         24         28         32         36         40         44         48         52         56         60         64         68         72         76         80         84         88         92         96        100        104        108        112        116        120        124        128        132        136        140        144        148        152        156        160        164        168        172        176        180        184        188        192        196        200        204        208        212        216        220        224        228        232        236        240        244        248        252        256        260        264        268        272        276        280        284        288        292        296        300        304        308        312        316        320        324        328        332        336        340        344        348        352        356        360        364        368        372        376        380        384        388        392        396        400        404        408        412        416        420        424        428        432        436        440        444        448        452        456        460        464        468        472        476        480        484        488        492        496        500        504        508        512        516        520        524        528        532        536        540        544        548        552        556        560        564        568        572        576        580        584        588        592        596        600        604        608        612        616        620        624        628        632        636        640        644        648        652        656        660        664        668        672        676        680        684        688        692        696        700        704        708        712        716        720        724        728        732        736        740        744        748        752        756        760        764        768        772        776        780        784        788        792        796        800        804        808        812        816        820        824        828        832        836        840        844        848        852        856        860        864        868        872        876        880        884        888        892        896        900        904        908        912        916        920        924        928        932        936        940        944        948        952        956        960        964        968        972        976        980        984        988        992        996       1000       1004       1008       1012       1016       1020       1024       1028       1032       1036       1040       1044       1048       1052       1056       1060       1064       1068       1072       1076       1080       1084       1088       1092       1096       1100       1104       1108       1112       1116       1120       1124       1128       1132       1136       1140       1144       1148       1152       1156       1160       1164       1168       1172       1176       1180       1184       1188       1192       1196       1200       1204       1208       1212       1216       1220       1224       1228       1232       1236       1240       1244       1248       1252       1256       1260       1264       1268       1272       1276       1280       1284       1288       1292       1296       1300       1304       1308       1312       1316       1320       1324       1328       1332       1336       1340       1344       1348       1352       1356       1360       1364       1368       1372       1376       1380       1384       1388       1392       1396       1400       1404       1408       1412       1416       1420       1424       1428       1432       1436       1440       1444       1448       1452       1456       1460       1464       1468       1472       1476       1480       1484       1488       1492       1496       1500       1504       1508       1512       1516       1520       1524       1528       1532       1536       1540       1544       1548       1552       1556       1560       1564       1568       1572       1576       1580       1584       1588       1592       1596       1600       1604       1608       1612       1616       1620       1624       1628       1632       1636       1640       1644       1648       1652       1656       1660       1664       1668       1672       1676       1680       1684       1688       1692       1696       1700       1704       1708       1712       1716       1720       1724       1728       1732       1736       1740       1744       1748       1752       1756       1760       1764       1768       1772       1776       1780       1784       1788       1792       1796       1800       1804       1808       1812       1816       1820       1824       1828       1832       1836       1840       1844       1848       1852       1856       1860       1864       1868       1872       1876       1880       1884       1888       1892       1896       1900       1904       1908       1912       1916       1920       1924       1928       1932       1936       1940       1944       1948       1952       1956       1960       1964       1968       1972       1976       1980       1984       1988       1992       1996       2000       2004       2008       2012       2016       2020       2024       2028       2032       2036       2040       2044       2048       2052       2056       2060       2064       2068       2072       2076       2080       2084       2088       2092       2096       2100       2104       2108       2112       2116       2120       2124       2128       2132       2136       2140       2144       2148       2152       2156       2160       2164       2168       2172       2176       2180       2184       2188       2192       2196       2200       2204       2208       2212       2216       2220       2224       2228       2232       2236       2240       2244       2248       2252       2256       2260       2264       2268       2272       2276       2280       2284       2288       2292       2296       2300       2304       2308       2312       2316       2320       2324       2328       2332       2336       2340       2344       2348       2352       2356       2360       2364       2368       2372       2376       2380       2384       2388       2392       2396       2400       2404       2408       2412       2416       2420       2424       2428       2432       2436       2440       2444       2448       2452       2456       2460       2464       2468       2472       2476       2480       2484       2488       2492       2496       2500       2504       2508       2512       2516       2520       2524       2528       2532       2536       2540       2544       2548       2552       2556       2560       2564       2568       2572       2576       2580       2584       2588       2592       2596       2600       2604       2608       2612       2616       2620       2624       2628       2632       2636       2640       2644       2648       2652       2656       2660       2664       2668       2672       2676       2680       2684       2688       2692       2696       2700       2704       2708       2712       2716       2720       2724       2728       2732       2736       2740       2744       2748       2752       2756       2760       2764       2768       2772       2776       2780       2784       2788       2792       2796       2800       2804       2808       2812       2816       2820       2824       2828       2832       2836       2840       2844       2848       2852       2856       2860       2864       2868       2872       2876       2880       2884       2888       2892       2896       2900       2904       2908       2912       2916       2920       2924       2928       2932       2936       2940       2944       2948       2952       2956       2960       2964       2968       2972       2976       2980       2984       2988       2992       2996       3000       3004       3008       3012       3016       3020       3024       3028       3032       3036       3040       3044       3048       3052       3056       3060       3064       3068       3072       3076       3080       3084       3088       3092       3096       3100       3104       3108       3112       3116       3120       3124       3128       3132       3136       3140       3144       3148       3152       3156       3160       3164       3168       3172       3176       3180       3184       3188       3192       3196       3200       3204       3208       3212       3216       3220       3224       3228       3232       3236       3240       3244       3248       3252       3256       3260       3264       3268       3272       3276       3280       3284       3288       3292       3296       3300       3304       3308       3312       3316       3320       3324       3328       3332       3336       3340       3344       3348       3352       3356       3360       3364       3368       3372       3376       3380       3384       3388       3392       3396       3400       3404       3408       3412       3416       3420       3424       3428       3432       3436       3440       3444       3448       3452       3456       3460       3464       3468       3472       3476       3480       3484       3488       3492       3496       3500       3504       3508       3512       3516       3520       3524       3528       3532       3536       3540       3544       3548       3552       3556       3560       3564       3568       3572       3576       3580       3584       3588       3592       3596       3600       3604       3608       3612       3616       3620       3624       3628       3632       3636       3640       3644       3648       3652       3656       3660       3664       3668       3672       3676       3680       3684       3688       3692       3696       3700       3704       3708       3712       3716       3720       3724       3728       3732       3736       3740       3744       3748       3752       3756       3760       3764       3768       3772       3776       3780       3784       3788       3792       3796       3800       3804       3808       3812       3816       3820       3824       3828       3832       3836       3840       3844       3848       3852       3856       3860       3864       3868       3872       3876       3880       3884       3888       3892       3896       3900       3904       3908       3912       3916       3920       3924       3928       3932       3936       3940       3944       3948       3952       3956       3960       3964       3968       3972       3976       3980       3984       3988       3992       3996       4000       4004       4008       4012       4016       4020       4024       4028       4032       4036       4040       4044       4048       4052       4056       4060       4064       4068       4072       4076       4080       4084       4088       4092       4096 </DataArray>
<DataArray type="UInt8"                                    Name="types"                                                      NumberOfComponents=" 1" format="ascii">
         9          9          9          9          9          9          9          9          9          9          9          9          9          9          9          9          9          9          9          9          9          9          9          9          9          9          9          9          9          9          9          9          9          9          9          9          9          9          9          9          9          9          9          9          9          9          9          9          9          9          9          9          9          9          9          9          9          9          9          9          9          9          9          9          9          9          9          9          9          9          9          9          9          9          9          9          9          9          9          9          9          9          9          9          9          9          9          9          9          9          9          9          9          9          9          9          9          9          9          9          9          9          9          9          9          9          9          9          9          9          9          9          9          9          9          9          9          9          9          9          9          9          9          9          9          9          9          9          9          9          9          9          9          9          9          9          9          9          9          9          9          9          9          9          9          9          9          9          9          9          9          9          9          9          9          9          9          9          9          9          9          9          9          9          9          9          9          9          9          9          9          9          9          9          9          9          9          9          9          9          9          9          9          9          9          9          9          9          9          9          9          9          9          9          9          9          9          9          9          9          9          9          9          9          9          9          9          9          9          9          9          9          9          9          9          9          9          9          9          9          9          9          9          9          9          9          9          9          9          9          9          9          9          9          9          9          9          9          9          9          9          9          9          9          9          9          9          9          9          9          9          9          9          9          9          9          9          9          9          9          9          9          9          9          9          9          9          9          9          9          9          9          9          9          9          9          9          9          9          9          9          9          9          9          9          9          9          9          9          9          9          9          9          9          9          9          9          9          9          9          9          9          9          9          9          9          9          9          9          9          9          9          9          9          9          9          9          9          9          9          9          9          9          9          9          9          9          9          9          9          9          9          9          9          9          9          9          9          9          9          9          9          9          9          9          9          9          9          9          9          9          9          9          9          9          9          9          9          9          9          9          9          9          9          9          9          9          9          9          9          9          9          9          9          9          9          9          9          9          9          9          9          9          9          9          9          9          9          9          9          9          9          9          9          9          9          9          9          9          9          9          9          9          9          9          9          9          9          9          9          9          9          9          9          9          9          9          9          9          9          9          9          9          9          9          9          9          9          9          9          9          9          9          9          9          9          9          9          9          9          9          9          9          9          9          9          9          9          9          9          9          9          9          9          9          9          9          9          9          9          9          9          9          9          9          9          9          9          9          9          9          9          9          9          9          9          9          9          9          9          9          9          9          9          9          9          9          9          9          9          9          9          9          9          9          9          9          9          9          9          9          9          9          9          9          9          9          9          9          9          9          9          9          9          9          9          9          9          9          9          9          9          9          9          9          9          9          9          9          9          9          9          9          9          9          9          9          9          9          9          9          9          9          9          9          9          9          9          9          9          9          9          9          9          9          9          9          9          9          9          9          9          9          9          9          9          9          9          9          9          9          9          9          9          9          9          9          9          9          9          9          9          9          9          9          9          9          9          9          9          9          9          9          9          9          9          9          9          9          9          9          9          9          9          9          9          9          9          9          9          9          9          9          9          9          9          9          9          9          9          9          9          9          9          9          9          9          9          9          9          9          9          9          9          9          9          9          9          9          9          9          9          9          9          9          9          9          9          9          9          9          9          9          9          9          9          9          9          9          9          9          9          9          9          9          9          9          9          9          9          9          9          9          9          9          9          9          9          9          9          9          9          9          9          9          9          9          9          9          9          9          9          9          9          9          9          9          9          9          9          9          9          9          9          9          9          9          9          9          9          9          9          9          9          9          9          9          9          9          9          9          9          9          9          9          9          9          9          9          9          9          9          9          9          9          9          9          9          9          9          9          9          9          9          9          9          9          9          9          9          9          9          9          9          9          9          9          9          9          9          9          9          9          9          9          9          9          9          9          9          9          9          9          9          9          9          9          9          9          9          9          9          9          9          9          9          9          9          9          9          9          9          9          9          9          9          9          9          9          9          9          9          9          9          9          9          9          9          9          9          9          9          9          9          9          9          9          9          9          9          9          9          9          9          9          9          9          9          9          9          9          9          9          9          9          9          9          9          9          9          9          9          9          9          9          9          9          9          9          9          9          9          9          9          9          9          9          9          9          9          9          9          9          9          9          9          9          9          9          9          9          9          9          9          9          9          9          9          9          9          9          9          9          9          9          9          9          9          9          9          9          9          9          9          9          9          9          9          9          9          9          9          9          9          9          9          9          9          9          9          9          9          9          9          9          9          9          9          9          9          9          9          9          9          9          9          9          9          9          9          9          9          9          9          9          9          9          9          9          9          9          9          9          9          9          9          9          9          9          9          9          9          9          9          9          9          9          9          9          9          9          9          9          9          9          9          9          9          9          9          9          9          9          9          9          9          9          9          9          9          9          9          9          9          9          9          9          9          9          9          9          9          9          9          9          9          9          9          9          9          9          9          9          9          9          9          9          9          9          9          9          9          9          9          9          9          9          9          9          9          9          9          9          9 </DataArray>
</Cells>
<CellData>
<DataArray type="Int32"                                    Name="material"                                                      NumberOfComponents=" 1" format="ascii">
         1          1          1          1          1          1          1          1          1          1          1          1          1          1          1          1          1          1          1          1          1          1          1          1          1          1          1          1          1          1          1          1          1          1          1          1          1          1          1          1          1          1          1          1          1          1          1          1          1          1          1          1          1          1          1          1          1          1          1          1          1          1          1          1          1          1          1          1          1          1          1          1          1          1          1          1          1          1          1          1          1          1          1          1          1          1          1          1          1          1          1          1          1          1          1          1          1          1          1          1          1          1          1          1          1          1          1          1          1          1          1          1          1          1          1          1          1          1          1          1          1          1          1          1          1          1          1          1          1          1          1          1          1          1          1          1          1          1          1          1          1          1          1          1          1          1          1          1          1          1          1          1          1          1          1          1          1          1          1          1          1          1          1          1          1          1          1          1          1          1          1          1          1          1          1          1          1          1          1          1          1          1          1          1          1          1          1          1          1          1          1          1          1          1          1          1          1          1          1          1          1          1          1          1          1          1          1          1          1          1          1          1          1          1          1          1          1          1          1          1          1          1          1          1          1          1          1          1          1          1          1          1          1          1          1          1          1          1          1          1          1          1          1          1          1          1          1          1          1          1          1          1          1          1          1          1          1          1          1          1          1          1          1          1          1          1          1          1          1          1          1          1          1          1          1          1          1          1          1          1          1          1          1          1          1          1          1          1          1          1          1          1          1          1          1          1          1          1          1          1          1          1          1          1          1          1          1          1          1          1          1          1          1          1          1          1          1          1          1          1          1          1          1          1          1          1          1          1          1          1          1          1          1          1          1          1          1          1          1          1          1          1          1          1          1          1          1          1          1          1          1          1          1          1          1          1          1          1          1          1          1          1          1          1          1          1          1          1          1          1          1          1          1          1          1          1          1          1          1          1          1          1          1          1          1          1          1          1          1          1          1          1          1          1          1          1          1          1          1          1          1          1          1          1          1          1          1          1          1          1          1          1          1          1          1          1          1          1          1          1          1          1          1          1          1          1          1          1          1          1          1          1          1          1          1          1          1          1          1          1          1          1          1          1          1          1          1          1          1          1          1          1          1          1          1          1          1          1          1          1          1          1          1          1          1          1          1          1          1          1          1          1          1          1          1          1          1          1          1          1          1          1          1          1          1          1          1          1          1          1          1          1          1          1          1          1          1          1          1          1          1          1          1          1          1          1          1          1          1          1          1          1          1          1          1          1          1          1          1          1          1          1          1          1          1          1          1          1          1          1          1          1          1          1          1          1          1          1          1          1          1          1          1          1          1          1          1          1          1          1          1          1          1          1          1          1          1          1          1          1          1          1          1          1          1          1          1          1          1          1          1          1          1          1          1          1          1          1          1          1          1          1          1          1          1          1          1          1          1          1          1          1          1          1          1          1          1          1          1          1          1          1          1          1          1          1          1          1          1          1          1          1          1          1          1          1          1          1          1          1          1          1          1          1          1          1          1          1          1          1          1          1          1          1          1          1          1          1          1          1          1          1          1          1          1          1          1          1          1          1          1          1          1          1          1          1          1          1          1          1          1          1          1          1          1          1          1          1          1          1          1          1          1          1          1          1          1          1          1          1          1          1          1          1          1          1          1          1          1          1          1          1          1          1          1          1          1          1          1          1          1          1          1          1          1          1          1          1          1          1          1          1          1          1          1          1          1          1          1          1          1          1          1          1          1          1          1          1          1          1          1          1          1          1          1          1          1          1          1          1          1          1          1          1          1          1          1          1          1          1          1          1          1          1          1          1          1          1          1          1          1          1          1          1          1          1          1          1          1          1          1          1          1          1          1          1          1          1          1          1          1          1          1          1          1          1          1          1          1          1          1          1          1          1          1          1          1          1          1          1          1          1          1          1          1          1          1          1          1          1          1          1          1          1          1          1          1          1          1          1          1          1          1          1          1          1          1          1          1          1          1          1          1          1          1          1          1          1          1          1          1          1          1          1          1          1          1          1          1          1          1          1          1          1          1          1          1          1          1          1          1          1          1          1          1          1          1          1          1          1          1          1          1          1          1          1          1          1          1          1          1          1          1          1          1          1          1          1          1          1          1          1          1          1          1          1          1          1          1          1          1          1          1          1          1          1          1          1          1          1          1          1          1          1          1          1          1          1          1          1          1          1          1          1          1          1          1          1          1          1          1          1          1          1          1          1          1          1          1          1          1          1          1          1          1          1          1          1          1          1          1          1          1          1          1          1          1          1          1          1          1          1          1          1          1          1          1          1          1          1          1          1          1          1          1          1          1          1          1          1          1          1          1          1          1          1          1          1          1          1          1          1          1          1          1          1          1          1          1          1          1          1          1          1          1          1          1          1          1          1          1          1          1          1          1          1          1          1          1          1          1          1          1          1 </DataArray>
</CellData>
<PointData>
<DataArray type="Float64"                                    Name="u"                                                      NumberOfComponents=" 3" format="ascii">
             -0.000915111              -0.000000000               0.999999987              -0.000962694              -0.000000000               0.999999987              -0.000981975               0.000000000               0.999999987              -0.000991977               0.000000000               0.999999987              -0.000999554               0.000000000               0.999999987              -0.001007122              -0.000000000               0.999999987              -0.001015624              -0.000000000               0.999999987              -0.001025173               0.000000000               0.999999987              -0.001035647              -0.000000000               0.999999987              -0.001046672              -0.000000000               0.999999987              -0.001057857               0.000000000               0.999999987              -0.001068777               0.000000000               0.999999987              -0.001079178              -0.000000000               0.999999987              -0.001088514              -0.000000000               0.999999987              -0.001096068              -0.000000000               0.999999987              -0.001101200              -0.000000000               0.999999987              -0.001102970              -0.000000000               0.999999987              -0.000909910               0.000125568               0.999999987              -0.000953252               0.000098706               0.999999987              -0.000969859               0.000086256               0.999999987              -0.000978167               0.000080678               0.999999987              -0.000984601               0.000078436               0.999999987              -0.000991259               0.000077945               0.999999987              -0.000998906               0.000077990               0.999999987              -0.001007583               0.000077773               0.999999987              -0.001016963               0.000076927               0.999999987              -0.001026672               0.000074934               0.999999987              -0.001036277               0.000071525               0.999999987              -0.001045415               0.000066556               0.999999987              -0.001053703               0.000059587               0.999999987              -0.001060668               0.000050044               0.999999987              -0.001065755               0.000037223               0.999999987              -0.001068279               0.000020198               0.999999987              -0.001067565              -0.000002114               0.999999987              -0.000894608               0.000249915               0.999999987              -0.000925661               0.000197150               0.999999987              -0.000934739               0.000173536               0.999999987              -0.000938325               0.000163505               0.999999987              -0.000941567               0.000159969               0.999999987              -0.000945818               0.000159482               0.999999987              -0.000951229               0.000159953               0.999999987              -0.000957352               0.000159783               0.999999987              -0.000963641               0.000158016               0.999999987              -0.000969665               0.000154060               0.999999987              -0.000974928               0.000147312               0.999999987              -0.000979119               0.000137707               0.999999987              -0.000981817               0.000124177               0.999999987              -0.000982500               0.000105803               0.999999987              -0.000980756               0.000081742               0.999999987              -0.000976226               0.000050893               0.999999987              -0.000968781               0.000011771               0.999999987              -0.000869513               0.000371958               0.999999987              -0.000881286               0.000295119               0.999999987              -0.000879428               0.000262725               0.999999987              -0.000876643               0.000250232               0.999999987              -0.000875708               0.000246804               0.999999987              -0.000876687               0.000247260               0.999999987              -0.000878907               0.000248478               0.999999987              -0.000881310               0.000248301               0.999999987              -0.000883108               0.000245623               0.999999987              -0.000883799               0.000239682               0.999999987              -0.000882868               0.000229845               0.999999987              -0.000879828               0.000215749               0.999999987              -0.000874316               0.000196455               0.999999987              -0.000866005               0.000170925               0.999999987              -0.000854765               0.000138486               0.999999987              -0.000840797               0.000098409               0.999999987              -0.000824521               0.000050320               0.999999987              -0.000834952               0.000490672               0.999999987              -0.000822233               0.000392705               0.999999987              -0.000808165               0.000354564               0.999999987              -0.000798974               0.000341793               0.999999987              -0.000794146               0.000339753               0.999999987              -0.000791897               0.000341792               0.999999987              -0.000790395               0.000343994               0.999999987              -0.000788343               0.000343866               0.999999987              -0.000784800               0.000340236               0.999999987              -0.000779033               0.000332305               0.999999987              -0.000770400               0.000319517               0.999999987              -0.000758500               0.000301361               0.999999987              -0.000743113               0.000277337               0.999999987              -0.000724402               0.000246638               0.999999987              -0.000702681               0.000209072               0.999999987              -0.000678564               0.000165091               0.999999987              -0.000653118               0.000115476               0.999999987              -0.000791665               0.000604918               0.999999987              -0.000751529               0.000490130               0.999999987              -0.000726219               0.000449302               0.999999987              -0.000712186               0.000437934               0.999999987              -0.000704578               0.000438127               0.999999987              -0.000699555               0.000441941               0.999999987              -0.000694430               0.000444970               0.999999987              -0.000687611               0.000444862               0.999999987              -0.000677948               0.000440304               0.999999987              -0.000664669               0.000430447               0.999999987              -0.000647279               0.000414779               0.999999987              -0.000625632               0.000392979               0.999999987              -0.000599996               0.000365122               0.999999987              -0.000570843               0.000331304               0.999999987              -0.000538999               0.000291631               0.999999987              -0.000505439               0.000247425               0.999999987              -0.000471213               0.000200508               0.999999987              -0.000740700               0.000713512               0.999999987              -0.000672941               0.000587313               0.999999987              -0.000639134               0.000546420               0.999999987              -0.000622550               0.000537535               0.999999987              -0.000613506               0.000540224               0.999999987              -0.000606338               0.000545565               0.999999987              -0.000597600               0.000549164               0.999999987              -0.000585535               0.000548982               0.999999987              -0.000569077               0.000543342               0.999999987              -0.000547490               0.000531470               0.999999987              -0.000520851               0.000513175               0.999999987              -0.000489272               0.000488298               0.999999987              -0.000453295               0.000457830               0.999999987              -0.000413816               0.000422275               0.999999987              -0.000371874               0.000382560               0.999999987              -0.000328593               0.000340311               0.999999987              -0.000284883               0.000297270               0.999999987              -0.000683128               0.000815383               0.999999987              -0.000590246               0.000683962               0.999999987              -0.000551716               0.000644904               0.999999987              -0.000535265               0.000638586               0.999999987              -0.000526006               0.000643426               0.999999987              -0.000516898               0.000650054               0.999999987              -0.000504232               0.000654170               0.999999987              -0.000486410               0.000653702               0.999999987              -0.000462379               0.000646789               0.999999987              -0.000431819               0.000632991               0.999999987              -0.000394988               0.000612302               0.999999987              -0.000352390               0.000585321               0.999999987              -0.000305132               0.000553334               0.999999987              -0.000254312               0.000517674               0.999999987              -0.000201285               0.000479558               0.999999987              -0.000147411               0.000440675               0.999999987              -0.000093460               0.000401919               0.999999987              -0.000620909               0.000908635               0.999999987              -0.000506246               0.000779939               0.999999987              -0.000468255               0.000743206               0.999999987              -0.000453960               0.000738791               0.999999987              -0.000445198               0.000745261               0.999999987              -0.000433959               0.000753006               0.999999987              -0.000417054               0.000757534               0.999999987              -0.000392669               0.000756398               0.999999987              -0.000359981               0.000748172               0.999999987              -0.000319102               0.000732573               0.999999987              -0.000270573               0.000709931               0.999999987              -0.000215661               0.000681597               0.999999987              -0.000155607               0.000649464               0.999999987              -0.000092263               0.000615362               0.999999987              -0.000027584               0.000580734               0.999999987               0.000037075               0.000546797               0.999999987               0.000101425               0.000513764               0.999999987              -0.000556467               0.000997104               0.999999987              -0.000435544               0.000888062               0.999999987              -0.000395403               0.000848409               0.999999987              -0.000380977               0.000839945               0.999999987              -0.000373471               0.000844330               0.999999987              -0.000364777               0.000852674               0.999999987              -0.000351518               0.000860444               0.999999987              -0.000331623               0.000864977               0.999999987              -0.000304117               0.000864726               0.999999987              -0.000268855               0.000858862               0.999999987              -0.000226094               0.000847013               0.999999987              -0.000176171               0.000829737               0.999999987              -0.000119799               0.000808202               0.999999987              -0.000058380               0.000783957               0.999999987               0.000006296               0.000758681               0.999999987               0.000072377               0.000733731               0.999999987               0.000138269               0.000709931               0.999999987              -0.000486322               0.001077915               0.999999987              -0.000367265               0.000992830               0.999999987              -0.000325177               0.000956419               0.999999987              -0.000309832               0.000946136               0.999999987              -0.000302727               0.000949275               0.999999987              -0.000295906               0.000958234               0.999999987              -0.000285667               0.000968748               0.999999987              -0.000269795               0.000978228               0.999999987              -0.000247021               0.000984951               0.999999987              -0.000217181               0.000987967               0.999999987              -0.000180370               0.000986238               0.999999987              -0.000136342               0.000979753               0.999999987              -0.000085052               0.000968930               0.999999987              -0.000027094               0.000954885               0.999999987               0.000036148               0.000938825               0.999999987               0.000102685               0.000922274               0.999999987               0.000170761               0.000906403               0.999999987              -0.000411904               0.001148957               0.999999987              -0.000301428               0.001091102               0.999999987              -0.000259274               0.001062210               0.999999987              -0.000242806               0.001053320               0.999999987              -0.000235538               0.001056676               0.999999987              -0.000229739               0.001066691               0.999999987              -0.000221796               0.001079839               0.999999987              -0.000209242               0.001093824               0.999999987              -0.000190874               0.001106736               0.999999987              -0.000166255               0.001117460               0.999999987              -0.000135371               0.001125251               0.999999987              -0.000097690               0.001129308               0.999999987              -0.000052784               0.001129454               0.999999987              -0.000000215               0.001126167               0.999999987               0.000059549               0.001120230               0.999999987               0.000125125               0.001112870               0.999999987               0.000194956               0.001105171               0.999999987              -0.000333883               0.001208893               0.999999987              -0.000238074               0.001178756               0.999999987              -0.000198535               0.001160561               0.999999987              -0.000181814               0.001155640               0.999999987              -0.000174089               0.001161072               0.999999987              -0.000168808               0.001173132               0.999999987              -0.000162428               0.001189195               0.999999987              -0.000152825               0.001207190               0.999999987              -0.000138441               0.001225670               0.999999987              -0.000118868               0.001243379               0.999999987              -0.000093890               0.001259488               0.999999987              -0.000062953               0.001273184               0.999999987              -0.000025337               0.001284017               0.999999987               0.000020003               0.001291754               0.999999987               0.000073477               0.001296698               0.999999987               0.000134765               0.001299477               0.999999987               0.000203658               0.001301005               0.999999987              -0.000252918               0.001256631               0.999999987              -0.000176897               0.001251584               0.999999987              -0.000143179               0.001245426               0.999999987              -0.000127755               0.001246487               0.999999987              -0.000120195               0.001255182               0.999999987              -0.000115412               0.001270050               0.999999987              -0.000110319               0.001289225               0.999999987              -0.000103113               0.001311299               0.999999987              -0.000092346               0.001334899               0.999999987              -0.000077579               0.001358796               0.999999987              -0.000058642               0.001382119               0.999999987              -0.000035004               0.001404229               0.999999987              -0.000005577               0.001424625               0.999999987               0.000030674               0.001442683               0.999999987               0.000074822               0.001458309               0.999999987               0.000127721               0.001471610               0.999999987               0.000189996               0.001482930               0.999999987              -0.000169809               0.001291139               0.999999987              -0.000117212               0.001306106               0.999999987              -0.000092545               0.001310969               0.999999987              -0.000080592               0.001318323               0.999999987              -0.000074332               0.001330928               0.999999987              -0.000070423               0.001348777               0.999999987              -0.000066612               0.001370935               0.999999987              -0.000061750               0.001396463               0.999999987              -0.000054630               0.001424168               0.999999987              -0.000044791               0.001453051               0.999999987              -0.000031961               0.001482338               0.999999987              -0.000015813               0.001511364               0.999999987               0.000004295               0.001539538               0.999999987               0.000029520               0.001566273               0.999999987               0.000061288               0.001591109               0.999999987               0.000100810               0.001613836               0.999999987               0.000149361               0.001634307               0.999999987              -0.000085268               0.001311979               0.999999987              -0.000058382               0.001339755               0.999999987              -0.000045376               0.001352366               0.999999987              -0.000038831               0.001364448               0.999999987              -0.000035238               0.001380194               0.999999987              -0.000032988               0.001400448               0.999999987              -0.000030890               0.001424782               0.999999987              -0.000028390               0.001452562               0.999999987              -0.000024914               0.001482953               0.999999987              -0.000020068               0.001515151               0.999999987              -0.000013492               0.001548473               0.999999987              -0.000005263               0.001582260               0.999999987               0.000004775               0.001615845               0.999999987               0.000017766               0.001648741               0.999999987               0.000034534               0.001680312               0.999999987               0.000055921               0.001710021               0.999999987               0.000083168               0.001737230               0.999999987              -0.000000000               0.001319003               0.999999987              -0.000000000               0.001351116               0.999999987              -0.000000000               0.001366456               0.999999987               0.000000000               0.001380311               0.999999987               0.000000000               0.001397288               0.999999987               0.000000000               0.001418547               0.999999987               0.000000000               0.001443641               0.999999987               0.000000000               0.001472051               0.999999987              -0.000000000               0.001503340               0.999999987              -0.000000000               0.001536804               0.999999987              -0.000000000               0.001571570               0.999999987               0.000000000               0.001607039               0.999999987              -0.000000000               0.001642665               0.999999987              -0.000000000               0.001677962               0.999999987              -0.000000000               0.001712288               0.999999987               0.000000000               0.001744807               0.999999987               0.000000000               0.001774601               0.999999987              -0.000915111              -0.000000000               0.999999987              -0.000962694              -0.000000000               0.999999987              -0.000981975               0.000000000               0.999999987              -0.000991977               0.000000000               0.999999987              -0.000999554               0.000000000               0.999999987              -0.001007122              -0.000000000               0.999999987              -0.001015624              -0.000000000               0.999999987              -0.001025173               0.000000000               0.999999987              -0.001035647              -0.000000000               0.999999987              -0.001046672              -0.000000000               0.999999987              -0.001057857               0.000000000               0.999999987              -0.001068777               0.000000000               0.999999987              -0.001079178              -0.000000000               0.999999987              -0.001088514              -0.000000000               0.999999987              -0.001096068              -0.000000000               0.999999987              -0.001101200              -0.000000000               0.999999987              -0.001102970              -0.000000000               0.999999987              -0.000909910              -0.000125568               0.999999987              -0.000953252              -0.000098706               0.999999987              -0.000969859              -0.000086256               0.999999987              -0.000978167              -0.000080678               0.999999987              -0.000984601              -0.000078436               0.999999987              -0.000991259              -0.000077945               0.999999987              -0.000998906              -0.000077990               0.999999987              -0.001007583              -0.000077773               0.999999987              -0.001016963              -0.000076927               0.999999987              -0.001026672              -0.000074934               0.999999987              -0.001036277              -0.000071525               0.999999987              -0.001045415              -0.000066556               0.999999987              -0.001053703              -0.000059587               0.999999987              -0.001060668              -0.000050044               0.999999987              -0.001065755              -0.000037223               0.999999987              -0.001068279              -0.000020198               0.999999987              -0.001067565               0.000002114               0.999999987              -0.000894608              -0.000249915               0.999999987              -0.000925661              -0.000197150               0.999999987              -0.000934739              -0.000173536               0.999999987              -0.000938325              -0.000163505               0.999999987              -0.000941567              -0.000159969               0.999999987              -0.000945818              -0.000159482               0.999999987              -0.000951229              -0.000159953               0.999999987              -0.000957352              -0.000159783               0.999999987              -0.000963641              -0.000158016               0.999999987              -0.000969665              -0.000154060               0.999999987              -0.000974928              -0.000147312               0.999999987              -0.000979119              -0.000137707               0.999999987              -0.000981817              -0.000124177               0.999999987              -0.000982500              -0.000105803               0.999999987              -0.000980756              -0.000081742               0.999999987              -0.000976226              -0.000050893               0.999999987              -0.000968781              -0.000011771               0.999999987              -0.000869513              -0.000371958               0.999999987              -0.000881286              -0.000295119               0.999999987              -0.000879428              -0.000262725               0.999999987              -0.000876643              -0.000250232               0.999999987              -0.000875708              -0.000246804               0.999999987              -0.000876687              -0.000247260               0.999999987              -0.000878907              -0.000248478               0.999999987              -0.000881310              -0.000248301               0.999999987              -0.000883108              -0.000245623               0.999999987              -0.000883799              -0.000239682               0.999999987              -0.000882868              -0.000229845               0.999999987              -0.000879828              -0.000215749               0.999999987              -0.000874316              -0.000196455               0.999999987              -0.000866005              -0.000170925               0.999999987              -0.000854765              -0.000138486               0.999999987              -0.000840797              -0.000098409               0.999999987              -0.000824521              -0.000050320               0.999999987              -0.000834952              -0.000490672               0.999999987              -0.000822233              -0.000392705               0.999999987              -0.000808165              -0.000354564               0.999999987              -0.000798974              -0.000341793               0.999999987              -0.000794146              -0.000339753               0.999999987              -0.000791897              -0.000341792               0.999999987              -0.000790395              -0.000343994               0.999999987              -0.000788343              -0.000343866               0.999999987              -0.000784800              -0.000340236               0.999999987              -0.000779033              -0.000332305               0.999999987              -0.000770400              -0.000319517               0.999999987              -0.000758500              -0.000301361               0.999999987              -0.000743113              -0.000277337               0.999999987              -0.000724402              -0.000246638               0.999999987              -0.000702681              -0.000209072               0.999999987              -0.000678564              -0.000165091               0.999999987              -0.000653118              -0.000115476               0.999999987              -0.000791665              -0.000604918               0.999999987              -0.000751529              -0.000490130               0.999999987              -0.000726219              -0.000449302               0.999999987              -0.000712186              -0.000437934               0.999999987              -0.000704578              -0.000438127               0.999999987              -0.000699555              -0.000441941               0.999999987              -0.000694430              -0.000444970               0.999999987              -0.000687611              -0.000444862               0.999999987              -0.000677948              -0.000440304               0.999999987              -0.000664669              -0.000430447               0.999999987              -0.000647279              -0.000414779               0.999999987              -0.000625632              -0.000392979               0.999999987              -0.000599996              -0.000365122               0.999999987              -0.000570843              -0.000331304               0.999999987              -0.000538999              -0.000291631               0.999999987              -0.000505439              -0.000247425               0.999999987              -0.000471213              -0.000200508               0.999999987              -0.000740700              -0.000713512               0.999999987              -0.000672941              -0.000587313               0.999999987              -0.000639134              -0.000546420               0.999999987              -0.000622550              -0.000537535               0.999999987              -0.000613506              -0.000540224               0.999999987              -0.000606338              -0.000545565               0.999999987              -0.000597600              -0.000549164               0.999999987              -0.000585535              -0.000548982               0.999999987              -0.000569077              -0.000543342               0.999999987              -0.000547490              -0.000531470               0.999999987              -0.000520851              -0.000513175               0.999999987              -0.000489272              -0.000488298               0.999999987              -0.000453295              -0.000457830               0.999999987              -0.000413816              -0.000422275               0.999999987              -0.000371874              -0.000382560               0.999999987              -0.000328593              -0.000340311               0.999999987              -0.000284883              -0.000297270               0.999999987              -0.000683128              -0.000815383               0.999999987              -0.000590246              -0.000683962               0.999999987              -0.000551716              -0.000644904               0.999999987              -0.000535265              -0.000638586               0.999999987              -0.000526006              -0.000643426               0.999999987              -0.000516898              -0.000650054               0.999999987              -0.000504232              -0.000654170               0.999999987              -0.000486410              -0.000653702               0.999999987              -0.000462379              -0.000646789               0.999999987              -0.000431819              -0.000632991               0.999999987              -0.000394988              -0.000612302               0.999999987              -0.000352390              -0.000585321               0.999999987              -0.000305132              -0.000553334               0.999999987              -0.000254312              -0.000517674               0.999999987              -0.000201285              -0.000479558               0.999999987              -0.000147411              -0.000440675               0.999999987              -0.000093460              -0.000401919               0.999999987              -0.000620909              -0.000908635               0.999999987              -0.000506246              -0.000779939               0.999999987              -0.000468255              -0.000743206               0.999999987              -0.000453960              -0.000738791               0.999999987              -0.000445198              -0.000745261               0.999999987              -0.000433959              -0.000753006               0.999999987              -0.000417054              -0.000757534               0.999999987              -0.000392669              -0.000756398               0.999999987              -0.000359981              -0.000748172               0.999999987              -0.000319102              -0.000732573               0.999999987              -0.000270573              -0.000709931               0.999999987              -0.000215661              -0.000681597               0.999999987              -0.000155607              -0.000649464               0.999999987              -0.000092263              -0.000615362               0.999999987              -0.000027584              -0.000580734               0.999999987               0.000037075              -0.000546797               0.999999987               0.000101425              -0.000513764               0.999999987              -0.000556467              -0.000997104               0.999999987              -0.000435544              -0.000888062               0.999999987              -0.000395403              -0.000848409               0.999999987              -0.000380977              -0.000839945               0.999999987              -0.000373471              -0.000844330               0.999999987              -0.000364777              -0.000852674               0.999999987              -0.000351518              -0.000860444               0.999999987              -0.000331623              -0.000864977               0.999999987              -0.000304117              -0.000864726               0.999999987              -0.000268855              -0.000858862               0.999999987              -0.000226094              -0.000847013               0.999999987              -0.000176171              -0.000829737               0.999999987              -0.000119799              -0.000808202               0.999999987              -0.000058380              -0.000783957               0.999999987               0.000006296              -0.000758681               0.999999987               0.000072377              -0.000733731               0.999999987               0.000138269              -0.000709931               0.999999987              -0.000486322              -0.001077915               0.999999987              -0.000367265              -0.000992830               0.999999987              -0.000325177              -0.000956419               0.999999987              -0.000309832              -0.000946136               0.999999987              -0.000302727              -0.000949275               0.999999987              -0.000295906              -0.000958234               0.999999987              -0.000285667              -0.000968748               0.999999987              -0.000269795              -0.000978228               0.999999987              -0.000247021              -0.000984951               0.999999987              -0.000217181              -0.000987967               0.999999987              -0.000180370              -0.000986238               0.999999987              -0.000136342              -0.000979753               0.999999987              -0.000085052              -0.000968930               0.999999987              -0.000027094              -0.000954885               0.999999987               0.000036148              -0.000938825               0.999999987               0.000102685              -0.000922274               0.999999987               0.000170761              -0.000906403               0.999999987              -0.000411904              -0.001148957               0.999999987              -0.000301428              -0.001091102               0.999999987              -0.000259274              -0.001062210               0.999999987              -0.000242806              -0.001053320               0.999999987              -0.000235538              -0.001056676               0.999999987              -0.000229739              -0.001066691               0.999999987              -0.000221796              -0.001079839               0.999999987              -0.000209242              -0.001093824               0.999999987              -0.000190874              -0.001106736               0.999999987              -0.000166255              -0.001117460               0.999999987              -0.000135371              -0.001125251               0.999999987              -0.000097690              -0.001129308               0.999999987              -0.000052784              -0.001129454               0.999999987              -0.000000215              -0.001126167               0.999999987               0.000059549              -0.001120230               0.999999987               0.000125125              -0.001112870               0.999999987               0.000194956              -0.001105171               0.999999987              -0.000333883              -0.001208893               0.999999987              -0.000238074              -0.001178756               0.999999987              -0.000198535              -0.001160561               0.999999987              -0.000181814              -0.001155640               0.999999987              -0.000174089              -0.001161072               0.999999987              -0.000168808              -0.001173132               0.999999987              -0.000162428              -0.001189195               0.999999987              -0.000152825              -0.001207190               0.999999987              -0.000138441              -0.001225670               0.999999987              -0.000118868              -0.001243379               0.999999987              -0.000093890              -0.001259488               0.999999987              -0.000062953              -0.001273184               0.999999987              -0.000025337              -0.001284017               0.999999987               0.000020003              -0.001291754               0.999999987               0.000073477              -0.001296698               0.999999987               0.000134765              -0.001299477               0.999999987               0.000203658              -0.001301005               0.999999987              -0.000252918              -0.001256631               0.999999987              -0.000176897              -0.001251584               0.999999987              -0.000143179              -0.001245426               0.999999987              -0.000127755              -0.001246487               0.999999987              -0.000120195              -0.001255182               0.999999987              -0.000115412              -0.001270050               0.999999987              -0.000110319              -0.001289225               0.999999987              -0.000103113              -0.001311299               0.999999987              -0.000092346              -0.001334899               0.999999987              -0.000077579              -0.001358796               0.999999987              -0.000058642              -0.001382119               0.999999987              -0.000035004              -0.001404229               0.999999987              -0.000005577              -0.001424625               0.999999987               0.000030674              -0.001442683               0.999999987               0.000074822              -0.001458309               0.999999987               0.000127721              -0.001471610               0.999999987               0.000189996              -0.001482930               0.999999987              -0.000169809              -0.001291139               0.999999987              -0.000117212              -0.001306106               0.999999987              -0.000092545              -0.001310969               0.999999987              -0.000080592              -0.001318323               0.999999987              -0.000074332              -0.001330928               0.999999987              -0.000070423              -0.001348777               0.999999987              -0.000066612              -0.001370935               0.999999987              -0.000061750              -0.001396463               0.999999987              -0.000054630              -0.001424168               0.999999987              -0.000044791              -0.001453051               0.999999987              -0.000031961              -0.001482338               0.999999987              -0.000015813              -0.001511364               0.999999987               0.000004295              -0.001539538               0.999999987               0.000029520              -0.001566273               0.999999987               0.000061288              -0.001591109               0.999999987               0.000100810              -0.001613836               0.999999987               0.000149361              -0.001634307               0.999999987              -0.000085268              -0.001311979               0.999999987              -0.000058382              -0.001339755               0.999999987              -0.000045376              -0.001352366               0.999999987              -0.000038831              -0.001364448               0.999999987              -0.000035238              -0.001380194               0.999999987              -0.000032988              -0.001400448               0.999999987              -0.000030890              -0.001424782               0.999999987              -0.000028390              -0.001452562               0.999999987              -0.000024914              -0.001482953               0.999999987              -0.000020068              -0.001515151               0.999999987              -0.000013492              -0.001548473               0.999999987              -0.000005263              -0.001582260               0.999999987               0.000004775              -0.001615845               0.999999987               0.000017766              -0.001648741               0.999999987               0.000034534              -0.001680312               0.999999987               0.000055921              -0.001710021               0.999999987               0.000083168              -0.001737230               0.999999987               0.000000000              -0.001319003               0.999999987               0.000000000              -0.001351116               0.999999987               0.000000000              -0.001366456               0.999999987               0.000000000              -0.001380311               0.999999987              -0.000000000              -0.001397288               0.999999987              -0.000000000              -0.001418547               0.999999987               0.000000000              -0.001443641               0.999999987              -0.000000000              -0.001472051               0.999999987              -0.000000000              -0.001503340               0.999999987               0.000000000              -0.001536804               0.999999987               0.000000000              -0.001571570               0.999999987               0.000000000              -0.001607039               0.999999987               0.000000000              -0.001642665               0.999999987              -0.000000000              -0.001677962               0.999999987               0.000000000              -0.001712288               0.999999987               0.000000000              -0.001744807               0.999999987              -0.000000000              -0.001774601               0.999999987               0.000915111              -0.000000000               0.999999987               0.000962694              -0.000000000               0.999999987               0.000981975               0.000000000               0.999999987               0.000991977              -0.000000000               0.999999987               0.000999554               0.000000000               0.999999987               0.001007122               0.000000000               0.999999987               0.001015624               0.000000000               0.999999987               0.001025173               0.000000000               0.999999987               0.001035647               0.000000000               0.999999987               0.001046672               0.000000000               0.999999987               0.001057857              -0.000000000               0.999999987               0.001068777               0.000000000               0.999999987               0.001079178              -0.000000000               0.999999987               0.001088514               0.000000000               0.999999987               0.001096068               0.000000000               0.999999987               0.001101200              -0.000000000               0.999999987               0.001102970              -0.000000000               0.999999987               0.000909910              -0.000125568               0.999999987               0.000953252              -0.000098706               0.999999987               0.000969859              -0.000086256               0.999999987               0.000978167              -0.000080678               0.999999987               0.000984601              -0.000078436               0.999999987               0.000991259              -0.000077945               0.999999987               0.000998906              -0.000077990               0.999999987               0.001007583              -0.000077773               0.999999987               0.001016963              -0.000076927               0.999999987               0.001026672              -0.000074934               0.999999987               0.001036277              -0.000071525               0.999999987               0.001045415              -0.000066556               0.999999987               0.001053703              -0.000059587               0.999999987               0.001060668              -0.000050044               0.999999987               0.001065755              -0.000037223               0.999999987               0.001068279              -0.000020198               0.999999987               0.001067565               0.000002114               0.999999987               0.000894608              -0.000249915               0.999999987               0.000925661              -0.000197150               0.999999987               0.000934739              -0.000173536               0.999999987               0.000938325              -0.000163505               0.999999987               0.000941567              -0.000159969               0.999999987               0.000945818              -0.000159482               0.999999987               0.000951229              -0.000159953               0.999999987               0.000957352              -0.000159783               0.999999987               0.000963641              -0.000158016               0.999999987               0.000969665              -0.000154060               0.999999987               0.000974928              -0.000147312               0.999999987               0.000979119              -0.000137707               0.999999987               0.000981817              -0.000124177               0.999999987               0.000982500              -0.000105803               0.999999987               0.000980756              -0.000081742               0.999999987               0.000976226              -0.000050893               0.999999987               0.000968781              -0.000011771               0.999999987               0.000869513              -0.000371958               0.999999987               0.000881286              -0.000295119               0.999999987               0.000879428              -0.000262725               0.999999987               0.000876643              -0.000250232               0.999999987               0.000875708              -0.000246804               0.999999987               0.000876687              -0.000247260               0.999999987               0.000878907              -0.000248478               0.999999987               0.000881310              -0.000248301               0.999999987               0.000883108              -0.000245623               0.999999987               0.000883799              -0.000239682               0.999999987               0.000882868              -0.000229845               0.999999987               0.000879828              -0.000215749               0.999999987               0.000874316              -0.000196455               0.999999987               0.000866005              -0.000170925               0.999999987               0.000854765              -0.000138486               0.999999987               0.000840797              -0.000098409               0.999999987               0.000824521              -0.000050320               0.999999987               0.000834952              -0.000490672               0.999999987               0.000822233              -0.000392705               0.999999987               0.000808165              -0.000354564               0.999999987               0.000798974              -0.000341793               0.999999987               0.000794146              -0.000339753               0.999999987               0.000791897              -0.000341792               0.999999987               0.000790395              -0.000343994               0.999999987               0.000788343              -0.000343866               0.999999987               0.000784800              -0.000340236               0.999999987               0.000779033              -0.000332305               0.999999987               0.000770400              -0.000319517               0.999999987               0.000758500              -0.000301361               0.999999987               0.000743113              -0.000277337               0.999999987               0.000724402              -0.000246638               0.999999987               0.000702681              -0.000209072               0.999999987               0.000678564              -0.000165091               0.999999987               0.000653118              -0.000115476               0.999999987               0.000791665              -0.000604918               0.999999987               0.000751529              -0.000490130               0.999999987               0.000726219              -0.000449302               0.999999987               0.000712186              -0.000437934               0.999999987               0.000704578              -0.000438127               0.999999987               0.000699555              -0.000441941               0.999999987               0.000694430              -0.000444970               0.999999987               0.000687611              -0.000444862               0.999999987               0.000677948              -0.000440304               0.999999987               0.000664669              -0.000430447               0.999999987               0.000647279              -0.000414779               0.999999987               0.000625632              -0.000392979               0.999999987               0.000599996              -0.000365122               0.999999987               0.000570843              -0.000331304               0.999999987               0.000538999              -0.000291631               0.999999987               0.000505439              -0.000247425               0.999999987               0.000471213              -0.000200508               0.999999987               0.000740700              -0.000713512               0.999999987               0.000672941              -0.000587313               0.999999987               0.000639134              -0.000546420               0.999999987               0.000622550              -0.000537535               0.999999987               0.000613506              -0.000540224               0.999999987               0.000606338              -0.000545565               0.999999987               0.000597600              -0.000549164               0.999999987               0.000585535              -0.000548982               0.999999987               0.000569077              -0.000543342               0.999999987               0.000547490              -0.000531470               0.999999987               0.000520851              -0.000513175               0.999999987               0.000489272              -0.000488298               0.999999987               0.000453295              -0.000457830               0.999999987               0.000413816              -0.000422275               0.999999987               0.000371874              -0.000382560               0.999999987               0.000328593              -0.000340311               0.999999987               0.000284883              -0.000297270               0.999999987               0.000683128              -0.000815383               0.999999987               0.000590246              -0.000683962               0.999999987               0.000551716              -0.000644904               0.999999987               0.000535265              -0.000638586               0.999999987               0.000526006              -0.000643426               0.999999987               0.000516898              -0.000650054               0.999999987               0.000504232              -0.000654170               0.999999987               0.000486410              -0.000653702               0.999999987               0.000462379              -0.000646789               0.999999987               0.000431819              -0.000632991               0.999999987               0.000394988              -0.000612302               0.999999987               0.000352390              -0.000585321               0.999999987               0.000305132              -0.000553334               0.999999987               0.000254312              -0.000517674               0.999999987               0.000201285              -0.000479558               0.999999987               0.000147411              -0.000440675               0.999999987               0.000093460              -0.000401919               0.999999987               0.000620909              -0.000908635               0.999999987               0.000506246              -0.000779939               0.999999987               0.000468255              -0.000743206               0.999999987               0.000453960              -0.000738791               0.999999987               0.000445198              -0.000745261               0.999999987               0.000433959              -0.000753006               0.999999987               0.000417054              -0.000757534               0.999999987               0.000392669              -0.000756398               0.999999987               0.000359981              -0.000748172               0.999999987               0.000319102              -0.000732573               0.999999987               0.000270573              -0.000709931               0.999999987               0.000215661              -0.000681597               0.999999987               0.000155607              -0.000649464               0.999999987               0.000092263              -0.000615362               0.999999987               0.000027584              -0.000580734               0.999999987              -0.000037075              -0.000546797               0.999999987              -0.000101425              -0.000513764               0.999999987               0.000556467              -0.000997104               0.999999987               0.000435544              -0.000888062               0.999999987               0.000395403              -0.000848409               0.999999987               0.000380977              -0.000839945               0.999999987               0.000373471              -0.000844330               0.999999987               0.000364777              -0.000852674               0.999999987               0.000351518              -0.000860444               0.999999987               0.000331623              -0.000864977               0.999999987               0.000304117              -0.000864726               0.999999987               0.000268855              -0.000858862               0.999999987               0.000226094              -0.000847013               0.999999987               0.000176171              -0.000829737               0.999999987               0.000119799              -0.000808202               0.999999987               0.000058380              -0.000783957               0.999999987              -0.000006296              -0.000758681               0.999999987              -0.000072377              -0.000733731               0.999999987              -0.000138269              -0.000709931               0.999999987               0.000486322              -0.001077915               0.999999987               0.000367265              -0.000992830               0.999999987               0.000325177              -0.000956419               0.999999987               0.000309832              -0.000946136               0.999999987               0.000302727              -0.000949275               0.999999987               0.000295906              -0.000958234               0.999999987               0.000285667              -0.000968748               0.999999987               0.000269795              -0.000978228               0.999999987               0.000247021              -0.000984951               0.999999987               0.000217181              -0.000987967               0.999999987               0.000180370              -0.000986238               0.999999987               0.000136342              -0.000979753               0.999999987               0.000085052              -0.000968930               0.999999987               0.000027094              -0.000954885               0.999999987              -0.000036148              -0.000938825               0.999999987              -0.000102685              -0.000922274               0.999999987              -0.000170761              -0.000906403               0.999999987               0.000411904              -0.001148957               0.999999987               0.000301428              -0.001091102               0.999999987               0.000259274              -0.001062210               0.999999987               0.000242806              -0.001053320               0.999999987               0.000235538              -0.001056676               0.999999987               0.000229739              -0.001066691               0.999999987               0.000221796              -0.001079839               0.999999987               0.000209242              -0.001093824               0.999999987               0.000190874              -0.001106736               0.999999987               0.000166255              -0.001117460               0.999999987               0.000135371              -0.001125251               0.999999987               0.000097690              -0.001129308               0.999999987               0.000052784              -0.001129454               0.999999987               0.000000215              -0.001126167               0.999999987              -0.000059549              -0.001120230               0.999999987              -0.000125125              -0.001112870               0.999999987              -0.000194956              -0.001105171               0.999999987               0.000333883              -0.001208893               0.999999987               0.000238074              -0.001178756               0.999999987               0.000198535              -0.001160561               0.999999987               0.000181814              -0.001155640               0.999999987               0.000174089              -0.001161072               0.999999987               0.000168808              -0.001173132               0.999999987               0.000162428              -0.001189195               0.999999987               0.000152825              -0.001207190               0.999999987               0.000138441              -0.001225670               0.999999987               0.000118868              -0.001243379               0.999999987               0.000093890              -0.001259488               0.999999987               0.000062953              -0.001273184               0.999999987               0.000025337              -0.001284017               0.999999987              -0.000020003              -0.001291754               0.999999987              -0.000073477              -0.001296698               0.999999987              -0.000134765              -0.001299477               0.999999987              -0.000203658              -0.001301005               0.999999987               0.000252918              -0.001256631               0.999999987               0.000176897              -0.001251584               0.999999987               0.000143179              -0.001245426               0.999999987               0.000127755              -0.001246487               0.999999987               0.000120195              -0.001255182               0.999999987               0.000115412              -0.001270050               0.999999987               0.000110319              -0.001289225               0.999999987               0.000103113              -0.001311299               0.999999987               0.000092346              -0.001334899               0.999999987               0.000077579              -0.001358796               0.999999987               0.000058642              -0.001382119               0.999999987               0.000035004              -0.001404229               0.999999987               0.000005577              -0.001424625               0.999999987              -0.000030674              -0.001442683               0.999999987              -0.000074822              -0.001458309               0.999999987              -0.000127721              -0.001471610               0.999999987              -0.000189996              -0.001482930               0.999999987               0.000169809              -0.001291139               0.999999987               0.000117212              -0.001306106               0.999999987               0.000092545              -0.001310969               0.999999987               0.000080592              -0.001318323               0.999999987               0.000074332              -0.001330928               0.999999987               0.000070423              -0.001348777               0.999999987               0.000066612              -0.001370935               0.999999987               0.000061750              -0.001396463               0.999999987               0.000054630              -0.001424168               0.999999987               0.000044791              -0.001453051               0.999999987               0.000031961              -0.001482338               0.999999987               0.000015813              -0.001511364               0.999999987              -0.000004295              -0.001539538               0.999999987              -0.000029520              -0.001566273               0.999999987              -0.000061288              -0.001591109               0.999999987              -0.000100810              -0.001613836               0.999999987              -0.000149361              -0.001634307               0.999999987               0.000085268              -0.001311979               0.999999987               0.000058382              -0.001339755               0.999999987               0.000045376              -0.001352366               0.999999987               0.000038831              -0.001364448               0.999999987               0.000035238              -0.001380194               0.999999987               0.000032988              -0.001400448               0.999999987               0.000030890              -0.001424782               0.999999987               0.000028390              -0.001452562               0.999999987               0.000024914              -0.001482953               0.999999987               0.000020068              -0.001515151               0.999999987               0.000013492              -0.001548473               0.999999987               0.000005263              -0.001582260               0.999999987              -0.000004775              -0.001615845               0.999999987              -0.000017766              -0.001648741               0.999999987              -0.000034534              -0.001680312               0.999999987              -0.000055921              -0.001710021               0.999999987              -0.000083168              -0.001737230               0.999999987               0.000000000              -0.001319003               0.999999987               0.000000000              -0.001351116               0.999999987               0.000000000              -0.001366456               0.999999987               0.000000000              -0.001380311               0.999999987              -0.000000000              -0.001397288               0.999999987              -0.000000000              -0.001418547               0.999999987               0.000000000              -0.001443641               0.999999987              -0.000000000              -0.001472051               0.999999987              -0.000000000              -0.001503340               0.999999987               0.000000000              -0.001536804               0.999999987               0.000000000              -0.001571570               0.999999987               0.000000000              -0.001607039               0.999999987               0.000000000              -0.001642665               0.999999987              -0.000000000              -0.001677962               0.999999987               0.000000000              -0.001712288               0.999999987               0.000000000              -0.001744807               0.999999987              -0.000000000              -0.001774601               0.999999987               0.000915111              -0.000000000               0.999999987               0.000962694              -0.000000000               0.999999987               0.000981975               0.000000000               0.999999987               0.000991977              -0.000000000               0.999999987               0.000999554               0.000000000               0.999999987               0.001007122               0.000000000               0.999999987               0.001015624               0.000000000               0.999999987               0.001025173               0.000000000               0.999999987               0.001035647               0.000000000               0.999999987               0.001046672               0.000000000               0.999999987               0.001057857              -0.000000000               0.999999987               0.001068777               0.000000000               0.999999987               0.001079178              -0.000000000               0.999999987               0.001088514               0.000000000               0.999999987               0.001096068               0.000000000               0.999999987               0.001101200              -0.000000000               0.999999987               0.001102970              -0.000000000               0.999999987               0.000909910               0.000125568               0.999999987               0.000953252               0.000098706               0.999999987               0.000969859               0.000086256               0.999999987               0.000978167               0.000080678               0.999999987               0.000984601               0.000078436               0.999999987               0.000991259               0.000077945               0.999999987               0.000998906               0.000077990               0.999999987               0.001007583               0.000077773               0.999999987               0.001016963               0.000076927               0.999999987               0.001026672               0.000074934               0.999999987               0.001036277               0.000071525               0.999999987               0.001045415               0.000066556               0.999999987               0.001053703               0.000059587               0.999999987               0.001060668               0.000050044               0.999999987               0.001065755               0.000037223               0.999999987               0.001068279               0.000020198               0.999999987               0.001067565              -0.000002114               0.999999987               0.000894608               0.000249915               0.999999987               0.000925661               0.000197150               0.999999987               0.000934739               0.000173536               0.999999987               0.000938325               0.000163505               0.999999987               0.000941567               0.000159969               0.999999987               0.000945818               0.000159482               0.999999987               0.000951229               0.000159953               0.999999987               0.000957352               0.000159783               0.999999987               0.000963641               0.000158016               0.999999987               0.000969665               0.000154060               0.999999987               0.000974928               0.000147312               0.999999987               0.000979119               0.000137707               0.999999987               0.000981817               0.000124177               0.999999987               0.000982500               0.000105803               0.999999987               0.000980756               0.000081742               0.999999987               0.000976226               0.000050893               0.999999987               0.000968781               0.000011771               0.999999987               0.000869513               0.000371958               0.999999987               0.000881286               0.000295119               0.999999987               0.000879428               0.000262725               0.999999987               0.000876643               0.000250232               0.999999987               0.000875708               0.000246804               0.999999987               0.000876687               0.000247260               0.999999987               0.000878907               0.000248478               0.999999987               0.000881310               0.000248301               0.999999987               0.000883108               0.000245623               0.999999987               0.000883799               0.000239682               0.999999987               0.000882868               0.000229845               0.999999987               0.000879828               0.000215749               0.999999987               0.000874316               0.000196455               0.999999987               0.000866005               0.000170925               0.999999987               0.000854765               0.000138486               0.999999987               0.000840797               0.000098409               0.999999987               0.000824521               0.000050320               0.999999987               0.000834952               0.000490672               0.999999987               0.000822233               0.000392705               0.999999987               0.000808165               0.000354564               0.999999987               0.000798974               0.000341793               0.999999987               0.000794146               0.000339753               0.999999987               0.000791897               0.000341792               0.999999987               0.000790395               0.000343994               0.999999987               0.000788343               0.000343866               0.999999987               0.000784800               0.000340236               0.999999987               0.000779033               0.000332305               0.999999987               0.000770400               0.000319517               0.999999987               0.000758500               0.000301361               0.999999987               0.000743113               0.000277337               0.999999987               0.000724402               0.000246638               0.999999987               0.000702681               0.000209072               0.999999987               0.000678564               0.000165091               0.999999987               0.000653118               0.000115476               0.999999987               0.000791665               0.000604918               0.999999987               0.000751529               0.000490130               0.999999987               0.000726219               0.000449302               0.999999987               0.000712186               0.000437934               0.999999987               0.000704578               0.000438127               0.999999987               0.000699555               0.000441941               0.999999987               0.000694430               0.000444970               0.999999987               0.000687611               0.000444862               0.999999987               0.000677948               0.000440304               0.999999987               0.000664669               0.000430447               0.999999987               0.000647279               0.000414779               0.999999987               0.000625632               0.000392979               0.999999987               0.000599996               0.000365122               0.999999987               0.000570843               0.000331304               0.999999987               0.000538999               0.000291631               0.999999987               0.000505439               0.000247425               0.999999987               0.000471213               0.000200508               0.999999987               0.000740700               0.000713512               0.999999987               0.000672941               0.000587313               0.999999987               0.000639134               0.000546420               0.999999987               0.000622550               0.000537535               0.999999987               0.000613506               0.000540224               0.999999987               0.000606338               0.000545565               0.999999987               0.000597600               0.000549164               0.999999987               0.000585535               0.000548982               0.999999987               0.000569077               0.000543342               0.999999987               0.000547490               0.000531470               0.999999987               0.000520851               0.000513175               0.999999987               0.000489272               0.000488298               0.999999987               0.000453295               0.000457830               0.999999987               0.000413816               0.000422275               0.999999987               0.000371874               0.000382560               0.999999987               0.000328593               0.000340311               0.999999987               0.000284883               0.000297270               0.999999987               0.000683128               0.000815383               0.999999987               0.000590246               0.000683962               0.999999987               0.000551716               0.000644904               0.999999987               0.000535265               0.000638586               0.999999987               0.000526006               0.000643426               0.999999987               0.000516898               0.000650054               0.999999987               0.000504232               0.000654170               0.999999987               0.000486410               0.000653702               0.999999987               0.000462379               0.000646789               0.999999987               0.000431819               0.000632991               0.999999987               0.000394988               0.000612302               0.999999987               0.000352390               0.000585321               0.999999987               0.000305132               0.000553334               0.999999987               0.000254312               0.000517674               0.999999987               0.000201285               0.000479558               0.999999987               0.000147411               0.000440675               0.999999987               0.000093460               0.000401919               0.999999987               0.000620909               0.000908635               0.999999987               0.000506246               0.000779939               0.999999987               0.000468255               0.000743206               0.999999987               0.000453960               0.000738791               0.999999987               0.000445198               0.000745261               0.999999987               0.000433959               0.000753006               0.999999987               0.000417054               0.000757534               0.999999987               0.000392669               0.000756398               0.999999987               0.000359981               0.000748172               0.999999987               0.000319102               0.000732573               0.999999987               0.000270573               0.000709931               0.999999987               0.000215661               0.000681597               0.999999987               0.000155607               0.000649464               0.999999987               0.000092263               0.000615362               0.999999987               0.000027584               0.000580734               0.999999987              -0.000037075               0.000546797               0.999999987              -0.000101425               0.000513764               0.999999987               0.000556467               0.000997104               0.999999987               0.000435544               0.000888062               0.999999987               0.000395403               0.000848409               0.999999987               0.000380977               0.000839945               0.999999987               0.000373471               0.000844330               0.999999987               0.000364777               0.000852674               0.999999987               0.000351518               0.000860444               0.999999987               0.000331623               0.000864977               0.999999987               0.000304117               0.000864726               0.999999987               0.000268855               0.000858862               0.999999987               0.000226094               0.000847013               0.999999987               0.000176171               0.000829737               0.999999987               0.000119799               0.000808202               0.999999987               0.000058380               0.000783957               0.999999987              -0.000006296               0.000758681               0.999999987              -0.000072377               0.000733731               0.999999987              -0.000138269               0.000709931               0.999999987               0.000486322               0.001077915               0.999999987               0.000367265               0.000992830               0.999999987               0.000325177               0.000956419               0.999999987               0.000309832               0.000946136               0.999999987               0.000302727               0.000949275               0.999999987               0.000295906               0.000958234               0.999999987               0.000285667               0.000968748               0.999999987               0.000269795               0.000978228               0.999999987               0.000247021               0.000984951               0.999999987               0.000217181               0.000987967               0.999999987               0.000180370               0.000986238               0.999999987               0.000136342               0.000979753               0.999999987               0.000085052               0.000968930               0.999999987               0.000027094               0.000954885               0.999999987              -0.000036148               0.000938825               0.999999987              -0.000102685               0.000922274               0.999999987              -0.000170761               0.000906403               0.999999987               0.000411904               0.001148957               0.999999987               0.000301428               0.001091102               0.999999987               0.000259274               0.001062210               0.999999987               0.000242806               0.001053320               0.999999987               0.000235538               0.001056676               0.999999987               0.000229739               0.001066691               0.999999987               0.000221796               0.001079839               0.999999987               0.000209242               0.001093824               0.999999987               0.000190874               0.001106736               0.999999987               0.000166255               0.001117460               0.999999987               0.000135371               0.001125251               0.999999987               0.000097690               0.001129308               0.999999987               0.000052784               0.001129454               0.999999987               0.000000215               0.001126167               0.999999987              -0.000059549               0.001120230               0.999999987              -0.000125125               0.001112870               0.999999987              -0.000194956               0.001105171               0.999999987               0.000333883               0.001208893               0.999999987               0.000238074               0.001178756               0.999999987               0.000198535               0.001160561               0.999999987               0.000181814               0.001155640               0.999999987               0.000174089               0.001161072               0.999999987               0.000168808               0.001173132               0.999999987               0.000162428               0.001189195               0.999999987               0.000152825               0.001207190               0.999999987               0.000138441               0.001225670               0.999999987               0.000118868               0.001243379               0.999999987               0.000093890               0.001259488               0.999999987               0.000062953               0.001273184               0.999999987               0.000025337               0.001284017               0.999999987              -0.000020003               0.001291754               0.999999987              -0.000073477               0.001296698               0.999999987              -0.000134765               0.001299477               0.999999987              -0.000203658               0.001301005               0.999999987               0.000252918               0.001256631               0.999999987               0.000176897               0.001251584               0.999999987               0.000143179               0.001245426               0.999999987               0.000127755               0.001246487               0.999999987               0.000120195               0.001255182               0.999999987               0.000115412               0.001270050               0.999999987               0.000110319               0.001289225               0.999999987               0.000103113               0.001311299               0.999999987               0.000092346               0.001334899               0.999999987               0.000077579               0.001358796               0.999999987               0.000058642               0.001382119               0.999999987               0.000035004               0.001404229               0.999999987               0.000005577               0.001424625               0.999999987              -0.000030674               0.001442683               0.999999987              -0.000074822               0.001458309               0.999999987              -0.000127721               0.001471610               0.999999987              -0.000189996               0.001482930               0.999999987               0.000169809               0.001291139               0.999999987               0.000117212               0.001306106               0.999999987               0.000092545               0.001310969               0.999999987               0.000080592               0.001318323               0.999999987               0.000074332               0.001330928               0.999999987               0.000070423               0.001348777               0.999999987               0.000066612               0.001370935               0.999999987               0.000061750               0.001396463               0.999999987               0.000054630               0.001424168               0.999999987               0.000044791               0.001453051               0.999999987               0.000031961               0.001482338               0.999999987               0.000015813               0.001511364               0.999999987              -0.000004295               0.001539538               0.999999987              -0.000029520               0.001566273               0.999999987              -0.000061288               0.001591109               0.999999987              -0.000100810               0.001613836               0.999999987              -0.000149361               0.001634307               0.999999987               0.000085268               0.001311979               0.999999987               0.000058382               0.001339755               0.999999987               0.000045376               0.001352366               0.999999987               0.000038831               0.001364448               0.999999987               0.000035238               0.001380194               0.999999987               0.000032988               0.001400448               0.999999987               0.000030890               0.001424782               0.999999987               0.000028390               0.001452562               0.999999987               0.000024914               0.001482953               0.999999987               0.000020068               0.001515151               0.999999987               0.000013492               0.001548473               0.999999987               0.000005263               0.001582260               0.999999987              -0.000004775               0.001615845               0.999999987              -0.000017766               0.001648741               0.999999987              -0.000034534               0.001680312               0.999999987              -0.000055921               0.001710021               0.999999987              -0.000083168               0.001737230               0.999999987              -0.000000000               0.001319003               0.999999987              -0.000000000               0.001351116               0.999999987              -0.000000000               0.001366456               0.999999987               0.000000000               0.001380311               0.999999987               0.000000000               0.001397288               0.999999987               0.000000000               0.001418547               0.999999987               0.000000000               0.001443641               0.999999987               0.000000000               0.001472051               0.999999987              -0.000000000               0.001503340               0.999999987              -0.000000000               0.001536804               0.999999987              -0.000000000               0.001571570               0.999999987               0.000000000               0.001607039               0.999999987              -0.000000000               0.001642665               0.999999987              -0.000000000               0.001677962               0.999999987              -0.000000000               0.001712288               0.999999987               0.000000000               0.001744807               0.999999987               0.000000000               0.001774601               0.999999987 </DataArray>
<DataArray type="Float64"                                    Name="defo"                                                      NumberOfComponents=" 3" format="ascii">
             -0.000915111              -0.000000000               0.999999987              -0.000962694              -0.000000000               0.999999987              -0.000981975               0.000000000               0.999999987              -0.000991977               0.000000000               0.999999987              -0.000999554               0.000000000               0.999999987              -0.001007122              -0.000000000               0.999999987              -0.001015624              -0.000000000               0.999999987              -0.001025173               0.000000000               0.999999987              -0.001035647              -0.000000000               0.999999987              -0.001046672              -0.000000000               0.999999987              -0.001057857               0.000000000               0.999999987              -0.001068777               0.000000000               0.999999987              -0.001079178              -0.000000000               0.999999987              -0.001088514              -0.000000000               0.999999987              -0.001096068              -0.000000000               0.999999987              -0.001101200              -0.000000000               0.999999987              -0.001102970              -0.000000000               0.999999987              -0.000909910               0.000125568               0.999999987              -0.000953252               0.000098706               0.999999987              -0.000969859               0.000086256               0.999999987              -0.000978167               0.000080678               0.999999987              -0.000984601               0.000078436               0.999999987              -0.000991259               0.000077945               0.999999987              -0.000998906               0.000077990               0.999999987              -0.001007583               0.000077773               0.999999987              -0.001016963               0.000076927               0.999999987              -0.001026672               0.000074934               0.999999987              -0.001036277               0.000071525               0.999999987              -0.001045415               0.000066556               0.999999987              -0.001053703               0.000059587               0.999999987              -0.001060668               0.000050044               0.999999987              -0.001065755               0.000037223               0.999999987              -0.001068279               0.000020198               0.999999987              -0.001067565              -0.000002114               0.999999987              -0.000894608               0.000249915               0.999999987              -0.000925661               0.000197150               0.999999987              -0.000934739               0.000173536               0.999999987              -0.000938325               0.000163505               0.999999987              -0.000941567               0.000159969               0.999999987              -0.000945818               0.000159482               0.999999987              -0.000951229               0.000159953               0.999999987              -0.000957352               0.000159783               0.999999987              -0.000963641               0.000158016               0.999999987              -0.000969665               0.000154060               0.999999987              -0.000974928               0.000147312               0.999999987              -0.000979119               0.000137707               0.999999987              -0.000981817               0.000124177               0.999999987              -0.000982500               0.000105803               0.999999987              -0.000980756               0.000081742               0.999999987              -0.000976226               0.000050893               0.999999987              -0.000968781               0.000011771               0.999999987              -0.000869513               0.000371958               0.999999987              -0.000881286               0.000295119               0.999999987              -0.000879428               0.000262725               0.999999987              -0.000876643               0.000250232               0.999999987              -0.000875708               0.000246804               0.999999987              -0.000876687               0.000247260               0.999999987              -0.000878907               0.000248478               0.999999987              -0.000881310               0.000248301               0.999999987              -0.000883108               0.000245623               0.999999987              -0.000883799               0.000239682               0.999999987              -0.000882868               0.000229845               0.999999987              -0.000879828               0.000215749               0.999999987              -0.000874316               0.000196455               0.999999987              -0.000866005               0.000170925               0.999999987              -0.000854765               0.000138486               0.999999987              -0.000840797               0.000098409               0.999999987              -0.000824521               0.000050320               0.999999987              -0.000834952               0.000490672               0.999999987              -0.000822233               0.000392705               0.999999987              -0.000808165               0.000354564               0.999999987              -0.000798974               0.000341793               0.999999987              -0.000794146               0.000339753               0.999999987              -0.000791897               0.000341792               0.999999987              -0.000790395               0.000343994               0.999999987              -0.000788343               0.000343866               0.999999987              -0.000784800               0.000340236               0.999999987              -0.000779033               0.000332305               0.999999987              -0.000770400               0.000319517               0.999999987              -0.000758500               0.000301361               0.999999987              -0.000743113               0.000277337               0.999999987              -0.000724402               0.000246638               0.999999987              -0.000702681               0.000209072               0.999999987              -0.000678564               0.000165091               0.999999987              -0.000653118               0.000115476               0.999999987              -0.000791665               0.000604918               0.999999987              -0.000751529               0.000490130               0.999999987              -0.000726219               0.000449302               0.999999987              -0.000712186               0.000437934               0.999999987              -0.000704578               0.000438127               0.999999987              -0.000699555               0.000441941               0.999999987              -0.000694430               0.000444970               0.999999987              -0.000687611               0.000444862               0.999999987              -0.000677948               0.000440304               0.999999987              -0.000664669               0.000430447               0.999999987              -0.000647279               0.000414779               0.999999987              -0.000625632               0.000392979               0.999999987              -0.000599996               0.000365122               0.999999987              -0.000570843               0.000331304               0.999999987              -0.000538999               0.000291631               0.999999987              -0.000505439               0.000247425               0.999999987              -0.000471213               0.000200508               0.999999987              -0.000740700               0.000713512               0.999999987              -0.000672941               0.000587313               0.999999987              -0.000639134               0.000546420               0.999999987              -0.000622550               0.000537535               0.999999987              -0.000613506               0.000540224               0.999999987              -0.000606338               0.000545565               0.999999987              -0.000597600               0.000549164               0.999999987              -0.000585535               0.000548982               0.999999987              -0.000569077               0.000543342               0.999999987              -0.000547490               0.000531470               0.999999987              -0.000520851               0.000513175               0.999999987              -0.000489272               0.000488298               0.999999987              -0.000453295               0.000457830               0.999999987              -0.000413816               0.000422275               0.999999987              -0.000371874               0.000382560               0.999999987              -0.000328593               0.000340311               0.999999987              -0.000284883               0.000297270               0.999999987              -0.000683128               0.000815383               0.999999987              -0.000590246               0.000683962               0.999999987              -0.000551716               0.000644904               0.999999987              -0.000535265               0.000638586               0.999999987              -0.000526006               0.000643426               0.999999987              -0.000516898               0.000650054               0.999999987              -0.000504232               0.000654170               0.999999987              -0.000486410               0.000653702               0.999999987              -0.000462379               0.000646789               0.999999987              -0.000431819               0.000632991               0.999999987              -0.000394988               0.000612302               0.999999987              -0.000352390               0.000585321               0.999999987              -0.000305132               0.000553334               0.999999987              -0.000254312               0.000517674               0.999999987              -0.000201285               0.000479558               0.999999987              -0.000147411               0.000440675               0.999999987              -0.000093460               0.000401919               0.999999987              -0.000620909               0.000908635               0.999999987              -0.000506246               0.000779939               0.999999987              -0.000468255               0.000743206               0.999999987              -0.000453960               0.000738791               0.999999987              -0.000445198               0.000745261               0.999999987              -0.000433959               0.000753006               0.999999987              -0.000417054               0.000757534               0.999999987              -0.000392669               0.000756398               0.999999987              -0.000359981               0.000748172               0.999999987              -0.000319102               0.000732573               0.999999987              -0.000270573               0.000709931               0.999999987              -0.000215661               0.000681597               0.999999987              -0.000155607               0.000649464               0.999999987              -0.000092263               0.000615362               0.999999987              -0.000027584               0.000580734               0.999999987               0.000037075               0.000546797               0.999999987               0.000101425               0.000513764               0.999999987              -0.000556467               0.000997104               0.999999987              -0.000435544               0.000888062               0.999999987              -0.000395403               0.000848409               0.999999987              -0.000380977               0.000839945               0.999999987              -0.000373471               0.000844330               0.999999987              -0.000364777               0.000852674               0.999999987              -0.000351518               0.000860444               0.999999987              -0.000331623               0.000864977               0.999999987              -0.000304117               0.000864726               0.999999987              -0.000268855               0.000858862               0.999999987              -0.000226094               0.000847013               0.999999987              -0.000176171               0.000829737               0.999999987              -0.000119799               0.000808202               0.999999987              -0.000058380               0.000783957               0.999999987               0.000006296               0.000758681               0.999999987               0.000072377               0.000733731               0.999999987               0.000138269               0.000709931               0.999999987              -0.000486322               0.001077915               0.999999987              -0.000367265               0.000992830               0.999999987              -0.000325177               0.000956419               0.999999987              -0.000309832               0.000946136               0.999999987              -0.000302727               0.000949275               0.999999987              -0.000295906               0.000958234               0.999999987              -0.000285667               0.000968748               0.999999987              -0.000269795               0.000978228               0.999999987              -0.000247021               0.000984951               0.999999987              -0.000217181               0.000987967               0.999999987              -0.000180370               0.000986238               0.999999987              -0.000136342               0.000979753               0.999999987              -0.000085052               0.000968930               0.999999987              -0.000027094               0.000954885               0.999999987               0.000036148               0.000938825               0.999999987               0.000102685               0.000922274               0.999999987               0.000170761               0.000906403               0.999999987              -0.000411904               0.001148957               0.999999987              -0.000301428               0.001091102               0.999999987              -0.000259274               0.001062210               0.999999987              -0.000242806               0.001053320               0.999999987              -0.000235538               0.001056676               0.999999987              -0.000229739               0.001066691               0.999999987              -0.000221796               0.001079839               0.999999987              -0.000209242               0.001093824               0.999999987              -0.000190874               0.001106736               0.999999987              -0.000166255               0.001117460               0.999999987              -0.000135371               0.001125251               0.999999987              -0.000097690               0.001129308               0.999999987              -0.000052784               0.001129454               0.999999987              -0.000000215               0.001126167               0.999999987               0.000059549               0.001120230               0.999999987               0.000125125               0.001112870               0.999999987               0.000194956               0.001105171               0.999999987              -0.000333883               0.001208893               0.999999987              -0.000238074               0.001178756               0.999999987              -0.000198535               0.001160561               0.999999987              -0.000181814               0.001155640               0.999999987              -0.000174089               0.001161072               0.999999987              -0.000168808               0.001173132               0.999999987              -0.000162428               0.001189195               0.999999987              -0.000152825               0.001207190               0.999999987              -0.000138441               0.001225670               0.999999987              -0.000118868               0.001243379               0.999999987              -0.000093890               0.001259488               0.999999987              -0.000062953               0.001273184               0.999999987              -0.000025337               0.001284017               0.999999987               0.000020003               0.001291754               0.999999987               0.000073477               0.001296698               0.999999987               0.000134765               0.001299477               0.999999987               0.000203658               0.001301005               0.999999987              -0.000252918               0.001256631               0.999999987              -0.000176897               0.001251584               0.999999987              -0.000143179               0.001245426               0.999999987              -0.000127755               0.001246487               0.999999987              -0.000120195               0.001255182               0.999999987              -0.000115412               0.001270050               0.999999987              -0.000110319               0.001289225               0.999999987              -0.000103113               0.001311299               0.999999987              -0.000092346               0.001334899               0.999999987              -0.000077579               0.001358796               0.999999987              -0.000058642               0.001382119               0.999999987              -0.000035004               0.001404229               0.999999987              -0.000005577               0.001424625               0.999999987               0.000030674               0.001442683               0.999999987               0.000074822               0.001458309               0.999999987               0.000127721               0.001471610               0.999999987               0.000189996               0.001482930               0.999999987              -0.000169809               0.001291139               0.999999987              -0.000117212               0.001306106               0.999999987              -0.000092545               0.001310969               0.999999987              -0.000080592               0.001318323               0.999999987              -0.000074332               0.001330928               0.999999987              -0.000070423               0.001348777               0.999999987              -0.000066612               0.001370935               0.999999987              -0.000061750               0.001396463               0.999999987              -0.000054630               0.001424168               0.999999987              -0.000044791               0.001453051               0.999999987              -0.000031961               0.001482338               0.999999987              -0.000015813               0.001511364               0.999999987               0.000004295               0.001539538               0.999999987               0.000029520               0.001566273               0.999999987               0.000061288               0.001591109               0.999999987               0.000100810               0.001613836               0.999999987               0.000149361               0.001634307               0.999999987              -0.000085268               0.001311979               0.999999987              -0.000058382               0.001339755               0.999999987              -0.000045376               0.001352366               0.999999987              -0.000038831               0.001364448               0.999999987              -0.000035238               0.001380194               0.999999987              -0.000032988               0.001400448               0.999999987              -0.000030890               0.001424782               0.999999987              -0.000028390               0.001452562               0.999999987              -0.000024914               0.001482953               0.999999987              -0.000020068               0.001515151               0.999999987              -0.000013492               0.001548473               0.999999987              -0.000005263               0.001582260               0.999999987               0.000004775               0.001615845               0.999999987               0.000017766               0.001648741               0.999999987               0.000034534               0.001680312               0.999999987               0.000055921               0.001710021               0.999999987               0.000083168               0.001737230               0.999999987              -0.000000000               0.001319003               0.999999987              -0.000000000               0.001351116               0.999999987              -0.000000000               0.001366456               0.999999987               0.000000000               0.001380311               0.999999987               0.000000000               0.001397288               0.999999987               0.000000000               0.001418547               0.999999987               0.000000000               0.001443641               0.999999987               0.000000000               0.001472051               0.999999987              -0.000000000               0.001503340               0.999999987              -0.000000000               0.001536804               0.999999987              -0.000000000               0.001571570               0.999999987               0.000000000               0.001607039               0.999999987              -0.000000000               0.001642665               0.999999987              -0.000000000               0.001677962               0.999999987              -0.000000000               0.001712288               0.999999987               0.000000000               0.001744807               0.999999987               0.000000000               0.001774601               0.999999987              -0.000915111              -0.000000000               0.999999987              -0.000962694              -0.000000000               0.999999987              -0.000981975               0.000000000               0.999999987              -0.000991977               0.000000000               0.999999987              -0.000999554               0.000000000               0.999999987              -0.001007122              -0.000000000               0.999999987              -0.001015624              -0.000000000               0.999999987              -0.001025173               0.000000000               0.999999987              -0.001035647              -0.000000000               0.999999987              -0.001046672              -0.000000000               0.999999987              -0.001057857               0.000000000               0.999999987              -0.001068777               0.000000000               0.999999987              -0.001079178              -0.000000000               0.999999987              -0.001088514              -0.000000000               0.999999987              -0.001096068              -0.000000000               0.999999987              -0.001101200              -0.000000000               0.999999987              -0.001102970              -0.000000000               0.999999987              -0.000909910              -0.000125568               0.999999987              -0.000953252              -0.000098706               0.999999987              -0.000969859              -0.000086256               0.999999987              -0.000978167              -0.000080678               0.999999987              -0.000984601              -0.000078436               0.999999987              -0.000991259              -0.000077945               0.999999987              -0.000998906              -0.000077990               0.999999987              -0.001007583              -0.000077773               0.999999987              -0.001016963              -0.000076927               0.999999987              -0.001026672              -0.000074934               0.999999987              -0.001036277              -0.000071525               0.999999987              -0.001045415              -0.000066556               0.999999987              -0.001053703              -0.000059587               0.999999987              -0.001060668              -0.000050044               0.999999987              -0.001065755              -0.000037223               0.999999987              -0.001068279              -0.000020198               0.999999987              -0.001067565               0.000002114               0.999999987              -0.000894608              -0.000249915               0.999999987              -0.000925661              -0.000197150               0.999999987              -0.000934739              -0.000173536               0.999999987              -0.000938325              -0.000163505               0.999999987              -0.000941567              -0.000159969               0.999999987              -0.000945818              -0.000159482               0.999999987              -0.000951229              -0.000159953               0.999999987              -0.000957352              -0.000159783               0.999999987              -0.000963641              -0.000158016               0.999999987              -0.000969665              -0.000154060               0.999999987              -0.000974928              -0.000147312               0.999999987              -0.000979119              -0.000137707               0.999999987              -0.000981817              -0.000124177               0.999999987              -0.000982500              -0.000105803               0.999999987              -0.000980756              -0.000081742               0.999999987              -0.000976226              -0.000050893               0.999999987              -0.000968781              -0.000011771               0.999999987              -0.000869513              -0.000371958               0.999999987              -0.000881286              -0.000295119               0.999999987              -0.000879428              -0.000262725               0.999999987              -0.000876643              -0.000250232               0.999999987              -0.000875708              -0.000246804               0.999999987              -0.000876687              -0.000247260               0.999999987              -0.000878907              -0.000248478               0.999999987              -0.000881310              -0.000248301               0.999999987              -0.000883108              -0.000245623               0.999999987              -0.000883799              -0.000239682               0.999999987              -0.000882868              -0.000229845               0.999999987              -0.000879828              -0.000215749               0.999999987              -0.000874316              -0.000196455               0.999999987              -0.000866005              -0.000170925               0.999999987              -0.000854765              -0.000138486               0.999999987              -0.000840797              -0.000098409               0.999999987              -0.000824521              -0.000050320               0.999999987              -0.000834952              -0.000490672               0.999999987              -0.000822233              -0.000392705               0.999999987              -0.000808165              -0.000354564               0.999999987              -0.000798974              -0.000341793               0.999999987              -0.000794146              -0.000339753               0.999999987              -0.000791897              -0.000341792               0.999999987              -0.000790395              -0.000343994               0.999999987              -0.000788343              -0.000343866               0.999999987              -0.000784800              -0.000340236               0.999999987              -0.000779033              -0.000332305               0.999999987              -0.000770400              -0.000319517               0.999999987              -0.000758500              -0.000301361               0.999999987              -0.000743113              -0.000277337               0.999999987              -0.000724402              -0.000246638               0.999999987              -0.000702681              -0.000209072               0.999999987              -0.000678564              -0.000165091               0.999999987              -0.000653118              -0.000115476               0.999999987              -0.000791665              -0.000604918               0.999999987              -0.000751529              -0.000490130               0.999999987              -0.000726219              -0.000449302               0.999999987              -0.000712186              -0.000437934               0.999999987              -0.000704578              -0.000438127               0.999999987              -0.000699555              -0.000441941               0.999999987              -0.000694430              -0.000444970               0.999999987              -0.000687611              -0.000444862               0.999999987              -0.000677948              -0.000440304               0.999999987              -0.000664669              -0.000430447               0.999999987              -0.000647279              -0.000414779               0.999999987              -0.000625632              -0.000392979               0.999999987              -0.000599996              -0.000365122               0.999999987              -0.000570843              -0.000331304               0.999999987              -0.000538999              -0.000291631               0.999999987              -0.000505439              -0.000247425               0.999999987              -0.000471213              -0.000200508               0.999999987              -0.000740700              -0.000713512               0.999999987              -0.000672941              -0.000587313               0.999999987              -0.000639134              -0.000546420               0.999999987              -0.000622550              -0.000537535               0.999999987              -0.000613506              -0.000540224               0.999999987              -0.000606338              -0.000545565               0.999999987              -0.000597600              -0.000549164               0.999999987              -0.000585535              -0.000548982               0.999999987              -0.000569077              -0.000543342               0.999999987              -0.000547490              -0.000531470               0.999999987              -0.000520851              -0.000513175               0.999999987              -0.000489272              -0.000488298               0.999999987              -0.000453295              -0.000457830               0.999999987              -0.000413816              -0.000422275               0.999999987              -0.000371874              -0.000382560               0.999999987              -0.000328593              -0.000340311               0.999999987              -0.000284883              -0.000297270               0.999999987              -0.000683128              -0.000815383               0.999999987              -0.000590246              -0.000683962               0.999999987              -0.000551716              -0.000644904               0.999999987              -0.000535265              -0.000638586               0.999999987              -0.000526006              -0.000643426               0.999999987              -0.000516898              -0.000650054               0.999999987              -0.000504232              -0.000654170               0.999999987              -0.000486410              -0.000653702               0.999999987              -0.000462379              -0.000646789               0.999999987              -0.000431819              -0.000632991               0.999999987              -0.000394988              -0.000612302               0.999999987              -0.000352390              -0.000585321               0.999999987              -0.000305132              -0.000553334               0.999999987              -0.000254312              -0.000517674               0.999999987              -0.000201285              -0.000479558               0.999999987              -0.000147411              -0.000440675               0.999999987              -0.000093460              -0.000401919               0.999999987              -0.000620909              -0.000908635               0.999999987              -0.000506246              -0.000779939               0.999999987              -0.000468255              -0.000743206               0.999999987              -0.000453960              -0.000738791               0.999999987              -0.000445198              -0.000745261               0.999999987              -0.000433959              -0.000753006               0.999999987              -0.000417054              -0.000757534               0.999999987              -0.000392669              -0.000756398               0.999999987              -0.000359981              -0.000748172               0.999999987              -0.000319102              -0.000732573               0.999999987              -0.000270573              -0.000709931               0.999999987              -0.000215661              -0.000681597               0.999999987              -0.000155607              -0.000649464               0.999999987              -0.000092263              -0.000615362               0.999999987              -0.000027584              -0.000580734               0.999999987               0.000037075              -0.000546797               0.999999987               0.000101425              -0.000513764               0.999999987              -0.000556467              -0.000997104               0.999999987              -0.000435544              -0.000888062               0.999999987              -0.000395403              -0.000848409               0.999999987              -0.000380977              -0.000839945               0.999999987              -0.000373471              -0.000844330               0.999999987              -0.000364777              -0.000852674               0.999999987              -0.000351518              -0.000860444               0.999999987              -0.000331623              -0.000864977               0.999999987              -0.000304117              -0.000864726               0.999999987              -0.000268855              -0.000858862               0.999999987              -0.000226094              -0.000847013               0.999999987              -0.000176171              -0.000829737               0.999999987              -0.000119799              -0.000808202               0.999999987              -0.000058380              -0.000783957               0.999999987               0.000006296              -0.000758681               0.999999987               0.000072377              -0.000733731               0.999999987               0.000138269              -0.000709931               0.999999987              -0.000486322              -0.001077915               0.999999987              -0.000367265              -0.000992830               0.999999987              -0.000325177              -0.000956419               0.999999987              -0.000309832              -0.000946136               0.999999987              -0.000302727              -0.000949275               0.999999987              -0.000295906              -0.000958234               0.999999987              -0.000285667              -0.000968748               0.999999987              -0.000269795              -0.000978228               0.999999987              -0.000247021              -0.000984951               0.999999987              -0.000217181              -0.000987967               0.999999987              -0.000180370              -0.000986238               0.999999987              -0.000136342              -0.000979753               0.999999987              -0.000085052              -0.000968930               0.999999987              -0.000027094              -0.000954885               0.999999987               0.000036148              -0.000938825               0.999999987               0.000102685              -0.000922274               0.999999987               0.000170761              -0.000906403               0.999999987              -0.000411904              -0.001148957               0.999999987              -0.000301428              -0.001091102               0.999999987              -0.000259274              -0.001062210               0.999999987              -0.000242806              -0.001053320               0.999999987              -0.000235538              -0.001056676               0.999999987              -0.000229739              -0.001066691               0.999999987              -0.000221796              -0.001079839               0.999999987              -0.000209242              -0.001093824               0.999999987              -0.000190874              -0.001106736               0.999999987              -0.000166255              -0.001117460               0.999999987              -0.000135371              -0.001125251               0.999999987              -0.000097690              -0.001129308               0.999999987              -0.000052784              -0.001129454               0.999999987              -0.000000215              -0.001126167               0.999999987               0.000059549              -0.001120230               0.999999987               0.000125125              -0.001112870               0.999999987               0.000194956              -0.001105171               0.999999987              -0.000333883              -0.001208893               0.999999987              -0.000238074              -0.001178756               0.999999987              -0.000198535              -0.001160561               0.999999987              -0.000181814              -0.001155640               0.999999987              -0.000174089              -0.001161072               0.999999987              -0.000168808              -0.001173132               0.999999987              -0.000162428              -0.001189195               0.999999987              -0.000152825              -0.001207190               0.999999987              -0.000138441              -0.001225670               0.999999987              -0.000118868              -0.001243379               0.999999987              -0.000093890              -0.001259488               0.999999987              -0.000062953              -0.001273184               0.999999987              -0.000025337              -0.001284017               0.999999987               0.000020003              -0.001291754               0.999999987               0.000073477              -0.001296698               0.999999987               0.000134765              -0.001299477               0.999999987               0.000203658              -0.001301005               0.999999987              -0.000252918              -0.001256631               0.999999987              -0.000176897              -0.001251584               0.999999987              -0.000143179              -0.001245426               0.999999987              -0.000127755              -0.001246487               0.999999987              -0.000120195              -0.001255182               0.999999987              -0.000115412              -0.001270050               0.999999987              -0.000110319              -0.001289225               0.999999987              -0.000103113              -0.001311299               0.999999987              -0.000092346              -0.001334899               0.999999987              -0.000077579              -0.001358796               0.999999987              -0.000058642              -0.001382119               0.999999987              -0.000035004              -0.001404229               0.999999987              -0.000005577              -0.001424625               0.999999987               0.000030674              -0.001442683               0.999999987               0.000074822              -0.001458309               0.999999987               0.000127721              -0.001471610               0.999999987               0.000189996              -0.001482930               0.999999987              -0.000169809              -0.001291139               0.999999987              -0.000117212              -0.001306106               0.999999987              -0.000092545              -0.001310969               0.999999987              -0.000080592              -0.001318323               0.999999987              -0.000074332              -0.001330928               0.999999987              -0.000070423              -0.001348777               0.999999987              -0.000066612              -0.001370935               0.999999987              -0.000061750              -0.001396463               0.999999987              -0.000054630              -0.001424168               0.999999987              -0.000044791              -0.001453051               0.999999987              -0.000031961              -0.001482338               0.999999987              -0.000015813              -0.001511364               0.999999987               0.000004295              -0.001539538               0.999999987               0.000029520              -0.001566273               0.999999987               0.000061288              -0.001591109               0.999999987               0.000100810              -0.001613836               0.999999987               0.000149361              -0.001634307               0.999999987              -0.000085268              -0.001311979               0.999999987              -0.000058382              -0.001339755               0.999999987              -0.000045376              -0.001352366               0.999999987              -0.000038831              -0.001364448               0.999999987              -0.000035238              -0.001380194               0.999999987              -0.000032988              -0.001400448               0.999999987              -0.000030890              -0.001424782               0.999999987              -0.000028390              -0.001452562               0.999999987              -0.000024914              -0.001482953               0.999999987              -0.000020068              -0.001515151               0.999999987              -0.000013492              -0.001548473               0.999999987              -0.000005263              -0.001582260               0.999999987               0.000004775              -0.001615845               0.999999987               0.000017766              -0.001648741               0.999999987               0.000034534              -0.001680312               0.999999987               0.000055921              -0.001710021               0.999999987               0.000083168              -0.001737230               0.999999987               0.000000000              -0.001319003               0.999999987               0.000000000              -0.001351116               0.999999987               0.000000000              -0.001366456               0.999999987               0.000000000              -0.001380311               0.999999987              -0.000000000              -0.001397288               0.999999987              -0.000000000              -0.001418547               0.999999987               0.000000000              -0.001443641               0.999999987              -0.000000000              -0.001472051               0.999999987              -0.000000000              -0.001503340               0.999999987               0.000000000              -0.001536804               0.999999987               0.000000000              -0.001571570               0.999999987               0.000000000              -0.001607039               0.999999987               0.000000000              -0.001642665               0.999999987              -0.000000000              -0.001677962               0.999999987               0.000000000              -0.001712288               0.999999987               0.000000000              -0.001744807               0.999999987              -0.000000000              -0.001774601               0.999999987               0.000915111              -0.000000000               0.999999987               0.000962694              -0.000000000               0.999999987               0.000981975               0.000000000               0.999999987               0.000991977              -0.000000000               0.999999987               0.000999554               0.000000000               0.999999987               0.001007122               0.000000000               0.999999987               0.001015624               0.000000000               0.999999987               0.001025173               0.000000000               0.999999987               0.001035647               0.000000000               0.999999987               0.001046672               0.000000000               0.999999987               0.001057857              -0.000000000               0.999999987               0.001068777               0.000000000               0.999999987               0.001079178              -0.000000000               0.999999987               0.001088514               0.000000000               0.999999987               0.001096068               0.000000000               0.999999987               0.001101200              -0.000000000               0.999999987               0.001102970              -0.000000000               0.999999987               0.000909910              -0.000125568               0.999999987               0.000953252              -0.000098706               0.999999987               0.000969859              -0.000086256               0.999999987               0.000978167              -0.000080678               0.999999987               0.000984601              -0.000078436               0.999999987               0.000991259              -0.000077945               0.999999987               0.000998906              -0.000077990               0.999999987               0.001007583              -0.000077773               0.999999987               0.001016963              -0.000076927               0.999999987               0.001026672              -0.000074934               0.999999987               0.001036277              -0.000071525               0.999999987               0.001045415              -0.000066556               0.999999987               0.001053703              -0.000059587               0.999999987               0.001060668              -0.000050044               0.999999987               0.001065755              -0.000037223               0.999999987               0.001068279              -0.000020198               0.999999987               0.001067565               0.000002114               0.999999987               0.000894608              -0.000249915               0.999999987               0.000925661              -0.000197150               0.999999987               0.000934739              -0.000173536               0.999999987               0.000938325              -0.000163505               0.999999987               0.000941567              -0.000159969               0.999999987               0.000945818              -0.000159482               0.999999987               0.000951229              -0.000159953               0.999999987               0.000957352              -0.000159783               0.999999987               0.000963641              -0.000158016               0.999999987               0.000969665              -0.000154060               0.999999987               0.000974928              -0.000147312               0.999999987               0.000979119              -0.000137707               0.999999987               0.000981817              -0.000124177               0.999999987               0.000982500              -0.000105803               0.999999987               0.000980756              -0.000081742               0.999999987               0.000976226              -0.000050893               0.999999987               0.000968781              -0.000011771               0.999999987               0.000869513              -0.000371958               0.999999987               0.000881286              -0.000295119               0.999999987               0.000879428              -0.000262725               0.999999987               0.000876643              -0.000250232               0.999999987               0.000875708              -0.000246804               0.999999987               0.000876687              -0.000247260               0.999999987               0.000878907              -0.000248478               0.999999987               0.000881310              -0.000248301               0.999999987               0.000883108              -0.000245623               0.999999987               0.000883799              -0.000239682               0.999999987               0.000882868              -0.000229845               0.999999987               0.000879828              -0.000215749               0.999999987               0.000874316              -0.000196455               0.999999987               0.000866005              -0.000170925               0.999999987               0.000854765              -0.000138486               0.999999987               0.000840797              -0.000098409               0.999999987               0.000824521              -0.000050320               0.999999987               0.000834952              -0.000490672               0.999999987               0.000822233              -0.000392705               0.999999987               0.000808165              -0.000354564               0.999999987               0.000798974              -0.000341793               0.999999987               0.000794146              -0.000339753               0.999999987               0.000791897              -0.000341792               0.999999987               0.000790395              -0.000343994               0.999999987               0.000788343              -0.000343866               0.999999987               0.000784800              -0.000340236               0.999999987               0.000779033              -0.000332305               0.999999987               0.000770400              -0.000319517               0.999999987               0.000758500              -0.000301361               0.999999987               0.000743113              -0.000277337               0.999999987               0.000724402              -0.000246638               0.999999987               0.000702681              -0.000209072               0.999999987               0.000678564              -0.000165091               0.999999987               0.000653118              -0.000115476               0.999999987               0.000791665              -0.000604918               0.999999987               0.000751529              -0.000490130               0.999999987               0.000726219              -0.000449302               0.999999987               0.000712186              -0.000437934               0.999999987               0.000704578              -0.000438127               0.999999987               0.000699555              -0.000441941               0.999999987               0.000694430              -0.000444970               0.999999987               0.000687611              -0.000444862               0.999999987               0.000677948              -0.000440304               0.999999987               0.000664669              -0.000430447               0.999999987               0.000647279              -0.000414779               0.999999987               0.000625632              -0.000392979               0.999999987               0.000599996              -0.000365122               0.999999987               0.000570843              -0.000331304               0.999999987               0.000538999              -0.000291631               0.999999987               0.000505439              -0.000247425               0.999999987               0.000471213              -0.000200508               0.999999987               0.000740700              -0.000713512               0.999999987               0.000672941              -0.000587313               0.999999987               0.000639134              -0.000546420               0.999999987               0.000622550              -0.000537535               0.999999987               0.000613506              -0.000540224               0.999999987               0.000606338              -0.000545565               0.999999987               0.000597600              -0.000549164               0.999999987               0.000585535              -0.000548982               0.999999987               0.000569077              -0.000543342               0.999999987               0.000547490              -0.000531470               0.999999987               0.000520851              -0.000513175               0.999999987               0.000489272              -0.000488298               0.999999987               0.000453295              -0.000457830               0.999999987               0.000413816              -0.000422275               0.999999987               0.000371874              -0.000382560               0.999999987               0.000328593              -0.000340311               0.999999987               0.000284883              -0.000297270               0.999999987               0.000683128              -0.000815383               0.999999987               0.000590246              -0.000683962               0.999999987               0.000551716              -0.000644904               0.999999987               0.000535265              -0.000638586               0.999999987               0.000526006              -0.000643426               0.999999987               0.000516898              -0.000650054               0.999999987               0.000504232              -0.000654170               0.999999987               0.000486410              -0.000653702               0.999999987               0.000462379              -0.000646789               0.999999987               0.000431819              -0.000632991               0.999999987               0.000394988              -0.000612302               0.999999987               0.000352390              -0.000585321               0.999999987               0.000305132              -0.000553334               0.999999987               0.000254312              -0.000517674               0.999999987               0.000201285              -0.000479558               0.999999987               0.000147411              -0.000440675               0.999999987               0.000093460              -0.000401919               0.999999987               0.000620909              -0.000908635               0.999999987               0.000506246              -0.000779939               0.999999987               0.000468255              -0.000743206               0.999999987               0.000453960              -0.000738791               0.999999987               0.000445198              -0.000745261               0.999999987               0.000433959              -0.000753006               0.999999987               0.000417054              -0.000757534               0.999999987               0.000392669              -0.000756398               0.999999987               0.000359981              -0.000748172               0.999999987               0.000319102              -0.000732573               0.999999987               0.000270573              -0.000709931               0.999999987               0.000215661              -0.000681597               0.999999987               0.000155607              -0.000649464               0.999999987               0.000092263              -0.000615362               0.999999987               0.000027584              -0.000580734               0.999999987              -0.000037075              -0.000546797               0.999999987              -0.000101425              -0.000513764               0.999999987               0.000556467              -0.000997104               0.999999987               0.000435544              -0.000888062               0.999999987               0.000395403              -0.000848409               0.999999987               0.000380977              -0.000839945               0.999999987               0.000373471              -0.000844330               0.999999987               0.000364777              -0.000852674               0.999999987               0.000351518              -0.000860444               0.999999987               0.000331623              -0.000864977               0.999999987               0.000304117              -0.000864726               0.999999987               0.000268855              -0.000858862               0.999999987               0.000226094              -0.000847013               0.999999987               0.000176171              -0.000829737               0.999999987               0.000119799              -0.000808202               0.999999987               0.000058380              -0.000783957               0.999999987              -0.000006296              -0.000758681               0.999999987              -0.000072377              -0.000733731               0.999999987              -0.000138269              -0.000709931               0.999999987               0.000486322              -0.001077915               0.999999987               0.000367265              -0.000992830               0.999999987               0.000325177              -0.000956419               0.999999987               0.000309832              -0.000946136               0.999999987               0.000302727              -0.000949275               0.999999987               0.000295906              -0.000958234               0.999999987               0.000285667              -0.000968748               0.999999987               0.000269795              -0.000978228               0.999999987               0.000247021              -0.000984951               0.999999987               0.000217181              -0.000987967               0.999999987               0.000180370              -0.000986238               0.999999987               0.000136342              -0.000979753               0.999999987               0.000085052              -0.000968930               0.999999987               0.000027094              -0.000954885               0.999999987              -0.000036148              -0.000938825               0.999999987              -0.000102685              -0.000922274               0.999999987              -0.000170761              -0.000906403               0.999999987               0.000411904              -0.001148957               0.999999987               0.000301428              -0.001091102               0.999999987               0.000259274              -0.001062210               0.999999987               0.000242806              -0.001053320               0.999999987               0.000235538              -0.001056676               0.999999987               0.000229739              -0.001066691               0.999999987               0.000221796              -0.001079839               0.999999987               0.000209242              -0.001093824               0.999999987               0.000190874              -0.001106736               0.999999987               0.000166255              -0.001117460               0.999999987               0.000135371              -0.001125251               0.999999987               0.000097690              -0.001129308               0.999999987               0.000052784              -0.001129454               0.999999987               0.000000215              -0.001126167               0.999999987              -0.000059549              -0.001120230               0.999999987              -0.000125125              -0.001112870               0.999999987              -0.000194956              -0.001105171               0.999999987               0.000333883              -0.001208893               0.999999987               0.000238074              -0.001178756               0.999999987               0.000198535              -0.001160561               0.999999987               0.000181814              -0.001155640               0.999999987               0.000174089              -0.001161072               0.999999987               0.000168808              -0.001173132               0.999999987               0.000162428              -0.001189195               0.999999987               0.000152825              -0.001207190               0.999999987               0.000138441              -0.001225670               0.999999987               0.000118868              -0.001243379               0.999999987               0.000093890              -0.001259488               0.999999987               0.000062953              -0.001273184               0.999999987               0.000025337              -0.001284017               0.999999987              -0.000020003              -0.001291754               0.999999987              -0.000073477              -0.001296698               0.999999987              -0.000134765              -0.001299477               0.999999987              -0.000203658              -0.001301005               0.999999987               0.000252918              -0.001256631               0.999999987               0.000176897              -0.001251584               0.999999987               0.000143179              -0.001245426               0.999999987               0.000127755              -0.001246487               0.999999987               0.000120195              -0.001255182               0.999999987               0.000115412              -0.001270050               0.999999987               0.000110319              -0.001289225               0.999999987               0.000103113              -0.001311299               0.999999987               0.000092346              -0.001334899               0.999999987               0.000077579              -0.001358796               0.999999987               0.000058642              -0.001382119               0.999999987               0.000035004              -0.001404229               0.999999987               0.000005577              -0.001424625               0.999999987              -0.000030674              -0.001442683               0.999999987              -0.000074822              -0.001458309               0.999999987              -0.000127721              -0.001471610               0.999999987              -0.000189996              -0.001482930               0.999999987               0.000169809              -0.001291139               0.999999987               0.000117212              -0.001306106               0.999999987               0.000092545              -0.001310969               0.999999987               0.000080592              -0.001318323               0.999999987               0.000074332              -0.001330928               0.999999987               0.000070423              -0.001348777               0.999999987               0.000066612              -0.001370935               0.999999987               0.000061750              -0.001396463               0.999999987               0.000054630              -0.001424168               0.999999987               0.000044791              -0.001453051               0.999999987               0.000031961              -0.001482338               0.999999987               0.000015813              -0.001511364               0.999999987              -0.000004295              -0.001539538               0.999999987              -0.000029520              -0.001566273               0.999999987              -0.000061288              -0.001591109               0.999999987              -0.000100810              -0.001613836               0.999999987              -0.000149361              -0.001634307               0.999999987               0.000085268              -0.001311979               0.999999987               0.000058382              -0.001339755               0.999999987               0.000045376              -0.001352366               0.999999987               0.000038831              -0.001364448               0.999999987               0.000035238              -0.001380194               0.999999987               0.000032988              -0.001400448               0.999999987               0.000030890              -0.001424782               0.999999987               0.000028390              -0.001452562               0.999999987               0.000024914              -0.001482953               0.999999987               0.000020068              -0.001515151               0.999999987               0.000013492              -0.001548473               0.999999987               0.000005263              -0.001582260               0.999999987              -0.000004775              -0.001615845               0.999999987              -0.000017766              -0.001648741               0.999999987              -0.000034534              -0.001680312               0.999999987              -0.000055921              -0.001710021               0.999999987              -0.000083168              -0.001737230               0.999999987               0.000000000              -0.001319003               0.999999987               0.000000000              -0.001351116               0.999999987               0.000000000              -0.001366456               0.999999987               0.000000000              -0.001380311               0.999999987              -0.000000000              -0.001397288               0.999999987              -0.000000000              -0.001418547               0.999999987               0.000000000              -0.001443641               0.999999987              -0.000000000              -0.001472051               0.999999987              -0.000000000              -0.001503340               0.999999987               0.000000000              -0.001536804               0.999999987               0.000000000              -0.001571570               0.999999987               0.000000000              -0.001607039               0.999999987               0.000000000              -0.001642665               0.999999987              -0.000000000              -0.001677962               0.999999987               0.000000000              -0.001712288               0.999999987               0.000000000              -0.001744807               0.999999987              -0.000000000              -0.001774601               0.999999987               0.000915111              -0.000000000               0.999999987               0.000962694              -0.000000000               0.999999987               0.000981975               0.000000000               0.999999987               0.000991977              -0.000000000               0.999999987               0.000999554               0.000000000               0.999999987               0.001007122               0.000000000               0.999999987               0.001015624               0.000000000               0.999999987               0.001025173               0.000000000               0.999999987               0.001035647               0.000000000               0.999999987               0.001046672               0.000000000               0.999999987               0.001057857              -0.000000000               0.999999987               0.001068777               0.000000000               0.999999987               0.001079178              -0.000000000               0.999999987               0.001088514               0.000000000               0.999999987               0.001096068               0.000000000               0.999999987               0.001101200              -0.000000000               0.999999987               0.001102970              -0.000000000               0.999999987               0.000909910               0.000125568               0.999999987               0.000953252               0.000098706               0.999999987               0.000969859               0.000086256               0.999999987               0.000978167               0.000080678               0.999999987               0.000984601               0.000078436               0.999999987               0.000991259               0.000077945               0.999999987               0.000998906               0.000077990               0.999999987               0.001007583               0.000077773               0.999999987               0.001016963               0.000076927               0.999999987               0.001026672               0.000074934               0.999999987               0.001036277               0.000071525               0.999999987               0.001045415               0.000066556               0.999999987               0.001053703               0.000059587               0.999999987               0.001060668               0.000050044               0.999999987               0.001065755               0.000037223               0.999999987               0.001068279               0.000020198               0.999999987               0.001067565              -0.000002114               0.999999987               0.000894608               0.000249915               0.999999987               0.000925661               0.000197150               0.999999987               0.000934739               0.000173536               0.999999987               0.000938325               0.000163505               0.999999987               0.000941567               0.000159969               0.999999987               0.000945818               0.000159482               0.999999987               0.000951229               0.000159953               0.999999987               0.000957352               0.000159783               0.999999987               0.000963641               0.000158016               0.999999987               0.000969665               0.000154060               0.999999987               0.000974928               0.000147312               0.999999987               0.000979119               0.000137707               0.999999987               0.000981817               0.000124177               0.999999987               0.000982500               0.000105803               0.999999987               0.000980756               0.000081742               0.999999987               0.000976226               0.000050893               0.999999987               0.000968781               0.000011771               0.999999987               0.000869513               0.000371958               0.999999987               0.000881286               0.000295119               0.999999987               0.000879428               0.000262725               0.999999987               0.000876643               0.000250232               0.999999987               0.000875708               0.000246804               0.999999987               0.000876687               0.000247260               0.999999987               0.000878907               0.000248478               0.999999987               0.000881310               0.000248301               0.999999987               0.000883108               0.000245623               0.999999987               0.000883799               0.000239682               0.999999987               0.000882868               0.000229845               0.999999987               0.000879828               0.000215749               0.999999987               0.000874316               0.000196455               0.999999987               0.000866005               0.000170925               0.999999987               0.000854765               0.000138486               0.999999987               0.000840797               0.000098409               0.999999987               0.000824521               0.000050320               0.999999987               0.000834952               0.000490672               0.999999987               0.000822233               0.000392705               0.999999987               0.000808165               0.000354564               0.999999987               0.000798974               0.000341793               0.999999987               0.000794146               0.000339753               0.999999987               0.000791897               0.000341792               0.999999987               0.000790395               0.000343994               0.999999987               0.000788343               0.000343866               0.999999987               0.000784800               0.000340236               0.999999987               0.000779033               0.000332305               0.999999987               0.000770400               0.000319517               0.999999987               0.000758500               0.000301361               0.999999987               0.000743113               0.000277337               0.999999987               0.000724402               0.000246638               0.999999987               0.000702681               0.000209072               0.999999987               0.000678564               0.000165091               0.999999987               0.000653118               0.000115476               0.999999987               0.000791665               0.000604918               0.999999987               0.000751529               0.000490130               0.999999987               0.000726219               0.000449302               0.999999987               0.000712186               0.000437934               0.999999987               0.000704578               0.000438127               0.999999987               0.000699555               0.000441941               0.999999987               0.000694430               0.000444970               0.999999987               0.000687611               0.000444862               0.999999987               0.000677948               0.000440304               0.999999987               0.000664669               0.000430447               0.999999987               0.000647279               0.000414779               0.999999987               0.000625632               0.000392979               0.999999987               0.000599996               0.000365122               0.999999987               0.000570843               0.000331304               0.999999987               0.000538999               0.000291631               0.999999987               0.000505439               0.000247425               0.999999987               0.000471213               0.000200508               0.999999987               0.000740700               0.000713512               0.999999987               0.000672941               0.000587313               0.999999987               0.000639134               0.000546420               0.999999987               0.000622550               0.000537535               0.999999987               0.000613506               0.000540224               0.999999987               0.000606338               0.000545565               0.999999987               0.000597600               0.000549164               0.999999987               0.000585535               0.000548982               0.999999987               0.000569077               0.000543342               0.999999987               0.000547490               0.000531470               0.999999987               0.000520851               0.000513175               0.999999987               0.000489272               0.000488298               0.999999987               0.000453295               0.000457830               0.999999987               0.000413816               0.000422275               0.999999987               0.000371874               0.000382560               0.999999987               0.000328593               0.000340311               0.999999987               0.000284883               0.000297270               0.999999987               0.000683128               0.000815383               0.999999987               0.000590246               0.000683962               0.999999987               0.000551716               0.000644904               0.999999987               0.000535265               0.000638586               0.999999987               0.000526006               0.000643426               0.999999987               0.000516898               0.000650054               0.999999987               0.000504232               0.000654170               0.999999987               0.000486410               0.000653702               0.999999987               0.000462379               0.000646789               0.999999987               0.000431819               0.000632991               0.999999987               0.000394988               0.000612302               0.999999987               0.000352390               0.000585321               0.999999987               0.000305132               0.000553334               0.999999987               0.000254312               0.000517674               0.999999987               0.000201285               0.000479558               0.999999987               0.000147411               0.000440675               0.999999987               0.000093460               0.000401919               0.999999987               0.000620909               0.000908635               0.999999987               0.000506246               0.000779939               0.999999987               0.000468255               0.000743206               0.999999987               0.000453960               0.000738791               0.999999987               0.000445198               0.000745261               0.999999987               0.000433959               0.000753006               0.999999987               0.000417054               0.000757534               0.999999987               0.000392669               0.000756398               0.999999987               0.000359981               0.000748172               0.999999987               0.000319102               0.000732573               0.999999987               0.000270573               0.000709931               0.999999987               0.000215661               0.000681597               0.999999987               0.000155607               0.000649464               0.999999987               0.000092263               0.000615362               0.999999987               0.000027584               0.000580734               0.999999987              -0.000037075               0.000546797               0.999999987              -0.000101425               0.000513764               0.999999987               0.000556467               0.000997104               0.999999987               0.000435544               0.000888062               0.999999987               0.000395403               0.000848409               0.999999987               0.000380977               0.000839945               0.999999987               0.000373471               0.000844330               0.999999987               0.000364777               0.000852674               0.999999987               0.000351518               0.000860444               0.999999987               0.000331623               0.000864977               0.999999987               0.000304117               0.000864726               0.999999987               0.000268855               0.000858862               0.999999987               0.000226094               0.000847013               0.999999987               0.000176171               0.000829737               0.999999987               0.000119799               0.000808202               0.999999987               0.000058380               0.000783957               0.999999987              -0.000006296               0.000758681               0.999999987              -0.000072377               0.000733731               0.999999987              -0.000138269               0.000709931               0.999999987               0.000486322               0.001077915               0.999999987               0.000367265               0.000992830               0.999999987               0.000325177               0.000956419               0.999999987               0.000309832               0.000946136               0.999999987               0.000302727               0.000949275               0.999999987               0.000295906               0.000958234               0.999999987               0.000285667               0.000968748               0.999999987               0.000269795               0.000978228               0.999999987               0.000247021               0.000984951               0.999999987               0.000217181               0.000987967               0.999999987               0.000180370               0.000986238               0.999999987               0.000136342               0.000979753               0.999999987               0.000085052               0.000968930               0.999999987               0.000027094               0.000954885               0.999999987              -0.000036148               0.000938825               0.999999987              -0.000102685               0.000922274               0.999999987              -0.000170761               0.000906403               0.999999987               0.000411904               0.001148957               0.999999987               0.000301428               0.001091102               0.999999987               0.000259274               0.001062210               0.999999987               0.000242806               0.001053320               0.999999987               0.000235538               0.001056676               0.999999987               0.000229739               0.001066691               0.999999987               0.000221796               0.001079839               0.999999987               0.000209242               0.001093824               0.999999987               0.000190874               0.001106736               0.999999987               0.000166255               0.001117460               0.999999987               0.000135371               0.001125251               0.999999987               0.000097690               0.001129308               0.999999987               0.000052784               0.001129454               0.999999987               0.000000215               0.001126167               0.999999987              -0.000059549               0.001120230               0.999999987              -0.000125125               0.001112870               0.999999987              -0.000194956               0.001105171               0.999999987               0.000333883               0.001208893               0.999999987               0.000238074               0.001178756               0.999999987               0.000198535               0.001160561               0.999999987               0.000181814               0.001155640               0.999999987               0.000174089               0.001161072               0.999999987               0.000168808               0.001173132               0.999999987               0.000162428               0.001189195               0.999999987               0.000152825               0.001207190               0.999999987               0.000138441               0.001225670               0.999999987               0.000118868               0.001243379               0.999999987               0.000093890               0.001259488               0.999999987               0.000062953               0.001273184               0.999999987               0.000025337               0.001284017               0.999999987              -0.000020003               0.001291754               0.999999987              -0.000073477               0.001296698               0.999999987              -0.000134765               0.001299477               0.999999987              -0.000203658               0.001301005               0.999999987               0.000252918               0.001256631               0.999999987               0.000176897               0.001251584               0.999999987               0.000143179               0.001245426               0.999999987               0.000127755               0.001246487               0.999999987               0.000120195               0.001255182               0.999999987               0.000115412               0.001270050               0.999999987               0.000110319               0.001289225               0.999999987               0.000103113               0.001311299               0.999999987               0.000092346               0.001334899               0.999999987               0.000077579               0.001358796               0.999999987               0.000058642               0.001382119               0.999999987               0.000035004               0.001404229               0.999999987               0.000005577               0.001424625               0.999999987              -0.000030674               0.001442683               0.999999987              -0.000074822               0.001458309               0.999999987              -0.000127721               0.001471610               0.999999987              -0.000189996               0.001482930               0.999999987               0.000169809               0.001291139               0.999999987               0.000117212               0.001306106               0.999999987               0.000092545               0.001310969               0.999999987               0.000080592               0.001318323               0.999999987               0.000074332               0.001330928               0.999999987               0.000070423               0.001348777               0.999999987               0.000066612               0.001370935               0.999999987               0.000061750               0.001396463               0.999999987               0.000054630               0.001424168               0.999999987               0.000044791               0.001453051               0.999999987               0.000031961               0.001482338               0.999999987               0.000015813               0.001511364               0.999999987              -0.000004295               0.001539538               0.999999987              -0.000029520               0.001566273               0.999999987              -0.000061288               0.001591109               0.999999987              -0.000100810               0.001613836               0.999999987              -0.000149361               0.001634307               0.999999987               0.000085268               0.001311979               0.999999987               0.000058382               0.001339755               0.999999987               0.000045376               0.001352366               0.999999987               0.000038831               0.001364448               0.999999987               0.000035238               0.001380194               0.999999987               0.000032988               0.001400448               0.999999987               0.000030890               0.001424782               0.999999987               0.000028390               0.001452562               0.999999987               0.000024914               0.001482953               0.999999987               0.000020068               0.001515151               0.999999987               0.000013492               0.001548473               0.999999987               0.000005263               0.001582260               0.999999987              -0.000004775               0.001615845               0.999999987              -0.000017766               0.001648741               0.999999987              -0.000034534               0.001680312               0.999999987              -0.000055921               0.001710021               0.999999987              -0.000083168               0.001737230               0.999999987              -0.000000000               0.001319003               0.999999987              -0.000000000               0.001351116               0.999999987              -0.000000000               0.001366456               0.999999987               0.000000000               0.001380311               0.999999987               0.000000000               0.001397288               0.999999987               0.000000000               0.001418547               0.999999987               0.000000000               0.001443641               0.999999987               0.000000000               0.001472051               0.999999987              -0.000000000               0.001503340               0.999999987              -0.000000000               0.001536804               0.999999987              -0.000000000               0.001571570               0.999999987               0.000000000               0.001607039               0.999999987              -0.000000000               0.001642665               0.999999987              -0.000000000               0.001677962               0.999999987              -0.000000000               0.001712288               0.999999987               0.000000000               0.001744807               0.999999987               0.000000000               0.001774601               0.999999987 </DataArray>
<DataArray type="Float64"                                    Name="stress"                                                      NumberOfComponents="10" format="ascii">
              0.002169991               0.022739868              -0.000000000              -0.002028732               0.008256124               0.006227392               0.000000000               0.000000000               0.000000000               0.000000000               0.002074937               0.017353188               0.000000000              -0.001391044               0.006248019               0.004856976               0.000000000               0.000000000               0.000000000               0.000000000               0.002669184               0.012990619              -0.000000000              -0.000622882               0.004537790               0.003914908               0.000000000               0.000000000               0.000000000               0.000000000               0.002473993               0.010520400               0.000000000              -0.000387302               0.003635865               0.003248564               0.000000000               0.000000000               0.000000000               0.000000000               0.002072762               0.008947611               0.000000000              -0.000341165               0.003096229               0.002755064               0.000000000               0.000000000               0.000000000               0.000000000               0.001648429               0.007847428               0.000000000              -0.000362767               0.002736706               0.002373939               0.000000000               0.000000000               0.000000000               0.000000000               0.001251433               0.006994281               0.000000000              -0.000404997               0.002466403               0.002061406               0.000000000               0.000000000               0.000000000               0.000000000               0.000903372               0.006270962              -0.000000000              -0.000445105               0.002238668               0.001793563               0.000000000               0.000000000               0.000000000               0.000000000               0.000611173               0.005619295              -0.000000000              -0.000473221               0.002030820               0.001557599               0.000000000               0.000000000               0.000000000               0.000000000               0.000373144               0.004997323               0.000000000              -0.000484735               0.001827336               0.001342601               0.000000000               0.000000000               0.000000000               0.000000000               0.000183891               0.004383297               0.000000000              -0.000478952               0.001620735               0.001141783               0.000000000               0.000000000               0.000000000               0.000000000               0.000032554               0.003763095              -0.000000000              -0.000458178               0.001407078               0.000948901               0.000000000               0.000000000               0.000000000               0.000000000              -0.000079678               0.003118659              -0.000000000              -0.000419711               0.001179446               0.000759735               0.000000000               0.000000000               0.000000000               0.000000000              -0.000137095               0.002433002              -0.000000000              -0.000355535               0.000929504               0.000573969               0.000000000               0.000000000               0.000000000               0.000000000              -0.000139940               0.001681833              -0.000000000              -0.000262706               0.000648174               0.000385468               0.000000000               0.000000000               0.000000000               0.000000000              -0.000086026               0.000837884              -0.000000000              -0.000136995               0.000324957               0.000187962               0.000000000               0.000000000               0.000000000               0.000000000              -0.000112354               0.000193306               0.000000000              -0.000066296               0.000086533               0.000020237               0.000000000               0.000000000               0.000000000               0.000000000               0.002223932               0.022236037              -0.001481997              -0.001945526               0.008060446               0.006114921               0.000000000               0.000000000               0.000000000               0.000000000               0.002000397               0.017039891              -0.000634347              -0.001379834               0.006139851               0.004760017               0.000000000               0.000000000               0.000000000               0.000000000               0.002455399               0.012869702               0.000193294              -0.000687937               0.004519170               0.003831233               0.000000000               0.000000000               0.000000000               0.000000000               0.002208973               0.010500212               0.000522407              -0.000484161               0.003661423               0.003177262               0.000000000               0.000000000               0.000000000               0.000000000               0.001800589               0.008983358               0.000646152              -0.000447698               0.003143655               0.002695958               0.000000000               0.000000000               0.000000000               0.000000000               0.001389758               0.007908500               0.000678786              -0.000467402               0.002791941               0.002324539               0.000000000               0.000000000               0.000000000               0.000000000               0.001017222               0.007068698               0.000665849              -0.000502128               0.002523585               0.002021457               0.000000000               0.000000000               0.000000000               0.000000000               0.000700939               0.006352328               0.000636331              -0.000531188               0.002294484               0.001763296               0.000000000               0.000000000               0.000000000               0.000000000               0.000440372               0.005699268               0.000602283              -0.000547268               0.002082159               0.001534892               0.000000000               0.000000000               0.000000000               0.000000000               0.000231989               0.005077360               0.000565748              -0.000547673               0.001874994               0.001327321               0.000000000               0.000000000               0.000000000               0.000000000               0.000068763               0.004466362               0.000532579              -0.000532508               0.001666275               0.001133767               0.000000000               0.000000000               0.000000000               0.000000000              -0.000055556               0.003855947               0.000496040              -0.000502826               0.001452912               0.000950086               0.000000000               0.000000000               0.000000000               0.000000000              -0.000139683               0.003225521               0.000447249              -0.000455571               0.001227020               0.000771449               0.000000000               0.000000000               0.000000000               0.000000000              -0.000177103               0.002560028               0.000382147              -0.000386416               0.000982139               0.000595723               0.000000000               0.000000000               0.000000000               0.000000000              -0.000162646               0.001848525               0.000291982              -0.000292058               0.000713521               0.000421464               0.000000000               0.000000000               0.000000000               0.000000000              -0.000095523               0.001076298               0.000165854              -0.000170358               0.000415548               0.000245190               0.000000000               0.000000000               0.000000000               0.000000000              -0.000111254               0.000500204               0.000104292              -0.000104246               0.000201481               0.000097236               0.000000000               0.000000000               0.000000000               0.000000000               0.002342001               0.020802476              -0.002733721              -0.001722056               0.007508108               0.005786052               0.000000000               0.000000000               0.000000000               0.000000000               0.001766293               0.016149791              -0.001165965              -0.001356361               0.005835330               0.004478969               0.000000000               0.000000000               0.000000000               0.000000000               0.001845435               0.012530250               0.000352302              -0.000874241               0.004468122               0.003593881               0.000000000               0.000000000               0.000000000               0.000000000               0.001475107               0.010443773               0.000935466              -0.000752305               0.003731991               0.002979686               0.000000000               0.000000000               0.000000000               0.000000000               0.001055683               0.009074376               0.001142618              -0.000738414               0.003270900               0.002532486               0.000000000               0.000000000               0.000000000               0.000000000               0.000686224               0.008068251               0.001189352              -0.000751196               0.002939789               0.002188593               0.000000000               0.000000000               0.000000000               0.000000000               0.000387668               0.007255415               0.001160422              -0.000761550               0.002672297               0.001910747               0.000000000               0.000000000               0.000000000               0.000000000               0.000159924               0.006545828               0.001101477              -0.000758256               0.002434673               0.001676417               0.000000000               0.000000000               0.000000000               0.000000000              -0.000014524               0.005891551               0.001035818              -0.000741889               0.002211127               0.001469238               0.000000000               0.000000000               0.000000000               0.000000000              -0.000142102               0.005272389               0.000967527              -0.000712335               0.001994890               0.001282555               0.000000000               0.000000000               0.000000000               0.000000000              -0.000229697               0.004673628               0.000904122              -0.000670339               0.001781306               0.001110968               0.000000000               0.000000000               0.000000000               0.000000000              -0.000283491               0.004083756               0.000834403              -0.000616777               0.001566831               0.000950053               0.000000000               0.000000000               0.000000000               0.000000000              -0.000296198               0.003493782               0.000740035              -0.000547796               0.001347181               0.000799385               0.000000000               0.000000000               0.000000000               0.000000000              -0.000267855               0.002897470               0.000620696              -0.000462629               0.001120023               0.000657394               0.000000000               0.000000000               0.000000000               0.000000000              -0.000202572               0.002296980               0.000467252              -0.000363086               0.000886681               0.000523595               0.000000000               0.000000000               0.000000000               0.000000000              -0.000107590               0.001698956               0.000261290              -0.000252715               0.000650551               0.000397836               0.000000000               0.000000000               0.000000000               0.000000000              -0.000097368               0.001288295               0.000158703              -0.000197549               0.000495277               0.000297728               0.000000000               0.000000000               0.000000000               0.000000000               0.002405185               0.018642526              -0.003570533              -0.001428370               0.006690236               0.005261866               0.000000000               0.000000000               0.000000000               0.000000000               0.001345101               0.014826778              -0.001513565              -0.001348932               0.005391853               0.004042922               0.000000000               0.000000000               0.000000000               0.000000000               0.000911507               0.012034760               0.000449843              -0.001162527               0.004399055               0.003236528               0.000000000               0.000000000               0.000000000               0.000000000               0.000406873               0.010347348               0.001157737              -0.001140838               0.003829361               0.002688522               0.000000000               0.000000000               0.000000000               0.000000000               0.000011439               0.009169330               0.001385755              -0.001141874               0.003437037               0.002295163               0.000000000               0.000000000               0.000000000               0.000000000              -0.000268921               0.008249735               0.001421204              -0.001132060               0.003127237               0.001995177               0.000000000               0.000000000               0.000000000               0.000000000              -0.000450923               0.007465819               0.001372564              -0.001102321               0.002856022               0.001753700               0.000000000               0.000000000               0.000000000               0.000000000              -0.000552837               0.006762615               0.001291588              -0.001052639               0.002605062               0.001552423               0.000000000               0.000000000               0.000000000               0.000000000              -0.000603784               0.006113679               0.001204044              -0.000990627               0.002368081               0.001377454               0.000000000               0.000000000               0.000000000               0.000000000              -0.000615920               0.005504339               0.001115939              -0.000919011               0.002141098               0.001222087               0.000000000               0.000000000               0.000000000               0.000000000              -0.000590723               0.004928287               0.001031511              -0.000837555               0.001921931               0.001084375               0.000000000               0.000000000               0.000000000               0.000000000              -0.000537017               0.004373606               0.000940684              -0.000748081               0.001707214               0.000959133               0.000000000               0.000000000               0.000000000               0.000000000              -0.000454634               0.003847067               0.000822213              -0.000651370               0.001499466               0.000848096               0.000000000               0.000000000               0.000000000               0.000000000              -0.000346849               0.003352964               0.000672526              -0.000549188               0.001300706               0.000751518               0.000000000               0.000000000               0.000000000               0.000000000              -0.000227910               0.002900883               0.000489423              -0.000448076               0.001116310               0.000668234               0.000000000               0.000000000               0.000000000               0.000000000              -0.000112148               0.002515210               0.000265938              -0.000356456               0.000957214               0.000600758               0.000000000               0.000000000               0.000000000               0.000000000              -0.000075889               0.002294142               0.000153805              -0.000315225               0.000869782               0.000554556               0.000000000               0.000000000               0.000000000               0.000000000               0.002267258               0.016018266              -0.003915970              -0.001152062               0.005723388               0.004571327               0.000000000               0.000000000               0.000000000               0.000000000               0.000718551               0.013258732              -0.001667013              -0.001387882               0.004882160               0.003494278               0.000000000               0.000000000               0.000000000               0.000000000              -0.000231440               0.011450281               0.000441899              -0.001518072               0.004322746               0.002804674               0.000000000               0.000000000               0.000000000               0.000000000              -0.000810323               0.010189080               0.001140672              -0.001577502               0.003922160               0.002344658               0.000000000               0.000000000               0.000000000               0.000000000              -0.001117840               0.009199453               0.001338034              -0.001569118               0.003589493               0.002020375               0.000000000               0.000000000               0.000000000               0.000000000              -0.001248439               0.008359638               0.001351040              -0.001513116               0.003290890               0.001777774               0.000000000               0.000000000               0.000000000               0.000000000              -0.001271537               0.007606898               0.001288795              -0.001427686               0.003011502               0.001583817               0.000000000               0.000000000               0.000000000               0.000000000              -0.001226307               0.006922638               0.001199083              -0.001325192               0.002749254               0.001424061               0.000000000               0.000000000               0.000000000               0.000000000              -0.001136437               0.006292903               0.001106251              -0.001212774               0.002501871               0.001289097               0.000000000               0.000000000               0.000000000               0.000000000              -0.001012711               0.005707665               0.001016249              -0.001093222               0.002266943               0.001173721               0.000000000               0.000000000               0.000000000               0.000000000              -0.000862492               0.005162434               0.000927837              -0.000968737               0.002043706               0.001074970               0.000000000               0.000000000               0.000000000               0.000000000              -0.000696873               0.004655089               0.000832543              -0.000843212               0.001832751               0.000989540               0.000000000               0.000000000               0.000000000               0.000000000              -0.000525287               0.004200402               0.000711629              -0.000722031               0.001640797               0.000918766               0.000000000               0.000000000               0.000000000               0.000000000              -0.000356987               0.003814400               0.000557607              -0.000610669               0.001475010               0.000864341               0.000000000               0.000000000               0.000000000               0.000000000              -0.000203836               0.003508307               0.000382850              -0.000514976               0.001341083               0.000826107               0.000000000               0.000000000               0.000000000               0.000000000              -0.000087188               0.003304085               0.000197330              -0.000445705               0.001249919               0.000804214               0.000000000               0.000000000               0.000000000               0.000000000              -0.000042429               0.003225730               0.000104094              -0.000419126               0.001214941               0.000795815               0.000000000               0.000000000               0.000000000               0.000000000               0.001824119               0.013200183              -0.003794403              -0.000965979               0.004722009               0.003756030               0.000000000               0.000000000               0.000000000               0.000000000              -0.000091233               0.011608571              -0.001668868              -0.001485281               0.004364578               0.002879297               0.000000000               0.000000000               0.000000000               0.000000000              -0.001443221               0.010809431               0.000293077              -0.001892382               0.004233902               0.002341520               0.000000000               0.000000000               0.000000000               0.000000000              -0.001984169               0.009943938               0.000888124              -0.001987051               0.003976963               0.001989912               0.000000000               0.000000000               0.000000000               0.000000000              -0.002128248               0.009118526               0.001036420              -0.001937904               0.003685446               0.001747542               0.000000000               0.000000000               0.000000000               0.000000000              -0.002069280               0.008344443               0.001034741              -0.001819031               0.003387797               0.001568766               0.000000000               0.000000000               0.000000000               0.000000000              -0.001912579               0.007626320               0.000978334              -0.001670503               0.003098915               0.001428412               0.000000000               0.000000000               0.000000000               0.000000000              -0.001706052               0.006975553               0.000902105              -0.001511710               0.002829064               0.001317354               0.000000000               0.000000000               0.000000000               0.000000000              -0.001469997               0.006377767               0.000822361              -0.001348467               0.002575390               0.001226923               0.000000000               0.000000000               0.000000000               0.000000000              -0.001219770               0.005825164               0.000743893              -0.001185557               0.002336887               0.001151331               0.000000000               0.000000000               0.000000000               0.000000000              -0.000962046               0.005320011               0.000660776              -0.001025766               0.002115241               0.001089475               0.000000000               0.000000000               0.000000000               0.000000000              -0.000712506               0.004866390               0.000572169              -0.000875486               0.001913943               0.001038456               0.000000000               0.000000000               0.000000000               0.000000000              -0.000483237               0.004485156               0.000469297              -0.000741857               0.001742323               0.001000466               0.000000000               0.000000000               0.000000000               0.000000000              -0.000287166               0.004191303               0.000341778              -0.000631599               0.001607620               0.000976021               0.000000000               0.000000000               0.000000000               0.000000000              -0.000138089               0.003992786               0.000207254              -0.000550880               0.001514542               0.000963662               0.000000000               0.000000000               0.000000000               0.000000000              -0.000046105               0.003894072               0.000092334              -0.000504047               0.001466027               0.000961980               0.000000000               0.000000000               0.000000000               0.000000000              -0.000011947               0.003879019               0.000040006              -0.000489356               0.001456112               0.000966756               0.000000000               0.000000000               0.000000000               0.000000000               0.001019883               0.010433240              -0.003298085              -0.000921699               0.003784944               0.002863245               0.000000000               0.000000000               0.000000000               0.000000000              -0.001034300               0.010004405              -0.001576718              -0.001638410               0.003880905               0.002242495               0.000000000               0.000000000               0.000000000               0.000000000              -0.002584271               0.010128693               0.000005685              -0.002235183               0.004121258               0.001886076               0.000000000               0.000000000               0.000000000               0.000000000              -0.002960744               0.009589475               0.000457366              -0.002308958               0.003966112               0.001657155               0.000000000               0.000000000               0.000000000               0.000000000              -0.002885694               0.008894977               0.000569196              -0.002194002               0.003696297               0.001502295               0.000000000               0.000000000               0.000000000               0.000000000              -0.002621940               0.008188613               0.000575870              -0.002006799               0.003398443               0.001391644               0.000000000               0.000000000               0.000000000               0.000000000              -0.002285174               0.007525539               0.000549797              -0.001797628               0.003107697               0.001310069               0.000000000               0.000000000               0.000000000               0.000000000              -0.001928438               0.006917841               0.000505561              -0.001587891               0.002835221               0.001247330               0.000000000               0.000000000               0.000000000               0.000000000              -0.001566381               0.006355422               0.000451244              -0.001381817               0.002579058               0.001197241               0.000000000               0.000000000               0.000000000               0.000000000              -0.001219790               0.005841004               0.000394668              -0.001187544               0.002342830               0.001155286               0.000000000               0.000000000               0.000000000               0.000000000              -0.000898536               0.005381500               0.000331271              -0.001009636               0.002130361               0.001120725               0.000000000               0.000000000               0.000000000               0.000000000              -0.000607309               0.004992073               0.000268250              -0.000851748               0.001947924               0.001096176               0.000000000               0.000000000               0.000000000               0.000000000              -0.000363392               0.004684046               0.000204427              -0.000721776               0.001801925               0.001080149               0.000000000               0.000000000               0.000000000               0.000000000              -0.000179093               0.004465547               0.000130391              -0.000625352               0.001696951               0.001071600               0.000000000               0.000000000               0.000000000               0.000000000              -0.000063154               0.004339593               0.000062866              -0.000566131               0.001635227               0.001069096               0.000000000               0.000000000               0.000000000               0.000000000              -0.000011206               0.004294392               0.000021468              -0.000541000               0.001611783               0.001070783               0.000000000               0.000000000               0.000000000               0.000000000               0.000000598               0.004294560               0.000007953              -0.000536594               0.001610371               0.001073776               0.000000000               0.000000000               0.000000000               0.000000000              -0.000105484               0.007897487              -0.002542881              -0.001026742               0.002974716               0.001947974               0.000000000               0.000000000               0.000000000               0.000000000              -0.002056895               0.008546573              -0.001439951              -0.001839653               0.003462046               0.001622393               0.000000000               0.000000000               0.000000000               0.000000000              -0.003549867               0.009412081              -0.000398066              -0.002507704               0.003973230               0.001465526               0.000000000               0.000000000               0.000000000               0.000000000              -0.003655568               0.009111538              -0.000075205              -0.002509774               0.003873740               0.001363966               0.000000000               0.000000000               0.000000000               0.000000000              -0.003328931               0.008532914               0.000038420              -0.002314957               0.003615929               0.001300971               0.000000000               0.000000000               0.000000000               0.000000000              -0.002867221               0.007911162               0.000081977              -0.002064098               0.003325060               0.001260962               0.000000000               0.000000000               0.000000000               0.000000000              -0.002372915               0.007316350               0.000098393              -0.001804382               0.003040220               0.001235837               0.000000000               0.000000000               0.000000000               0.000000000              -0.001894598               0.006752116               0.000096046              -0.001554485               0.002768844               0.001214359               0.000000000               0.000000000               0.000000000               0.000000000              -0.001444142               0.006230218               0.000079683              -0.001320327               0.002516828               0.001196500               0.000000000               0.000000000               0.000000000               0.000000000              -0.001038170               0.005761693               0.000058530              -0.001109523               0.002290386               0.001180863               0.000000000               0.000000000               0.000000000               0.000000000              -0.000689242               0.005354378               0.000036778              -0.000927761               0.002094028               0.001166268               0.000000000               0.000000000               0.000000000               0.000000000              -0.000401087               0.005029951               0.000020732              -0.000779149               0.001936350               0.001157201               0.000000000               0.000000000               0.000000000               0.000000000              -0.000187273               0.004793298               0.000012893              -0.000669388               0.001820879               0.001151491               0.000000000               0.000000000               0.000000000               0.000000000              -0.000050683               0.004649188               0.000002542              -0.000600153               0.001749765               0.001149612               0.000000000               0.000000000               0.000000000               0.000000000               0.000007970               0.004588004              -0.000004299              -0.000570510               0.001719490               0.001148979               0.000000000               0.000000000               0.000000000               0.000000000               0.000013668               0.004588851              -0.000001680              -0.000568480               0.001719095               0.001150615               0.000000000               0.000000000               0.000000000               0.000000000               0.000008551               0.004609063              -0.000000611              -0.000572925               0.001727314               0.001154389               0.000000000               0.000000000               0.000000000               0.000000000              -0.001417453               0.005782606              -0.001646051              -0.001254368               0.002345639               0.001091270               0.000000000               0.000000000               0.000000000               0.000000000              -0.003056801               0.007250161              -0.001295053              -0.002052566               0.003100885               0.001048319               0.000000000               0.000000000               0.000000000               0.000000000              -0.004310882               0.008675435              -0.000878760              -0.002701004               0.003792117               0.001091114               0.000000000               0.000000000               0.000000000               0.000000000              -0.004134130               0.008621756              -0.000636942              -0.002628012               0.003749894               0.001121882               0.000000000               0.000000000               0.000000000               0.000000000              -0.003591301               0.008189247              -0.000487243              -0.002370388               0.003519851               0.001149463               0.000000000               0.000000000               0.000000000               0.000000000              -0.002967857               0.007668824              -0.000390486              -0.002071544               0.003246764               0.001175220               0.000000000               0.000000000               0.000000000               0.000000000              -0.002351039               0.007146778              -0.000326881              -0.001774983               0.002973896               0.001198914               0.000000000               0.000000000               0.000000000               0.000000000              -0.001779111               0.006635359              -0.000279692              -0.001496583               0.002710625               0.001214042               0.000000000               0.000000000               0.000000000               0.000000000              -0.001265968               0.006159002              -0.000247152              -0.001244610               0.002467850               0.001223240               0.000000000               0.000000000               0.000000000               0.000000000              -0.000821682               0.005727973              -0.000222510              -0.001024125               0.002250680               0.001226555               0.000000000               0.000000000               0.000000000               0.000000000              -0.000455787               0.005357500              -0.000196810              -0.000840605               0.002066017               0.001225412               0.000000000               0.000000000               0.000000000               0.000000000              -0.000173858               0.005074774              -0.000158930              -0.000699542               0.001924755               0.001225213               0.000000000               0.000000000               0.000000000               0.000000000               0.000012140               0.004884939              -0.000108636              -0.000606063               0.001830318               0.001224254               0.000000000               0.000000000               0.000000000               0.000000000               0.000098332               0.004782686              -0.000062027              -0.000560960               0.001781200               0.001220240               0.000000000               0.000000000               0.000000000               0.000000000               0.000105707               0.004764193              -0.000026702              -0.000555883               0.001773343               0.001217460               0.000000000               0.000000000               0.000000000               0.000000000               0.000076679               0.004805385              -0.000002906              -0.000571917               0.001792418               0.001220501               0.000000000               0.000000000               0.000000000               0.000000000               0.000057052               0.004841780               0.000004606              -0.000583827               0.001808519               0.001224693               0.000000000               0.000000000               0.000000000               0.000000000              -0.002930430               0.003844571              -0.000717610              -0.001579479               0.001808003               0.000228524               0.000000000               0.000000000               0.000000000               0.000000000              -0.003911844               0.005746345              -0.001141178              -0.002185229               0.002643839               0.000458609               0.000000000               0.000000000               0.000000000               0.000000000              -0.004785595               0.007566489              -0.001378345              -0.002740403               0.003435605               0.000695202               0.000000000               0.000000000               0.000000000               0.000000000              -0.004454762               0.007895125              -0.001225202              -0.002657420               0.003517489               0.000860069               0.000000000               0.000000000               0.000000000               0.000000000              -0.003826504               0.007732594              -0.001042130              -0.002401507               0.003378008               0.000976500               0.000000000               0.000000000               0.000000000               0.000000000              -0.003137943               0.007411277              -0.000889865              -0.002103133               0.003171445               0.001068312               0.000000000               0.000000000               0.000000000               0.000000000              -0.002473024               0.007041408              -0.000767867              -0.001807556               0.002949631               0.001142075               0.000000000               0.000000000               0.000000000               0.000000000              -0.001862916               0.006655647              -0.000662992              -0.001530546               0.002728709               0.001198163               0.000000000               0.000000000               0.000000000               0.000000000              -0.001321395               0.006273840              -0.000576116              -0.001279750               0.002517842               0.001238092               0.000000000               0.000000000               0.000000000               0.000000000              -0.000852031               0.005899073              -0.000506387              -0.001056893               0.002318636               0.001261742               0.000000000               0.000000000               0.000000000               0.000000000              -0.000454176               0.005549189              -0.000438472              -0.000863962               0.002137699               0.001273736               0.000000000               0.000000000               0.000000000               0.000000000              -0.000138140               0.005258490              -0.000354718              -0.000709112               0.001989183               0.001280071               0.000000000               0.000000000               0.000000000               0.000000000               0.000083952               0.005043927              -0.000256405              -0.000599007               0.001880961               0.001281954               0.000000000               0.000000000               0.000000000               0.000000000               0.000207979               0.004917609              -0.000159186              -0.000536708               0.001818089               0.001281381               0.000000000               0.000000000               0.000000000               0.000000000               0.000246203               0.004881245              -0.000078557              -0.000517828               0.001799675               0.001281847               0.000000000               0.000000000               0.000000000               0.000000000               0.000227323               0.004918091              -0.000025633              -0.000529514               0.001815852               0.001286338               0.000000000               0.000000000               0.000000000               0.000000000               0.000191241               0.004940803              -0.000000995              -0.000545884               0.001828879               0.001282996               0.000000000               0.000000000               0.000000000               0.000000000              -0.004833559               0.002100446               0.000166234              -0.002075137               0.001391852              -0.000683285               0.000000000               0.000000000               0.000000000               0.000000000              -0.004876534               0.004227794              -0.000934017              -0.002357169               0.002194973              -0.000162197               0.000000000               0.000000000               0.000000000               0.000000000              -0.005188752               0.006244463              -0.001780293              -0.002726334               0.002990244               0.000263911               0.000000000               0.000000000               0.000000000               0.000000000              -0.004719698               0.006932943              -0.001783230              -0.002636498               0.003189790               0.000553292               0.000000000               0.000000000               0.000000000               0.000000000              -0.004044204               0.007079655              -0.001605070              -0.002401528               0.003160370               0.000758843               0.000000000               0.000000000               0.000000000               0.000000000              -0.003335454               0.006994526              -0.001411776              -0.002125106               0.003039854               0.000914748               0.000000000               0.000000000               0.000000000               0.000000000              -0.002650924               0.006814154              -0.001235508              -0.001845861               0.002886649               0.001040787               0.000000000               0.000000000               0.000000000               0.000000000              -0.002016434               0.006584092              -0.001075905              -0.001579171               0.002721065               0.001141895               0.000000000               0.000000000               0.000000000               0.000000000              -0.001443303               0.006325377              -0.000938960              -0.001331908               0.002552407               0.001220499               0.000000000               0.000000000               0.000000000               0.000000000              -0.000937355               0.006039077              -0.000829163              -0.001106390               0.002381802               0.001275412               0.000000000               0.000000000               0.000000000               0.000000000              -0.000493227               0.005742116              -0.000729510              -0.000902723               0.002214927               0.001312204               0.000000000               0.000000000               0.000000000               0.000000000              -0.000112501               0.005465801              -0.000615433              -0.000725411               0.002063719               0.001338308               0.000000000               0.000000000               0.000000000               0.000000000               0.000192275               0.005236995              -0.000481203              -0.000582520               0.001939821               0.001357301               0.000000000               0.000000000               0.000000000               0.000000000               0.000399924               0.005072165              -0.000336685              -0.000484048               0.001852054               0.001368006               0.000000000               0.000000000               0.000000000               0.000000000               0.000503369               0.004981158              -0.000201992              -0.000433880               0.001804996               0.001371116               0.000000000               0.000000000               0.000000000               0.000000000               0.000513614               0.004965770              -0.000090509              -0.000428115               0.001797945               0.001369830               0.000000000               0.000000000               0.000000000               0.000000000               0.000469069               0.004954942              -0.000030789              -0.000443466               0.001799453               0.001355987               0.000000000               0.000000000               0.000000000               0.000000000              -0.006991440               0.000698916               0.000918793              -0.002709152               0.001136015              -0.001573137               0.000000000               0.000000000               0.000000000               0.000000000              -0.005983573               0.002799797              -0.000667870              -0.002593810               0.001797857              -0.000795953               0.000000000               0.000000000               0.000000000               0.000000000              -0.005532776               0.004734597              -0.001985625              -0.002666610               0.002467052              -0.000199558               0.000000000               0.000000000               0.000000000               0.000000000              -0.004846153               0.005668684              -0.002177059              -0.002525887               0.002731504               0.000205617               0.000000000               0.000000000               0.000000000               0.000000000              -0.004115330               0.006097802              -0.002054125              -0.002305469               0.002801069               0.000495601               0.000000000               0.000000000               0.000000000               0.000000000              -0.003397324               0.006263376              -0.001857374              -0.002056914               0.002773408               0.000716495               0.000000000               0.000000000               0.000000000               0.000000000              -0.002709583               0.006298090              -0.001653555              -0.001803351               0.002700459               0.000897108               0.000000000               0.000000000               0.000000000               0.000000000              -0.002062798               0.006245331              -0.001459028              -0.001554212               0.002599826               0.001045614               0.000000000               0.000000000               0.000000000               0.000000000              -0.001468258               0.006129679              -0.001288682              -0.001316804               0.002482140               0.001165336               0.000000000               0.000000000               0.000000000               0.000000000              -0.000927580               0.005972912              -0.001147529              -0.001094454               0.002355769               0.001261314               0.000000000               0.000000000               0.000000000               0.000000000              -0.000440711               0.005779546              -0.001021366              -0.000887708               0.002222399               0.001334691               0.000000000               0.000000000               0.000000000               0.000000000              -0.000005747               0.005562482              -0.000887025              -0.000697464               0.002086630               0.001389166               0.000000000               0.000000000               0.000000000               0.000000000               0.000375838               0.005359675              -0.000729448              -0.000529019               0.001962880               0.001433861               0.000000000               0.000000000               0.000000000               0.000000000               0.000681043               0.005191234              -0.000547506              -0.000393512               0.001861565               0.001468052               0.000000000               0.000000000               0.000000000               0.000000000               0.000887768               0.005076599              -0.000361667              -0.000301661               0.001792737               0.001491075               0.000000000               0.000000000               0.000000000               0.000000000               0.000978634               0.005019244              -0.000181925              -0.000260417               0.001759870               0.001499453               0.000000000               0.000000000               0.000000000               0.000000000               0.000970396               0.004989179              -0.000087057              -0.000259748               0.001749626               0.001489878               0.000000000               0.000000000               0.000000000               0.000000000              -0.009258432              -0.000288482               0.001424157              -0.003435849               0.001049115              -0.002386734               0.000000000               0.000000000               0.000000000               0.000000000              -0.007166985               0.001538115              -0.000385503              -0.002879880               0.001472655              -0.001407225               0.000000000               0.000000000               0.000000000               0.000000000              -0.005841121               0.003165394              -0.001963334              -0.002586090               0.001917148              -0.000668943               0.000000000               0.000000000               0.000000000               0.000000000              -0.004856473               0.004213400              -0.002316675              -0.002347848               0.002187067              -0.000160781               0.000000000               0.000000000               0.000000000               0.000000000              -0.004036240               0.004865208              -0.002273938              -0.002121736               0.002328964               0.000207228               0.000000000               0.000000000               0.000000000               0.000000000              -0.003299835               0.005262128              -0.002111236              -0.001895200               0.002385758               0.000490558               0.000000000               0.000000000               0.000000000               0.000000000              -0.002618318               0.005502781              -0.001916420              -0.001669713               0.002390812               0.000721099               0.000000000               0.000000000               0.000000000               0.000000000              -0.001973103               0.005638151              -0.001718574              -0.001444680               0.002360924               0.000916245               0.000000000               0.000000000               0.000000000               0.000000000              -0.001369687               0.005690140              -0.001537775              -0.001224898               0.002304993               0.001080096               0.000000000               0.000000000               0.000000000               0.000000000              -0.000807735               0.005676417              -0.001384960              -0.001012451               0.002229603               0.001217152               0.000000000               0.000000000               0.000000000               0.000000000              -0.000283620               0.005606988              -0.001246034              -0.000807230               0.002138054               0.001330824               0.000000000               0.000000000               0.000000000               0.000000000               0.000207783               0.005496987              -0.001102409              -0.000609204               0.002035378               0.001426175               0.000000000               0.000000000               0.000000000               0.000000000               0.000661115               0.005365223              -0.000934211              -0.000422734               0.001929301               0.001506567               0.000000000               0.000000000               0.000000000               0.000000000               0.001067616               0.005232979              -0.000733974              -0.000253766               0.001828898               0.001575131               0.000000000               0.000000000               0.000000000               0.000000000               0.001405897               0.005125938              -0.000512655              -0.000113531               0.001746473               0.001632942               0.000000000               0.000000000               0.000000000               0.000000000               0.001642581               0.005052184              -0.000269452              -0.000015555               0.001689230               0.001673674               0.000000000               0.000000000               0.000000000               0.000000000               0.001739788               0.005027420              -0.000144339               0.000023992               0.001667792               0.001691785               0.000000000               0.000000000               0.000000000               0.000000000              -0.011420607              -0.000895422               0.001581027              -0.004170797               0.001091784              -0.003079013               0.000000000               0.000000000               0.000000000               0.000000000              -0.008330353               0.000514587              -0.000144473              -0.003188203               0.001234255              -0.001953948               0.000000000               0.000000000               0.000000000               0.000000000              -0.006119811               0.001705938              -0.001704668              -0.002508168               0.001404692              -0.001103476               0.000000000               0.000000000               0.000000000               0.000000000              -0.004787251               0.002740969              -0.002143568              -0.002137837               0.001626257              -0.000511580               0.000000000               0.000000000               0.000000000               0.000000000              -0.003838965               0.003529356              -0.002177626              -0.001880778               0.001803365              -0.000077413               0.000000000               0.000000000               0.000000000               0.000000000              -0.003069848               0.004108638              -0.002066992              -0.001664770               0.001924455               0.000259685               0.000000000               0.000000000               0.000000000               0.000000000              -0.002390201               0.004535391              -0.001907591              -0.001463246               0.001999530               0.000536284               0.000000000               0.000000000               0.000000000               0.000000000              -0.001752951               0.004849906              -0.001735745              -0.001263592               0.002037816               0.000774224               0.000000000               0.000000000               0.000000000               0.000000000              -0.001148408               0.005058736              -0.001571381              -0.001062993               0.002040559               0.000977566               0.000000000               0.000000000               0.000000000               0.000000000              -0.000574879               0.005181574              -0.001430755              -0.000863275               0.002014932               0.001151657               0.000000000               0.000000000               0.000000000               0.000000000              -0.000024641               0.005242293              -0.001304615              -0.000664526               0.001968922               0.001304396               0.000000000               0.000000000               0.000000000               0.000000000               0.000513345               0.005258106              -0.001171796              -0.000464758               0.001907604               0.001442845               0.000000000               0.000000000               0.000000000               0.000000000               0.001039929               0.005229236              -0.001014382              -0.000263681               0.001830955               0.001567274               0.000000000               0.000000000               0.000000000               0.000000000               0.001552460               0.005171292              -0.000822649              -0.000064239               0.001745160               0.001680920               0.000000000               0.000000000               0.000000000               0.000000000               0.002035961               0.005109634              -0.000591962               0.000124779               0.001661601               0.001786381               0.000000000               0.000000000               0.000000000               0.000000000               0.002463972               0.005052647              -0.000319175               0.000292406               0.001586730               0.001879136               0.000000000               0.000000000               0.000000000               0.000000000               0.002721155               0.005050747              -0.000184884               0.000389086               0.001553870               0.001942956               0.000000000               0.000000000               0.000000000               0.000000000              -0.013217536              -0.001190195               0.001351232              -0.004807799               0.001205860              -0.003601939               0.000000000               0.000000000               0.000000000               0.000000000              -0.009332287              -0.000214756               0.000003699              -0.003472760               0.001085994              -0.002386766               0.000000000               0.000000000               0.000000000               0.000000000              -0.006361496               0.000523763              -0.001247251              -0.002451029               0.000991590              -0.001459439               0.000000000               0.000000000               0.000000000               0.000000000              -0.004690329               0.001467061              -0.001647972              -0.001942253               0.001136430              -0.000805824               0.000000000               0.000000000               0.000000000               0.000000000              -0.003598229               0.002313874              -0.001721138              -0.001638567               0.001317471              -0.000321097               0.000000000               0.000000000               0.000000000               0.000000000              -0.002781042               0.003011314              -0.001663415              -0.001419302               0.001476861               0.000057559               0.000000000               0.000000000               0.000000000               0.000000000              -0.002094315               0.003575426              -0.001556073              -0.001232294               0.001602561               0.000370267               0.000000000               0.000000000               0.000000000               0.000000000              -0.001465863               0.004023072              -0.001431452              -0.001052581               0.001691871               0.000639290               0.000000000               0.000000000               0.000000000               0.000000000              -0.000863657               0.004361729              -0.001306578              -0.000869086               0.001743590               0.000874504               0.000000000               0.000000000               0.000000000               0.000000000              -0.000280426               0.004613661              -0.001196730              -0.000681866               0.001765160               0.001083294               0.000000000               0.000000000               0.000000000               0.000000000               0.000286281               0.004795933              -0.001100205              -0.000492136               0.001762673               0.001270538               0.000000000               0.000000000               0.000000000               0.000000000               0.000854383               0.004921248              -0.001004881              -0.000294762               0.001738653               0.001443891               0.000000000               0.000000000               0.000000000               0.000000000               0.001441208               0.004996557              -0.000889269              -0.000084117               0.001693541               0.001609424               0.000000000               0.000000000               0.000000000               0.000000000               0.002045279               0.005028297              -0.000736406               0.000138441               0.001629935               0.001768376               0.000000000               0.000000000               0.000000000               0.000000000               0.002669656               0.005034164              -0.000540710               0.000371847               0.001554089               0.001925936               0.000000000               0.000000000               0.000000000               0.000000000               0.003310865               0.005024232              -0.000296737               0.000613539               0.001470214               0.002083754               0.000000000               0.000000000               0.000000000               0.000000000               0.003754037               0.005060105              -0.000178590               0.000775243               0.001428270               0.002203513               0.000000000               0.000000000               0.000000000               0.000000000              -0.014409904              -0.001291956               0.000776525              -0.005242216               0.001316744              -0.003925472               0.000000000               0.000000000               0.000000000               0.000000000              -0.010010577              -0.000639071               0.000040149              -0.003674080               0.001011663              -0.002662417               0.000000000               0.000000000               0.000000000               0.000000000              -0.006532616              -0.000243067              -0.000654786              -0.002419346               0.000725421              -0.001693925               0.000000000               0.000000000               0.000000000               0.000000000              -0.004618407               0.000599795              -0.000893064              -0.001806875               0.000802218              -0.001004658               0.000000000               0.000000000               0.000000000               0.000000000              -0.003405692               0.001460228              -0.000950105              -0.001459661               0.000973289              -0.000486372               0.000000000               0.000000000               0.000000000               0.000000000              -0.002538049               0.002216471              -0.000930866              -0.001228825               0.001148424              -0.000080401               0.000000000               0.000000000               0.000000000               0.000000000              -0.001838669               0.002852631              -0.000877873              -0.001046078               0.001299560               0.000253482               0.000000000               0.000000000               0.000000000               0.000000000              -0.001219282               0.003381681              -0.000811924              -0.000879939               0.001420529               0.000540590               0.000000000               0.000000000               0.000000000               0.000000000              -0.000628690               0.003813404              -0.000744972              -0.000712433               0.001508599               0.000796166               0.000000000               0.000000000               0.000000000               0.000000000              -0.000046258               0.004160117              -0.000683313              -0.000537360               0.001565812               0.001028452               0.000000000               0.000000000               0.000000000               0.000000000               0.000536563               0.004433082              -0.000630427              -0.000352924               0.001595320               0.001242397               0.000000000               0.000000000               0.000000000               0.000000000               0.001127478               0.004639122              -0.000585609              -0.000157086               0.001598720               0.001441635               0.000000000               0.000000000               0.000000000               0.000000000               0.001743631               0.004791691              -0.000526932               0.000054899               0.001578915               0.001633814               0.000000000               0.000000000               0.000000000               0.000000000               0.002408082               0.004899144              -0.000441670               0.000290635               0.001536153               0.001826788               0.000000000               0.000000000               0.000000000               0.000000000               0.003143333               0.004966179              -0.000331540               0.000557972               0.001469386               0.002027358               0.000000000               0.000000000               0.000000000               0.000000000               0.003965094               0.004995951              -0.000185787               0.000862408               0.001377831               0.002240239               0.000000000               0.000000000               0.000000000               0.000000000               0.004577828               0.005064117              -0.000114239               0.001083660               0.001326802               0.002410462               0.000000000               0.000000000               0.000000000               0.000000000              -0.014828438              -0.001314685               0.000000000              -0.005396325               0.001360538              -0.004035787               0.000000000               0.000000000               0.000000000               0.000000000              -0.010249675              -0.000778901              -0.000000000              -0.003746263               0.000989114              -0.002757149               0.000000000               0.000000000               0.000000000               0.000000000              -0.006595319              -0.000508611               0.000000000              -0.002409667               0.000633681              -0.001775986               0.000000000               0.000000000               0.000000000               0.000000000              -0.004592631               0.000293735               0.000000000              -0.001758952               0.000684224              -0.001074727               0.000000000               0.000000000               0.000000000               0.000000000              -0.003332007               0.001156129              -0.000000000              -0.001394017               0.000850043              -0.000543974               0.000000000               0.000000000               0.000000000               0.000000000              -0.002444146               0.001926234              -0.000000000              -0.001157331               0.001027848              -0.000129483               0.000000000               0.000000000               0.000000000               0.000000000              -0.001740637               0.002577196               0.000000000              -0.000974886               0.001184019               0.000209133               0.000000000               0.000000000               0.000000000               0.000000000              -0.001123597               0.003134746              -0.000000000              -0.000813190               0.001315968               0.000502778               0.000000000               0.000000000               0.000000000               0.000000000              -0.000538606               0.003607076              -0.000000000              -0.000652860               0.001419967               0.000767107               0.000000000               0.000000000               0.000000000               0.000000000               0.000040675               0.003989067               0.000000000              -0.000483379               0.001490802               0.001007423               0.000000000               0.000000000               0.000000000               0.000000000               0.000630850               0.004293000               0.000000000              -0.000300056               0.001531004               0.001230948               0.000000000               0.000000000               0.000000000               0.000000000               0.001230597               0.004530925               0.000000000              -0.000104891               0.001545257               0.001440366               0.000000000               0.000000000               0.000000000               0.000000000               0.001853229               0.004715102              -0.000000000               0.000105572               0.001536494               0.001642066               0.000000000               0.000000000               0.000000000               0.000000000               0.002541637               0.004856394              -0.000000000               0.000346061               0.001503428               0.001849489               0.000000000               0.000000000               0.000000000               0.000000000               0.003322228               0.004948861               0.000000000               0.000627222               0.001440530               0.002067751               0.000000000               0.000000000               0.000000000               0.000000000               0.004217431               0.004988698               0.000000000               0.000957940               0.001343569               0.002301509               0.000000000               0.000000000               0.000000000               0.000000000               0.004903290               0.005067184               0.000000000               0.001205324               0.001287270               0.002492594               0.000000000               0.000000000               0.000000000               0.000000000               0.000000000               0.000000000               0.000000000               0.000000000               0.000000000               0.000000000               0.000000000               0.000000000               0.000000000               0.000000000               0.000000000               0.000000000               0.000000000               0.000000000               0.000000000               0.000000000               0.000000000               0.000000000               0.000000000               0.000000000               0.000000000               0.000000000               0.000000000               0.000000000               0.000000000               0.000000000               0.000000000               0.000000000               0.000000000               0.000000000               0.000000000               0.000000000               0.000000000               0.000000000               0.000000000               0.000000000               0.000000000               0.000000000               0.000000000               0.000000000               0.000000000               0.000000000               0.000000000               0.000000000               0.000000000               0.000000000               0.000000000               0.000000000               0.000000000               0.000000000               0.000000000               0.000000000               0.000000000               0.000000000               0.000000000               0.000000000               0.000000000               0.000000000               0.000000000               0.000000000               0.000000000               0.000000000               0.000000000               0.000000000               0.000000000               0.000000000               0.000000000               0.000000000               0.000000000               0.000000000               0.000000000               0.000000000               0.000000000               0.000000000               0.000000000               0.000000000               0.000000000               0.000000000               0.000000000               0.000000000               0.000000000               0.000000000               0.000000000               0.000000000               0.000000000               0.000000000               0.000000000               0.000000000               0.000000000               0.000000000               0.000000000               0.000000000               0.000000000               0.000000000               0.000000000               0.000000000               0.000000000               0.000000000               0.000000000               0.000000000               0.000000000               0.000000000               0.000000000               0.000000000               0.000000000               0.000000000               0.000000000               0.000000000               0.000000000               0.000000000               0.000000000               0.000000000               0.000000000               0.000000000               0.000000000               0.000000000               0.000000000               0.000000000               0.000000000               0.000000000               0.000000000               0.000000000               0.000000000               0.000000000               0.000000000               0.000000000               0.000000000               0.000000000               0.000000000               0.000000000               0.000000000               0.000000000               0.000000000               0.000000000               0.000000000               0.000000000               0.000000000               0.000000000               0.000000000               0.000000000               0.000000000               0.000000000               0.000000000               0.000000000               0.000000000               0.000000000               0.000000000               0.000000000               0.000000000               0.000000000               0.000000000               0.000000000               0.000000000               0.000000000               0.000000000               0.000000000               0.000000000               0.000000000               0.000000000               0.000000000               0.000000000               0.000000000               0.000000000               0.000000000               0.000000000               0.000000000               0.000000000               0.000000000               0.000000000               0.000000000               0.002223932               0.022236037               0.001481997              -0.001945526               0.008060446               0.006114921               0.000000000               0.000000000               0.000000000               0.000000000               0.002000397               0.017039891               0.000634347              -0.001379834               0.006139851               0.004760017               0.000000000               0.000000000               0.000000000               0.000000000               0.002455399               0.012869702              -0.000193294              -0.000687937               0.004519170               0.003831233               0.000000000               0.000000000               0.000000000               0.000000000               0.002208973               0.010500212              -0.000522407              -0.000484161               0.003661423               0.003177262               0.000000000               0.000000000               0.000000000               0.000000000               0.001800589               0.008983358              -0.000646152              -0.000447698               0.003143655               0.002695958               0.000000000               0.000000000               0.000000000               0.000000000               0.001389758               0.007908500              -0.000678786              -0.000467402               0.002791941               0.002324539               0.000000000               0.000000000               0.000000000               0.000000000               0.001017222               0.007068698              -0.000665849              -0.000502128               0.002523585               0.002021457               0.000000000               0.000000000               0.000000000               0.000000000               0.000700939               0.006352328              -0.000636331              -0.000531188               0.002294484               0.001763296               0.000000000               0.000000000               0.000000000               0.000000000               0.000440372               0.005699268              -0.000602283              -0.000547268               0.002082159               0.001534892               0.000000000               0.000000000               0.000000000               0.000000000               0.000231989               0.005077360              -0.000565748              -0.000547673               0.001874994               0.001327321               0.000000000               0.000000000               0.000000000               0.000000000               0.000068763               0.004466362              -0.000532579              -0.000532508               0.001666275               0.001133767               0.000000000               0.000000000               0.000000000               0.000000000              -0.000055556               0.003855947              -0.000496040              -0.000502826               0.001452912               0.000950086               0.000000000               0.000000000               0.000000000               0.000000000              -0.000139683               0.003225521              -0.000447249              -0.000455571               0.001227020               0.000771449               0.000000000               0.000000000               0.000000000               0.000000000              -0.000177103               0.002560028              -0.000382147              -0.000386416               0.000982139               0.000595723               0.000000000               0.000000000               0.000000000               0.000000000              -0.000162646               0.001848525              -0.000291982              -0.000292058               0.000713521               0.000421464               0.000000000               0.000000000               0.000000000               0.000000000              -0.000095523               0.001076298              -0.000165854              -0.000170358               0.000415548               0.000245190               0.000000000               0.000000000               0.000000000               0.000000000              -0.000111254               0.000500204              -0.000104292              -0.000104246               0.000201481               0.000097236               0.000000000               0.000000000               0.000000000               0.000000000               0.002342001               0.020802476               0.002733721              -0.001722056               0.007508108               0.005786052               0.000000000               0.000000000               0.000000000               0.000000000               0.001766293               0.016149791               0.001165965              -0.001356361               0.005835330               0.004478969               0.000000000               0.000000000               0.000000000               0.000000000               0.001845435               0.012530250              -0.000352302              -0.000874241               0.004468122               0.003593881               0.000000000               0.000000000               0.000000000               0.000000000               0.001475107               0.010443773              -0.000935466              -0.000752305               0.003731991               0.002979686               0.000000000               0.000000000               0.000000000               0.000000000               0.001055683               0.009074376              -0.001142618              -0.000738414               0.003270900               0.002532486               0.000000000               0.000000000               0.000000000               0.000000000               0.000686224               0.008068251              -0.001189352              -0.000751196               0.002939789               0.002188593               0.000000000               0.000000000               0.000000000               0.000000000               0.000387668               0.007255415              -0.001160422              -0.000761550               0.002672297               0.001910747               0.000000000               0.000000000               0.000000000               0.000000000               0.000159924               0.006545828              -0.001101477              -0.000758256               0.002434673               0.001676417               0.000000000               0.000000000               0.000000000               0.000000000              -0.000014524               0.005891551              -0.001035818              -0.000741889               0.002211127               0.001469238               0.000000000               0.000000000               0.000000000               0.000000000              -0.000142102               0.005272389              -0.000967527              -0.000712335               0.001994890               0.001282555               0.000000000               0.000000000               0.000000000               0.000000000              -0.000229697               0.004673628              -0.000904122              -0.000670339               0.001781306               0.001110968               0.000000000               0.000000000               0.000000000               0.000000000              -0.000283491               0.004083756              -0.000834403              -0.000616777               0.001566831               0.000950053               0.000000000               0.000000000               0.000000000               0.000000000              -0.000296198               0.003493782              -0.000740035              -0.000547796               0.001347181               0.000799385               0.000000000               0.000000000               0.000000000               0.000000000              -0.000267855               0.002897470              -0.000620696              -0.000462629               0.001120023               0.000657394               0.000000000               0.000000000               0.000000000               0.000000000              -0.000202572               0.002296980              -0.000467252              -0.000363086               0.000886681               0.000523595               0.000000000               0.000000000               0.000000000               0.000000000              -0.000107590               0.001698956              -0.000261290              -0.000252715               0.000650551               0.000397836               0.000000000               0.000000000               0.000000000               0.000000000              -0.000097368               0.001288295              -0.000158703              -0.000197549               0.000495277               0.000297728               0.000000000               0.000000000               0.000000000               0.000000000               0.002405185               0.018642526               0.003570533              -0.001428370               0.006690236               0.005261866               0.000000000               0.000000000               0.000000000               0.000000000               0.001345101               0.014826778               0.001513565              -0.001348932               0.005391853               0.004042922               0.000000000               0.000000000               0.000000000               0.000000000               0.000911507               0.012034760              -0.000449843              -0.001162527               0.004399055               0.003236528               0.000000000               0.000000000               0.000000000               0.000000000               0.000406873               0.010347348              -0.001157737              -0.001140838               0.003829361               0.002688522               0.000000000               0.000000000               0.000000000               0.000000000               0.000011439               0.009169330              -0.001385755              -0.001141874               0.003437037               0.002295163               0.000000000               0.000000000               0.000000000               0.000000000              -0.000268921               0.008249735              -0.001421204              -0.001132060               0.003127237               0.001995177               0.000000000               0.000000000               0.000000000               0.000000000              -0.000450923               0.007465819              -0.001372564              -0.001102321               0.002856022               0.001753700               0.000000000               0.000000000               0.000000000               0.000000000              -0.000552837               0.006762615              -0.001291588              -0.001052639               0.002605062               0.001552423               0.000000000               0.000000000               0.000000000               0.000000000              -0.000603784               0.006113679              -0.001204044              -0.000990627               0.002368081               0.001377454               0.000000000               0.000000000               0.000000000               0.000000000              -0.000615920               0.005504339              -0.001115939              -0.000919011               0.002141098               0.001222087               0.000000000               0.000000000               0.000000000               0.000000000              -0.000590723               0.004928287              -0.001031511              -0.000837555               0.001921931               0.001084375               0.000000000               0.000000000               0.000000000               0.000000000              -0.000537017               0.004373606              -0.000940684              -0.000748081               0.001707214               0.000959133               0.000000000               0.000000000               0.000000000               0.000000000              -0.000454634               0.003847067              -0.000822213              -0.000651370               0.001499466               0.000848096               0.000000000               0.000000000               0.000000000               0.000000000              -0.000346849               0.003352964              -0.000672526              -0.000549188               0.001300706               0.000751518               0.000000000               0.000000000               0.000000000               0.000000000              -0.000227910               0.002900883              -0.000489423              -0.000448076               0.001116310               0.000668234               0.000000000               0.000000000               0.000000000               0.000000000              -0.000112148               0.002515210              -0.000265938              -0.000356456               0.000957214               0.000600758               0.000000000               0.000000000               0.000000000               0.000000000              -0.000075889               0.002294142              -0.000153805              -0.000315225               0.000869782               0.000554556               0.000000000               0.000000000               0.000000000               0.000000000               0.002267258               0.016018266               0.003915970              -0.001152062               0.005723388               0.004571327               0.000000000               0.000000000               0.000000000               0.000000000               0.000718551               0.013258732               0.001667013              -0.001387882               0.004882160               0.003494278               0.000000000               0.000000000               0.000000000               0.000000000              -0.000231440               0.011450281              -0.000441899              -0.001518072               0.004322746               0.002804674               0.000000000               0.000000000               0.000000000               0.000000000              -0.000810323               0.010189080              -0.001140672              -0.001577502               0.003922160               0.002344658               0.000000000               0.000000000               0.000000000               0.000000000              -0.001117840               0.009199453              -0.001338034              -0.001569118               0.003589493               0.002020375               0.000000000               0.000000000               0.000000000               0.000000000              -0.001248439               0.008359638              -0.001351040              -0.001513116               0.003290890               0.001777774               0.000000000               0.000000000               0.000000000               0.000000000              -0.001271537               0.007606898              -0.001288795              -0.001427686               0.003011502               0.001583817               0.000000000               0.000000000               0.000000000               0.000000000              -0.001226307               0.006922638              -0.001199083              -0.001325192               0.002749254               0.001424061               0.000000000               0.000000000               0.000000000               0.000000000              -0.001136437               0.006292903              -0.001106251              -0.001212774               0.002501871               0.001289097               0.000000000               0.000000000               0.000000000               0.000000000              -0.001012711               0.005707665              -0.001016249              -0.001093222               0.002266943               0.001173721               0.000000000               0.000000000               0.000000000               0.000000000              -0.000862492               0.005162434              -0.000927837              -0.000968737               0.002043706               0.001074970               0.000000000               0.000000000               0.000000000               0.000000000              -0.000696873               0.004655089              -0.000832543              -0.000843212               0.001832751               0.000989540               0.000000000               0.000000000               0.000000000               0.000000000              -0.000525287               0.004200402              -0.000711629              -0.000722031               0.001640797               0.000918766               0.000000000               0.000000000               0.000000000               0.000000000              -0.000356987               0.003814400              -0.000557607              -0.000610669               0.001475010               0.000864341               0.000000000               0.000000000               0.000000000               0.000000000              -0.000203836               0.003508307              -0.000382850              -0.000514976               0.001341083               0.000826107               0.000000000               0.000000000               0.000000000               0.000000000              -0.000087188               0.003304085              -0.000197330              -0.000445705               0.001249919               0.000804214               0.000000000               0.000000000               0.000000000               0.000000000              -0.000042429               0.003225730              -0.000104094              -0.000419126               0.001214941               0.000795815               0.000000000               0.000000000               0.000000000               0.000000000               0.001824119               0.013200183               0.003794403              -0.000965979               0.004722009               0.003756030               0.000000000               0.000000000               0.000000000               0.000000000              -0.000091233               0.011608571               0.001668868              -0.001485281               0.004364578               0.002879297               0.000000000               0.000000000               0.000000000               0.000000000              -0.001443221               0.010809431              -0.000293077              -0.001892382               0.004233902               0.002341520               0.000000000               0.000000000               0.000000000               0.000000000              -0.001984169               0.009943938              -0.000888124              -0.001987051               0.003976963               0.001989912               0.000000000               0.000000000               0.000000000               0.000000000              -0.002128248               0.009118526              -0.001036420              -0.001937904               0.003685446               0.001747542               0.000000000               0.000000000               0.000000000               0.000000000              -0.002069280               0.008344443              -0.001034741              -0.001819031               0.003387797               0.001568766               0.000000000               0.000000000               0.000000000               0.000000000              -0.001912579               0.007626320              -0.000978334              -0.001670503               0.003098915               0.001428412               0.000000000               0.000000000               0.000000000               0.000000000              -0.001706052               0.006975553              -0.000902105              -0.001511710               0.002829064               0.001317354               0.000000000               0.000000000               0.000000000               0.000000000              -0.001469997               0.006377767              -0.000822361              -0.001348467               0.002575390               0.001226923               0.000000000               0.000000000               0.000000000               0.000000000              -0.001219770               0.005825164              -0.000743893              -0.001185557               0.002336887               0.001151331               0.000000000               0.000000000               0.000000000               0.000000000              -0.000962046               0.005320011              -0.000660776              -0.001025766               0.002115241               0.001089475               0.000000000               0.000000000               0.000000000               0.000000000              -0.000712506               0.004866390              -0.000572169              -0.000875486               0.001913943               0.001038456               0.000000000               0.000000000               0.000000000               0.000000000              -0.000483237               0.004485156              -0.000469297              -0.000741857               0.001742323               0.001000466               0.000000000               0.000000000               0.000000000               0.000000000              -0.000287166               0.004191303              -0.000341778              -0.000631599               0.001607620               0.000976021               0.000000000               0.000000000               0.000000000               0.000000000              -0.000138089               0.003992786              -0.000207254              -0.000550880               0.001514542               0.000963662               0.000000000               0.000000000               0.000000000               0.000000000              -0.000046105               0.003894072              -0.000092334              -0.000504047               0.001466027               0.000961980               0.000000000               0.000000000               0.000000000               0.000000000              -0.000011947               0.003879019              -0.000040006              -0.000489356               0.001456112               0.000966756               0.000000000               0.000000000               0.000000000               0.000000000               0.001019883               0.010433240               0.003298085              -0.000921699               0.003784944               0.002863245               0.000000000               0.000000000               0.000000000               0.000000000              -0.001034300               0.010004405               0.001576718              -0.001638410               0.003880905               0.002242495               0.000000000               0.000000000               0.000000000               0.000000000              -0.002584271               0.010128693              -0.000005685              -0.002235183               0.004121258               0.001886076               0.000000000               0.000000000               0.000000000               0.000000000              -0.002960744               0.009589475              -0.000457366              -0.002308958               0.003966112               0.001657155               0.000000000               0.000000000               0.000000000               0.000000000              -0.002885694               0.008894977              -0.000569196              -0.002194002               0.003696297               0.001502295               0.000000000               0.000000000               0.000000000               0.000000000              -0.002621940               0.008188613              -0.000575870              -0.002006799               0.003398443               0.001391644               0.000000000               0.000000000               0.000000000               0.000000000              -0.002285174               0.007525539              -0.000549797              -0.001797628               0.003107697               0.001310069               0.000000000               0.000000000               0.000000000               0.000000000              -0.001928438               0.006917841              -0.000505561              -0.001587891               0.002835221               0.001247330               0.000000000               0.000000000               0.000000000               0.000000000              -0.001566381               0.006355422              -0.000451244              -0.001381817               0.002579058               0.001197241               0.000000000               0.000000000               0.000000000               0.000000000              -0.001219790               0.005841004              -0.000394668              -0.001187544               0.002342830               0.001155286               0.000000000               0.000000000               0.000000000               0.000000000              -0.000898536               0.005381500              -0.000331271              -0.001009636               0.002130361               0.001120725               0.000000000               0.000000000               0.000000000               0.000000000              -0.000607309               0.004992073              -0.000268250              -0.000851748               0.001947924               0.001096176               0.000000000               0.000000000               0.000000000               0.000000000              -0.000363392               0.004684046              -0.000204427              -0.000721776               0.001801925               0.001080149               0.000000000               0.000000000               0.000000000               0.000000000              -0.000179093               0.004465547              -0.000130391              -0.000625352               0.001696951               0.001071600               0.000000000               0.000000000               0.000000000               0.000000000              -0.000063154               0.004339593              -0.000062866              -0.000566131               0.001635227               0.001069096               0.000000000               0.000000000               0.000000000               0.000000000              -0.000011206               0.004294392              -0.000021468              -0.000541000               0.001611783               0.001070783               0.000000000               0.000000000               0.000000000               0.000000000               0.000000598               0.004294560              -0.000007953              -0.000536594               0.001610371               0.001073776               0.000000000               0.000000000               0.000000000               0.000000000              -0.000105484               0.007897487               0.002542881              -0.001026742               0.002974716               0.001947974               0.000000000               0.000000000               0.000000000               0.000000000              -0.002056895               0.008546573               0.001439951              -0.001839653               0.003462046               0.001622393               0.000000000               0.000000000               0.000000000               0.000000000              -0.003549867               0.009412081               0.000398066              -0.002507704               0.003973230               0.001465526               0.000000000               0.000000000               0.000000000               0.000000000              -0.003655568               0.009111538               0.000075205              -0.002509774               0.003873740               0.001363966               0.000000000               0.000000000               0.000000000               0.000000000              -0.003328931               0.008532914              -0.000038420              -0.002314957               0.003615929               0.001300971               0.000000000               0.000000000               0.000000000               0.000000000              -0.002867221               0.007911162              -0.000081977              -0.002064098               0.003325060               0.001260962               0.000000000               0.000000000               0.000000000               0.000000000              -0.002372915               0.007316350              -0.000098393              -0.001804382               0.003040220               0.001235837               0.000000000               0.000000000               0.000000000               0.000000000              -0.001894598               0.006752116              -0.000096046              -0.001554485               0.002768844               0.001214359               0.000000000               0.000000000               0.000000000               0.000000000              -0.001444142               0.006230218              -0.000079683              -0.001320327               0.002516828               0.001196500               0.000000000               0.000000000               0.000000000               0.000000000              -0.001038170               0.005761693              -0.000058530              -0.001109523               0.002290386               0.001180863               0.000000000               0.000000000               0.000000000               0.000000000              -0.000689242               0.005354378              -0.000036778              -0.000927761               0.002094028               0.001166268               0.000000000               0.000000000               0.000000000               0.000000000              -0.000401087               0.005029951              -0.000020732              -0.000779149               0.001936350               0.001157201               0.000000000               0.000000000               0.000000000               0.000000000              -0.000187273               0.004793298              -0.000012893              -0.000669388               0.001820879               0.001151491               0.000000000               0.000000000               0.000000000               0.000000000              -0.000050683               0.004649188              -0.000002542              -0.000600153               0.001749765               0.001149612               0.000000000               0.000000000               0.000000000               0.000000000               0.000007970               0.004588004               0.000004299              -0.000570510               0.001719490               0.001148979               0.000000000               0.000000000               0.000000000               0.000000000               0.000013668               0.004588851               0.000001680              -0.000568480               0.001719095               0.001150615               0.000000000               0.000000000               0.000000000               0.000000000               0.000008551               0.004609063               0.000000611              -0.000572925               0.001727314               0.001154389               0.000000000               0.000000000               0.000000000               0.000000000              -0.001417453               0.005782606               0.001646051              -0.001254368               0.002345639               0.001091270               0.000000000               0.000000000               0.000000000               0.000000000              -0.003056801               0.007250161               0.001295053              -0.002052566               0.003100885               0.001048319               0.000000000               0.000000000               0.000000000               0.000000000              -0.004310882               0.008675435               0.000878760              -0.002701004               0.003792117               0.001091114               0.000000000               0.000000000               0.000000000               0.000000000              -0.004134130               0.008621756               0.000636942              -0.002628012               0.003749894               0.001121882               0.000000000               0.000000000               0.000000000               0.000000000              -0.003591301               0.008189247               0.000487243              -0.002370388               0.003519851               0.001149463               0.000000000               0.000000000               0.000000000               0.000000000              -0.002967857               0.007668824               0.000390486              -0.002071544               0.003246764               0.001175220               0.000000000               0.000000000               0.000000000               0.000000000              -0.002351039               0.007146778               0.000326881              -0.001774983               0.002973896               0.001198914               0.000000000               0.000000000               0.000000000               0.000000000              -0.001779111               0.006635359               0.000279692              -0.001496583               0.002710625               0.001214042               0.000000000               0.000000000               0.000000000               0.000000000              -0.001265968               0.006159002               0.000247152              -0.001244610               0.002467850               0.001223240               0.000000000               0.000000000               0.000000000               0.000000000              -0.000821682               0.005727973               0.000222510              -0.001024125               0.002250680               0.001226555               0.000000000               0.000000000               0.000000000               0.000000000              -0.000455787               0.005357500               0.000196810              -0.000840605               0.002066017               0.001225412               0.000000000               0.000000000               0.000000000               0.000000000              -0.000173858               0.005074774               0.000158930              -0.000699542               0.001924755               0.001225213               0.000000000               0.000000000               0.000000000               0.000000000               0.000012140               0.004884939               0.000108636              -0.000606063               0.001830318               0.001224254               0.000000000               0.000000000               0.000000000               0.000000000               0.000098332               0.004782686               0.000062027              -0.000560960               0.001781200               0.001220240               0.000000000               0.000000000               0.000000000               0.000000000               0.000105707               0.004764193               0.000026702              -0.000555883               0.001773343               0.001217460               0.000000000               0.000000000               0.000000000               0.000000000               0.000076679               0.004805385               0.000002906              -0.000571917               0.001792418               0.001220501               0.000000000               0.000000000               0.000000000               0.000000000               0.000057052               0.004841780              -0.000004606              -0.000583827               0.001808519               0.001224693               0.000000000               0.000000000               0.000000000               0.000000000              -0.002930430               0.003844571               0.000717610              -0.001579479               0.001808003               0.000228524               0.000000000               0.000000000               0.000000000               0.000000000              -0.003911844               0.005746345               0.001141178              -0.002185229               0.002643839               0.000458609               0.000000000               0.000000000               0.000000000               0.000000000              -0.004785595               0.007566489               0.001378345              -0.002740403               0.003435605               0.000695202               0.000000000               0.000000000               0.000000000               0.000000000              -0.004454762               0.007895125               0.001225202              -0.002657420               0.003517489               0.000860069               0.000000000               0.000000000               0.000000000               0.000000000              -0.003826504               0.007732594               0.001042130              -0.002401507               0.003378008               0.000976500               0.000000000               0.000000000               0.000000000               0.000000000              -0.003137943               0.007411277               0.000889865              -0.002103133               0.003171445               0.001068312               0.000000000               0.000000000               0.000000000               0.000000000              -0.002473024               0.007041408               0.000767867              -0.001807556               0.002949631               0.001142075               0.000000000               0.000000000               0.000000000               0.000000000              -0.001862916               0.006655647               0.000662992              -0.001530546               0.002728709               0.001198163               0.000000000               0.000000000               0.000000000               0.000000000              -0.001321395               0.006273840               0.000576116              -0.001279750               0.002517842               0.001238092               0.000000000               0.000000000               0.000000000               0.000000000              -0.000852031               0.005899073               0.000506387              -0.001056893               0.002318636               0.001261742               0.000000000               0.000000000               0.000000000               0.000000000              -0.000454176               0.005549189               0.000438472              -0.000863962               0.002137699               0.001273736               0.000000000               0.000000000               0.000000000               0.000000000              -0.000138140               0.005258490               0.000354718              -0.000709112               0.001989183               0.001280071               0.000000000               0.000000000               0.000000000               0.000000000               0.000083952               0.005043927               0.000256405              -0.000599007               0.001880961               0.001281954               0.000000000               0.000000000               0.000000000               0.000000000               0.000207979               0.004917609               0.000159186              -0.000536708               0.001818089               0.001281381               0.000000000               0.000000000               0.000000000               0.000000000               0.000246203               0.004881245               0.000078557              -0.000517828               0.001799675               0.001281847               0.000000000               0.000000000               0.000000000               0.000000000               0.000227323               0.004918091               0.000025633              -0.000529514               0.001815852               0.001286338               0.000000000               0.000000000               0.000000000               0.000000000               0.000191241               0.004940803               0.000000995              -0.000545884               0.001828879               0.001282996               0.000000000               0.000000000               0.000000000               0.000000000              -0.004833559               0.002100446              -0.000166234              -0.002075137               0.001391852              -0.000683285               0.000000000               0.000000000               0.000000000               0.000000000              -0.004876534               0.004227794               0.000934017              -0.002357169               0.002194973              -0.000162197               0.000000000               0.000000000               0.000000000               0.000000000              -0.005188752               0.006244463               0.001780293              -0.002726334               0.002990244               0.000263911               0.000000000               0.000000000               0.000000000               0.000000000              -0.004719698               0.006932943               0.001783230              -0.002636498               0.003189790               0.000553292               0.000000000               0.000000000               0.000000000               0.000000000              -0.004044204               0.007079655               0.001605070              -0.002401528               0.003160370               0.000758843               0.000000000               0.000000000               0.000000000               0.000000000              -0.003335454               0.006994526               0.001411776              -0.002125106               0.003039854               0.000914748               0.000000000               0.000000000               0.000000000               0.000000000              -0.002650924               0.006814154               0.001235508              -0.001845861               0.002886649               0.001040787               0.000000000               0.000000000               0.000000000               0.000000000              -0.002016434               0.006584092               0.001075905              -0.001579171               0.002721065               0.001141895               0.000000000               0.000000000               0.000000000               0.000000000              -0.001443303               0.006325377               0.000938960              -0.001331908               0.002552407               0.001220499               0.000000000               0.000000000               0.000000000               0.000000000              -0.000937355               0.006039077               0.000829163              -0.001106390               0.002381802               0.001275412               0.000000000               0.000000000               0.000000000               0.000000000              -0.000493227               0.005742116               0.000729510              -0.000902723               0.002214927               0.001312204               0.000000000               0.000000000               0.000000000               0.000000000              -0.000112501               0.005465801               0.000615433              -0.000725411               0.002063719               0.001338308               0.000000000               0.000000000               0.000000000               0.000000000               0.000192275               0.005236995               0.000481203              -0.000582520               0.001939821               0.001357301               0.000000000               0.000000000               0.000000000               0.000000000               0.000399924               0.005072165               0.000336685              -0.000484048               0.001852054               0.001368006               0.000000000               0.000000000               0.000000000               0.000000000               0.000503369               0.004981158               0.000201992              -0.000433880               0.001804996               0.001371116               0.000000000               0.000000000               0.000000000               0.000000000               0.000513614               0.004965770               0.000090509              -0.000428115               0.001797945               0.001369830               0.000000000               0.000000000               0.000000000               0.000000000               0.000469069               0.004954942               0.000030789              -0.000443466               0.001799453               0.001355987               0.000000000               0.000000000               0.000000000               0.000000000              -0.006991440               0.000698916              -0.000918793              -0.002709152               0.001136015              -0.001573137               0.000000000               0.000000000               0.000000000               0.000000000              -0.005983573               0.002799797               0.000667870              -0.002593810               0.001797857              -0.000795953               0.000000000               0.000000000               0.000000000               0.000000000              -0.005532776               0.004734597               0.001985625              -0.002666610               0.002467052              -0.000199558               0.000000000               0.000000000               0.000000000               0.000000000              -0.004846153               0.005668684               0.002177059              -0.002525887               0.002731504               0.000205617               0.000000000               0.000000000               0.000000000               0.000000000              -0.004115330               0.006097802               0.002054125              -0.002305469               0.002801069               0.000495601               0.000000000               0.000000000               0.000000000               0.000000000              -0.003397324               0.006263376               0.001857374              -0.002056914               0.002773408               0.000716495               0.000000000               0.000000000               0.000000000               0.000000000              -0.002709583               0.006298090               0.001653555              -0.001803351               0.002700459               0.000897108               0.000000000               0.000000000               0.000000000               0.000000000              -0.002062798               0.006245331               0.001459028              -0.001554212               0.002599826               0.001045614               0.000000000               0.000000000               0.000000000               0.000000000              -0.001468258               0.006129679               0.001288682              -0.001316804               0.002482140               0.001165336               0.000000000               0.000000000               0.000000000               0.000000000              -0.000927580               0.005972912               0.001147529              -0.001094454               0.002355769               0.001261314               0.000000000               0.000000000               0.000000000               0.000000000              -0.000440711               0.005779546               0.001021366              -0.000887708               0.002222399               0.001334691               0.000000000               0.000000000               0.000000000               0.000000000              -0.000005747               0.005562482               0.000887025              -0.000697464               0.002086630               0.001389166               0.000000000               0.000000000               0.000000000               0.000000000               0.000375838               0.005359675               0.000729448              -0.000529019               0.001962880               0.001433861               0.000000000               0.000000000               0.000000000               0.000000000               0.000681043               0.005191234               0.000547506              -0.000393512               0.001861565               0.001468052               0.000000000               0.000000000               0.000000000               0.000000000               0.000887768               0.005076599               0.000361667              -0.000301661               0.001792737               0.001491075               0.000000000               0.000000000               0.000000000               0.000000000               0.000978634               0.005019244               0.000181925              -0.000260417               0.001759870               0.001499453               0.000000000               0.000000000               0.000000000               0.000000000               0.000970396               0.004989179               0.000087057              -0.000259748               0.001749626               0.001489878               0.000000000               0.000000000               0.000000000               0.000000000              -0.009258432              -0.000288482              -0.001424157              -0.003435849               0.001049115              -0.002386734               0.000000000               0.000000000               0.000000000               0.000000000              -0.007166985               0.001538115               0.000385503              -0.002879880               0.001472655              -0.001407225               0.000000000               0.000000000               0.000000000               0.000000000              -0.005841121               0.003165394               0.001963334              -0.002586090               0.001917148              -0.000668943               0.000000000               0.000000000               0.000000000               0.000000000              -0.004856473               0.004213400               0.002316675              -0.002347848               0.002187067              -0.000160781               0.000000000               0.000000000               0.000000000               0.000000000              -0.004036240               0.004865208               0.002273938              -0.002121736               0.002328964               0.000207228               0.000000000               0.000000000               0.000000000               0.000000000              -0.003299835               0.005262128               0.002111236              -0.001895200               0.002385758               0.000490558               0.000000000               0.000000000               0.000000000               0.000000000              -0.002618318               0.005502781               0.001916420              -0.001669713               0.002390812               0.000721099               0.000000000               0.000000000               0.000000000               0.000000000              -0.001973103               0.005638151               0.001718574              -0.001444680               0.002360924               0.000916245               0.000000000               0.000000000               0.000000000               0.000000000              -0.001369687               0.005690140               0.001537775              -0.001224898               0.002304993               0.001080096               0.000000000               0.000000000               0.000000000               0.000000000              -0.000807735               0.005676417               0.001384960              -0.001012451               0.002229603               0.001217152               0.000000000               0.000000000               0.000000000               0.000000000              -0.000283620               0.005606988               0.001246034              -0.000807230               0.002138054               0.001330824               0.000000000               0.000000000               0.000000000               0.000000000               0.000207783               0.005496987               0.001102409              -0.000609204               0.002035378               0.001426175               0.000000000               0.000000000               0.000000000               0.000000000               0.000661115               0.005365223               0.000934211              -0.000422734               0.001929301               0.001506567               0.000000000               0.000000000               0.000000000               0.000000000               0.001067616               0.005232979               0.000733974              -0.000253766               0.001828898               0.001575131               0.000000000               0.000000000               0.000000000               0.000000000               0.001405897               0.005125938               0.000512655              -0.000113531               0.001746473               0.001632942               0.000000000               0.000000000               0.000000000               0.000000000               0.001642581               0.005052184               0.000269452              -0.000015555               0.001689230               0.001673674               0.000000000               0.000000000               0.000000000               0.000000000               0.001739788               0.005027420               0.000144339               0.000023992               0.001667792               0.001691785               0.000000000               0.000000000               0.000000000               0.000000000              -0.011420607              -0.000895422              -0.001581027              -0.004170797               0.001091784              -0.003079013               0.000000000               0.000000000               0.000000000               0.000000000              -0.008330353               0.000514587               0.000144473              -0.003188203               0.001234255              -0.001953948               0.000000000               0.000000000               0.000000000               0.000000000              -0.006119811               0.001705938               0.001704668              -0.002508168               0.001404692              -0.001103476               0.000000000               0.000000000               0.000000000               0.000000000              -0.004787251               0.002740969               0.002143568              -0.002137837               0.001626257              -0.000511580               0.000000000               0.000000000               0.000000000               0.000000000              -0.003838965               0.003529356               0.002177626              -0.001880778               0.001803365              -0.000077413               0.000000000               0.000000000               0.000000000               0.000000000              -0.003069848               0.004108638               0.002066992              -0.001664770               0.001924455               0.000259685               0.000000000               0.000000000               0.000000000               0.000000000              -0.002390201               0.004535391               0.001907591              -0.001463246               0.001999530               0.000536284               0.000000000               0.000000000               0.000000000               0.000000000              -0.001752951               0.004849906               0.001735745              -0.001263592               0.002037816               0.000774224               0.000000000               0.000000000               0.000000000               0.000000000              -0.001148408               0.005058736               0.001571381              -0.001062993               0.002040559               0.000977566               0.000000000               0.000000000               0.000000000               0.000000000              -0.000574879               0.005181574               0.001430755              -0.000863275               0.002014932               0.001151657               0.000000000               0.000000000               0.000000000               0.000000000              -0.000024641               0.005242293               0.001304615              -0.000664526               0.001968922               0.001304396               0.000000000               0.000000000               0.000000000               0.000000000               0.000513345               0.005258106               0.001171796              -0.000464758               0.001907604               0.001442845               0.000000000               0.000000000               0.000000000               0.000000000               0.001039929               0.005229236               0.001014382              -0.000263681               0.001830955               0.001567274               0.000000000               0.000000000               0.000000000               0.000000000               0.001552460               0.005171292               0.000822649              -0.000064239               0.001745160               0.001680920               0.000000000               0.000000000               0.000000000               0.000000000               0.002035961               0.005109634               0.000591962               0.000124779               0.001661601               0.001786381               0.000000000               0.000000000               0.000000000               0.000000000               0.002463972               0.005052647               0.000319175               0.000292406               0.001586730               0.001879136               0.000000000               0.000000000               0.000000000               0.000000000               0.002721155               0.005050747               0.000184884               0.000389086               0.001553870               0.001942956               0.000000000               0.000000000               0.000000000               0.000000000              -0.013217536              -0.001190195              -0.001351232              -0.004807799               0.001205860              -0.003601939               0.000000000               0.000000000               0.000000000               0.000000000              -0.009332287              -0.000214756              -0.000003699              -0.003472760               0.001085994              -0.002386766               0.000000000               0.000000000               0.000000000               0.000000000              -0.006361496               0.000523763               0.001247251              -0.002451029               0.000991590              -0.001459439               0.000000000               0.000000000               0.000000000               0.000000000              -0.004690329               0.001467061               0.001647972              -0.001942253               0.001136430              -0.000805824               0.000000000               0.000000000               0.000000000               0.000000000              -0.003598229               0.002313874               0.001721138              -0.001638567               0.001317471              -0.000321097               0.000000000               0.000000000               0.000000000               0.000000000              -0.002781042               0.003011314               0.001663415              -0.001419302               0.001476861               0.000057559               0.000000000               0.000000000               0.000000000               0.000000000              -0.002094315               0.003575426               0.001556073              -0.001232294               0.001602561               0.000370267               0.000000000               0.000000000               0.000000000               0.000000000              -0.001465863               0.004023072               0.001431452              -0.001052581               0.001691871               0.000639290               0.000000000               0.000000000               0.000000000               0.000000000              -0.000863657               0.004361729               0.001306578              -0.000869086               0.001743590               0.000874504               0.000000000               0.000000000               0.000000000               0.000000000              -0.000280426               0.004613661               0.001196730              -0.000681866               0.001765160               0.001083294               0.000000000               0.000000000               0.000000000               0.000000000               0.000286281               0.004795933               0.001100205              -0.000492136               0.001762673               0.001270538               0.000000000               0.000000000               0.000000000               0.000000000               0.000854383               0.004921248               0.001004881              -0.000294762               0.001738653               0.001443891               0.000000000               0.000000000               0.000000000               0.000000000               0.001441208               0.004996557               0.000889269              -0.000084117               0.001693541               0.001609424               0.000000000               0.000000000               0.000000000               0.000000000               0.002045279               0.005028297               0.000736406               0.000138441               0.001629935               0.001768376               0.000000000               0.000000000               0.000000000               0.000000000               0.002669656               0.005034164               0.000540710               0.000371847               0.001554089               0.001925936               0.000000000               0.000000000               0.000000000               0.000000000               0.003310865               0.005024232               0.000296737               0.000613539               0.001470214               0.002083754               0.000000000               0.000000000               0.000000000               0.000000000               0.003754037               0.005060105               0.000178590               0.000775243               0.001428270               0.002203513               0.000000000               0.000000000               0.000000000               0.000000000              -0.014409904              -0.001291956              -0.000776525              -0.005242216               0.001316744              -0.003925472               0.000000000               0.000000000               0.000000000               0.000000000              -0.010010577              -0.000639071              -0.000040149              -0.003674080               0.001011663              -0.002662417               0.000000000               0.000000000               0.000000000               0.000000000              -0.006532616              -0.000243067               0.000654786              -0.002419346               0.000725421              -0.001693925               0.000000000               0.000000000               0.000000000               0.000000000              -0.004618407               0.000599795               0.000893064              -0.001806875               0.000802218              -0.001004658               0.000000000               0.000000000               0.000000000               0.000000000              -0.003405692               0.001460228               0.000950105              -0.001459661               0.000973289              -0.000486372               0.000000000               0.000000000               0.000000000               0.000000000              -0.002538049               0.002216471               0.000930866              -0.001228825               0.001148424              -0.000080401               0.000000000               0.000000000               0.000000000               0.000000000              -0.001838669               0.002852631               0.000877873              -0.001046078               0.001299560               0.000253482               0.000000000               0.000000000               0.000000000               0.000000000              -0.001219282               0.003381681               0.000811924              -0.000879939               0.001420529               0.000540590               0.000000000               0.000000000               0.000000000               0.000000000              -0.000628690               0.003813404               0.000744972              -0.000712433               0.001508599               0.000796166               0.000000000               0.000000000               0.000000000               0.000000000              -0.000046258               0.004160117               0.000683313              -0.000537360               0.001565812               0.001028452               0.000000000               0.000000000               0.000000000               0.000000000               0.000536563               0.004433082               0.000630427              -0.000352924               0.001595320               0.001242397               0.000000000               0.000000000               0.000000000               0.000000000               0.001127478               0.004639122               0.000585609              -0.000157086               0.001598720               0.001441635               0.000000000               0.000000000               0.000000000               0.000000000               0.001743631               0.004791691               0.000526932               0.000054899               0.001578915               0.001633814               0.000000000               0.000000000               0.000000000               0.000000000               0.002408082               0.004899144               0.000441670               0.000290635               0.001536153               0.001826788               0.000000000               0.000000000               0.000000000               0.000000000               0.003143333               0.004966179               0.000331540               0.000557972               0.001469386               0.002027358               0.000000000               0.000000000               0.000000000               0.000000000               0.003965094               0.004995951               0.000185787               0.000862408               0.001377831               0.002240239               0.000000000               0.000000000               0.000000000               0.000000000               0.004577828               0.005064117               0.000114239               0.001083660               0.001326802               0.002410462               0.000000000               0.000000000               0.000000000               0.000000000              -0.014828438              -0.001314685               0.000000000              -0.005396325               0.001360538              -0.004035787               0.000000000               0.000000000               0.000000000               0.000000000              -0.010249675              -0.000778901              -0.000000000              -0.003746263               0.000989114              -0.002757149               0.000000000               0.000000000               0.000000000               0.000000000              -0.006595319              -0.000508611              -0.000000000              -0.002409667               0.000633681              -0.001775986               0.000000000               0.000000000               0.000000000               0.000000000              -0.004592631               0.000293735               0.000000000              -0.001758952               0.000684224              -0.001074727               0.000000000               0.000000000               0.000000000               0.000000000              -0.003332007               0.001156129               0.000000000              -0.001394017               0.000850043              -0.000543974               0.000000000               0.000000000               0.000000000               0.000000000              -0.002444146               0.001926234              -0.000000000              -0.001157331               0.001027848              -0.000129483               0.000000000               0.000000000               0.000000000               0.000000000              -0.001740637               0.002577196               0.000000000              -0.000974886               0.001184019               0.000209133               0.000000000               0.000000000               0.000000000               0.000000000              -0.001123597               0.003134746               0.000000000              -0.000813190               0.001315968               0.000502778               0.000000000               0.000000000               0.000000000               0.000000000              -0.000538606               0.003607076               0.000000000              -0.000652860               0.001419967               0.000767107               0.000000000               0.000000000               0.000000000               0.000000000               0.000040675               0.003989067              -0.000000000              -0.000483379               0.001490802               0.001007423               0.000000000               0.000000000               0.000000000               0.000000000               0.000630850               0.004293000               0.000000000              -0.000300056               0.001531004               0.001230948               0.000000000               0.000000000               0.000000000               0.000000000               0.001230597               0.004530925              -0.000000000              -0.000104891               0.001545257               0.001440366               0.000000000               0.000000000               0.000000000               0.000000000               0.001853229               0.004715102               0.000000000               0.000105572               0.001536494               0.001642066               0.000000000               0.000000000               0.000000000               0.000000000               0.002541637               0.004856394              -0.000000000               0.000346061               0.001503428               0.001849489               0.000000000               0.000000000               0.000000000               0.000000000               0.003322228               0.004948861              -0.000000000               0.000627222               0.001440530               0.002067751               0.000000000               0.000000000               0.000000000               0.000000000               0.004217431               0.004988698               0.000000000               0.000957940               0.001343569               0.002301509               0.000000000               0.000000000               0.000000000               0.000000000               0.004903290               0.005067184               0.000000000               0.001205324               0.001287270               0.002492594               0.000000000               0.000000000               0.000000000               0.000000000               0.002169991               0.022739868               0.000000000              -0.002028732               0.008256124               0.006227392               0.000000000               0.000000000               0.000000000               0.000000000               0.002074937               0.017353188               0.000000000              -0.001391044               0.006248019               0.004856976               0.000000000               0.000000000               0.000000000               0.000000000               0.002669184               0.012990619              -0.000000000              -0.000622882               0.004537790               0.003914908               0.000000000               0.000000000               0.000000000               0.000000000               0.002473993               0.010520400              -0.000000000              -0.000387302               0.003635865               0.003248564               0.000000000               0.000000000               0.000000000               0.000000000               0.002072762               0.008947611               0.000000000              -0.000341165               0.003096229               0.002755064               0.000000000               0.000000000               0.000000000               0.000000000               0.001648429               0.007847428               0.000000000              -0.000362767               0.002736706               0.002373939               0.000000000               0.000000000               0.000000000               0.000000000               0.001251433               0.006994281              -0.000000000              -0.000404997               0.002466403               0.002061406               0.000000000               0.000000000               0.000000000               0.000000000               0.000903372               0.006270962               0.000000000              -0.000445105               0.002238668               0.001793563               0.000000000               0.000000000               0.000000000               0.000000000               0.000611173               0.005619295               0.000000000              -0.000473221               0.002030820               0.001557599               0.000000000               0.000000000               0.000000000               0.000000000               0.000373144               0.004997323               0.000000000              -0.000484735               0.001827336               0.001342601               0.000000000               0.000000000               0.000000000               0.000000000               0.000183891               0.004383297               0.000000000              -0.000478952               0.001620735               0.001141783               0.000000000               0.000000000               0.000000000               0.000000000               0.000032554               0.003763095              -0.000000000              -0.000458178               0.001407078               0.000948901               0.000000000               0.000000000               0.000000000               0.000000000              -0.000079678               0.003118659              -0.000000000              -0.000419711               0.001179446               0.000759735               0.000000000               0.000000000               0.000000000               0.000000000              -0.000137095               0.002433002              -0.000000000              -0.000355535               0.000929504               0.000573969               0.000000000               0.000000000               0.000000000               0.000000000              -0.000139940               0.001681833               0.000000000              -0.000262706               0.000648174               0.000385468               0.000000000               0.000000000               0.000000000               0.000000000              -0.000086026               0.000837884               0.000000000              -0.000136995               0.000324957               0.000187962               0.000000000               0.000000000               0.000000000               0.000000000              -0.000112354               0.000193306              -0.000000000              -0.000066296               0.000086533               0.000020237               0.000000000               0.000000000               0.000000000               0.000000000               0.002223932               0.022236037              -0.001481997              -0.001945526               0.008060446               0.006114921               0.000000000               0.000000000               0.000000000               0.000000000               0.002000397               0.017039891              -0.000634347              -0.001379834               0.006139851               0.004760017               0.000000000               0.000000000               0.000000000               0.000000000               0.002455399               0.012869702               0.000193294              -0.000687937               0.004519170               0.003831233               0.000000000               0.000000000               0.000000000               0.000000000               0.002208973               0.010500212               0.000522407              -0.000484161               0.003661423               0.003177262               0.000000000               0.000000000               0.000000000               0.000000000               0.001800589               0.008983358               0.000646152              -0.000447698               0.003143655               0.002695958               0.000000000               0.000000000               0.000000000               0.000000000               0.001389758               0.007908500               0.000678786              -0.000467402               0.002791941               0.002324539               0.000000000               0.000000000               0.000000000               0.000000000               0.001017222               0.007068698               0.000665849              -0.000502128               0.002523585               0.002021457               0.000000000               0.000000000               0.000000000               0.000000000               0.000700939               0.006352328               0.000636331              -0.000531188               0.002294484               0.001763296               0.000000000               0.000000000               0.000000000               0.000000000               0.000440372               0.005699268               0.000602283              -0.000547268               0.002082159               0.001534892               0.000000000               0.000000000               0.000000000               0.000000000               0.000231989               0.005077360               0.000565748              -0.000547673               0.001874994               0.001327321               0.000000000               0.000000000               0.000000000               0.000000000               0.000068763               0.004466362               0.000532579              -0.000532508               0.001666275               0.001133767               0.000000000               0.000000000               0.000000000               0.000000000              -0.000055556               0.003855947               0.000496040              -0.000502826               0.001452912               0.000950086               0.000000000               0.000000000               0.000000000               0.000000000              -0.000139683               0.003225521               0.000447249              -0.000455571               0.001227020               0.000771449               0.000000000               0.000000000               0.000000000               0.000000000              -0.000177103               0.002560028               0.000382147              -0.000386416               0.000982139               0.000595723               0.000000000               0.000000000               0.000000000               0.000000000              -0.000162646               0.001848525               0.000291982              -0.000292058               0.000713521               0.000421464               0.000000000               0.000000000               0.000000000               0.000000000              -0.000095523               0.001076298               0.000165854              -0.000170358               0.000415548               0.000245190               0.000000000               0.000000000               0.000000000               0.000000000              -0.000111254               0.000500204               0.000104292              -0.000104246               0.000201481               0.000097236               0.000000000               0.000000000               0.000000000               0.000000000               0.002342001               0.020802476              -0.002733721              -0.001722056               0.007508108               0.005786052               0.000000000               0.000000000               0.000000000               0.000000000               0.001766293               0.016149791              -0.001165965              -0.001356361               0.005835330               0.004478969               0.000000000               0.000000000               0.000000000               0.000000000               0.001845435               0.012530250               0.000352302              -0.000874241               0.004468122               0.003593881               0.000000000               0.000000000               0.000000000               0.000000000               0.001475107               0.010443773               0.000935466              -0.000752305               0.003731991               0.002979686               0.000000000               0.000000000               0.000000000               0.000000000               0.001055683               0.009074376               0.001142618              -0.000738414               0.003270900               0.002532486               0.000000000               0.000000000               0.000000000               0.000000000               0.000686224               0.008068251               0.001189352              -0.000751196               0.002939789               0.002188593               0.000000000               0.000000000               0.000000000               0.000000000               0.000387668               0.007255415               0.001160422              -0.000761550               0.002672297               0.001910747               0.000000000               0.000000000               0.000000000               0.000000000               0.000159924               0.006545828               0.001101477              -0.000758256               0.002434673               0.001676417               0.000000000               0.000000000               0.000000000               0.000000000              -0.000014524               0.005891551               0.001035818              -0.000741889               0.002211127               0.001469238               0.000000000               0.000000000               0.000000000               0.000000000              -0.000142102               0.005272389               0.000967527              -0.000712335               0.001994890               0.001282555               0.000000000               0.000000000               0.000000000               0.000000000              -0.000229697               0.004673628               0.000904122              -0.000670339               0.001781306               0.001110968               0.000000000               0.000000000               0.000000000               0.000000000              -0.000283491               0.004083756               0.000834403              -0.000616777               0.001566831               0.000950053               0.000000000               0.000000000               0.000000000               0.000000000              -0.000296198               0.003493782               0.000740035              -0.000547796               0.001347181               0.000799385               0.000000000               0.000000000               0.000000000               0.000000000              -0.000267855               0.002897470               0.000620696              -0.000462629               0.001120023               0.000657394               0.000000000               0.000000000               0.000000000               0.000000000              -0.000202572               0.002296980               0.000467252              -0.000363086               0.000886681               0.000523595               0.000000000               0.000000000               0.000000000               0.000000000              -0.000107590               0.001698956               0.000261290              -0.000252715               0.000650551               0.000397836               0.000000000               0.000000000               0.000000000               0.000000000              -0.000097368               0.001288295               0.000158703              -0.000197549               0.000495277               0.000297728               0.000000000               0.000000000               0.000000000               0.000000000               0.002405185               0.018642526              -0.003570533              -0.001428370               0.006690236               0.005261866               0.000000000               0.000000000               0.000000000               0.000000000               0.001345101               0.014826778              -0.001513565              -0.001348932               0.005391853               0.004042922               0.000000000               0.000000000               0.000000000               0.000000000               0.000911507               0.012034760               0.000449843              -0.001162527               0.004399055               0.003236528               0.000000000               0.000000000               0.000000000               0.000000000               0.000406873               0.010347348               0.001157737              -0.001140838               0.003829361               0.002688522               0.000000000               0.000000000               0.000000000               0.000000000               0.000011439               0.009169330               0.001385755              -0.001141874               0.003437037               0.002295163               0.000000000               0.000000000               0.000000000               0.000000000              -0.000268921               0.008249735               0.001421204              -0.001132060               0.003127237               0.001995177               0.000000000               0.000000000               0.000000000               0.000000000              -0.000450923               0.007465819               0.001372564              -0.001102321               0.002856022               0.001753700               0.000000000               0.000000000               0.000000000               0.000000000              -0.000552837               0.006762615               0.001291588              -0.001052639               0.002605062               0.001552423               0.000000000               0.000000000               0.000000000               0.000000000              -0.000603784               0.006113679               0.001204044              -0.000990627               0.002368081               0.001377454               0.000000000               0.000000000               0.000000000               0.000000000              -0.000615920               0.005504339               0.001115939              -0.000919011               0.002141098               0.001222087               0.000000000               0.000000000               0.000000000               0.000000000              -0.000590723               0.004928287               0.001031511              -0.000837555               0.001921931               0.001084375               0.000000000               0.000000000               0.000000000               0.000000000              -0.000537017               0.004373606               0.000940684              -0.000748081               0.001707214               0.000959133               0.000000000               0.000000000               0.000000000               0.000000000              -0.000454634               0.003847067               0.000822213              -0.000651370               0.001499466               0.000848096               0.000000000               0.000000000               0.000000000               0.000000000              -0.000346849               0.003352964               0.000672526              -0.000549188               0.001300706               0.000751518               0.000000000               0.000000000               0.000000000               0.000000000              -0.000227910               0.002900883               0.000489423              -0.000448076               0.001116310               0.000668234               0.000000000               0.000000000               0.000000000               0.000000000              -0.000112148               0.002515210               0.000265938              -0.000356456               0.000957214               0.000600758               0.000000000               0.000000000               0.000000000               0.000000000              -0.000075889               0.002294142               0.000153805              -0.000315225               0.000869782               0.000554556               0.000000000               0.000000000               0.000000000               0.000000000               0.002267258               0.016018266              -0.003915970              -0.001152062               0.005723388               0.004571327               0.000000000               0.000000000               0.000000000               0.000000000               0.000718551               0.013258732              -0.001667013              -0.001387882               0.004882160               0.003494278               0.000000000               0.000000000               0.000000000               0.000000000              -0.000231440               0.011450281               0.000441899              -0.001518072               0.004322746               0.002804674               0.000000000               0.000000000               0.000000000               0.000000000              -0.000810323               0.010189080               0.001140672              -0.001577502               0.003922160               0.002344658               0.000000000               0.000000000               0.000000000               0.000000000              -0.001117840               0.009199453               0.001338034              -0.001569118               0.003589493               0.002020375               0.000000000               0.000000000               0.000000000               0.000000000              -0.001248439               0.008359638               0.001351040              -0.001513116               0.003290890               0.001777774               0.000000000               0.000000000               0.000000000               0.000000000              -0.001271537               0.007606898               0.001288795              -0.001427686               0.003011502               0.001583817               0.000000000               0.000000000               0.000000000               0.000000000              -0.001226307               0.006922638               0.001199083              -0.001325192               0.002749254               0.001424061               0.000000000               0.000000000               0.000000000               0.000000000              -0.001136437               0.006292903               0.001106251              -0.001212774               0.002501871               0.001289097               0.000000000               0.000000000               0.000000000               0.000000000              -0.001012711               0.005707665               0.001016249              -0.001093222               0.002266943               0.001173721               0.000000000               0.000000000               0.000000000               0.000000000              -0.000862492               0.005162434               0.000927837              -0.000968737               0.002043706               0.001074970               0.000000000               0.000000000               0.000000000               0.000000000              -0.000696873               0.004655089               0.000832543              -0.000843212               0.001832751               0.000989540               0.000000000               0.000000000               0.000000000               0.000000000              -0.000525287               0.004200402               0.000711629              -0.000722031               0.001640797               0.000918766               0.000000000               0.000000000               0.000000000               0.000000000              -0.000356987               0.003814400               0.000557607              -0.000610669               0.001475010               0.000864341               0.000000000               0.000000000               0.000000000               0.000000000              -0.000203836               0.003508307               0.000382850              -0.000514976               0.001341083               0.000826107               0.000000000               0.000000000               0.000000000               0.000000000              -0.000087188               0.003304085               0.000197330              -0.000445705               0.001249919               0.000804214               0.000000000               0.000000000               0.000000000               0.000000000              -0.000042429               0.003225730               0.000104094              -0.000419126               0.001214941               0.000795815               0.000000000               0.000000000               0.000000000               0.000000000               0.001824119               0.013200183              -0.003794403              -0.000965979               0.004722009               0.003756030               0.000000000               0.000000000               0.000000000               0.000000000              -0.000091233               0.011608571              -0.001668868              -0.001485281               0.004364578               0.002879297               0.000000000               0.000000000               0.000000000               0.000000000              -0.001443221               0.010809431               0.000293077              -0.001892382               0.004233902               0.002341520               0.000000000               0.000000000               0.000000000               0.000000000              -0.001984169               0.009943938               0.000888124              -0.001987051               0.003976963               0.001989912               0.000000000               0.000000000               0.000000000               0.000000000              -0.002128248               0.009118526               0.001036420              -0.001937904               0.003685446               0.001747542               0.000000000               0.000000000               0.000000000               0.000000000              -0.002069280               0.008344443               0.001034741              -0.001819031               0.003387797               0.001568766               0.000000000               0.000000000               0.000000000               0.000000000              -0.001912579               0.007626320               0.000978334              -0.001670503               0.003098915               0.001428412               0.000000000               0.000000000               0.000000000               0.000000000              -0.001706052               0.006975553               0.000902105              -0.001511710               0.002829064               0.001317354               0.000000000               0.000000000               0.000000000               0.000000000              -0.001469997               0.006377767               0.000822361              -0.001348467               0.002575390               0.001226923               0.000000000               0.000000000               0.000000000               0.000000000              -0.001219770               0.005825164               0.000743893              -0.001185557               0.002336887               0.001151331               0.000000000               0.000000000               0.000000000               0.000000000              -0.000962046               0.005320011               0.000660776              -0.001025766               0.002115241               0.001089475               0.000000000               0.000000000               0.000000000               0.000000000              -0.000712506               0.004866390               0.000572169              -0.000875486               0.001913943               0.001038456               0.000000000               0.000000000               0.000000000               0.000000000              -0.000483237               0.004485156               0.000469297              -0.000741857               0.001742323               0.001000466               0.000000000               0.000000000               0.000000000               0.000000000              -0.000287166               0.004191303               0.000341778              -0.000631599               0.001607620               0.000976021               0.000000000               0.000000000               0.000000000               0.000000000              -0.000138089               0.003992786               0.000207254              -0.000550880               0.001514542               0.000963662               0.000000000               0.000000000               0.000000000               0.000000000              -0.000046105               0.003894072               0.000092334              -0.000504047               0.001466027               0.000961980               0.000000000               0.000000000               0.000000000               0.000000000              -0.000011947               0.003879019               0.000040006              -0.000489356               0.001456112               0.000966756               0.000000000               0.000000000               0.000000000               0.000000000               0.001019883               0.010433240              -0.003298085              -0.000921699               0.003784944               0.002863245               0.000000000               0.000000000               0.000000000               0.000000000              -0.001034300               0.010004405              -0.001576718              -0.001638410               0.003880905               0.002242495               0.000000000               0.000000000               0.000000000               0.000000000              -0.002584271               0.010128693               0.000005685              -0.002235183               0.004121258               0.001886076               0.000000000               0.000000000               0.000000000               0.000000000              -0.002960744               0.009589475               0.000457366              -0.002308958               0.003966112               0.001657155               0.000000000               0.000000000               0.000000000               0.000000000              -0.002885694               0.008894977               0.000569196              -0.002194002               0.003696297               0.001502295               0.000000000               0.000000000               0.000000000               0.000000000              -0.002621940               0.008188613               0.000575870              -0.002006799               0.003398443               0.001391644               0.000000000               0.000000000               0.000000000               0.000000000              -0.002285174               0.007525539               0.000549797              -0.001797628               0.003107697               0.001310069               0.000000000               0.000000000               0.000000000               0.000000000              -0.001928438               0.006917841               0.000505561              -0.001587891               0.002835221               0.001247330               0.000000000               0.000000000               0.000000000               0.000000000              -0.001566381               0.006355422               0.000451244              -0.001381817               0.002579058               0.001197241               0.000000000               0.000000000               0.000000000               0.000000000              -0.001219790               0.005841004               0.000394668              -0.001187544               0.002342830               0.001155286               0.000000000               0.000000000               0.000000000               0.000000000              -0.000898536               0.005381500               0.000331271              -0.001009636               0.002130361               0.001120725               0.000000000               0.000000000               0.000000000               0.000000000              -0.000607309               0.004992073               0.000268250              -0.000851748               0.001947924               0.001096176               0.000000000               0.000000000               0.000000000               0.000000000              -0.000363392               0.004684046               0.000204427              -0.000721776               0.001801925               0.001080149               0.000000000               0.000000000               0.000000000               0.000000000              -0.000179093               0.004465547               0.000130391              -0.000625352               0.001696951               0.001071600               0.000000000               0.000000000               0.000000000               0.000000000              -0.000063154               0.004339593               0.000062866              -0.000566131               0.001635227               0.001069096               0.000000000               0.000000000               0.000000000               0.000000000              -0.000011206               0.004294392               0.000021468              -0.000541000               0.001611783               0.001070783               0.000000000               0.000000000               0.000000000               0.000000000               0.000000598               0.004294560               0.000007953              -0.000536594               0.001610371               0.001073776               0.000000000               0.000000000               0.000000000               0.000000000              -0.000105484               0.007897487              -0.002542881              -0.001026742               0.002974716               0.001947974               0.000000000               0.000000000               0.000000000               0.000000000              -0.002056895               0.008546573              -0.001439951              -0.001839653               0.003462046               0.001622393               0.000000000               0.000000000               0.000000000               0.000000000              -0.003549867               0.009412081              -0.000398066              -0.002507704               0.003973230               0.001465526               0.000000000               0.000000000               0.000000000               0.000000000              -0.003655568               0.009111538              -0.000075205              -0.002509774               0.003873740               0.001363966               0.000000000               0.000000000               0.000000000               0.000000000              -0.003328931               0.008532914               0.000038420              -0.002314957               0.003615929               0.001300971               0.000000000               0.000000000               0.000000000               0.000000000              -0.002867221               0.007911162               0.000081977              -0.002064098               0.003325060               0.001260962               0.000000000               0.000000000               0.000000000               0.000000000              -0.002372915               0.007316350               0.000098393              -0.001804382               0.003040220               0.001235837               0.000000000               0.000000000               0.000000000               0.000000000              -0.001894598               0.006752116               0.000096046              -0.001554485               0.002768844               0.001214359               0.000000000               0.000000000               0.000000000               0.000000000              -0.001444142               0.006230218               0.000079683              -0.001320327               0.002516828               0.001196500               0.000000000               0.000000000               0.000000000               0.000000000              -0.001038170               0.005761693               0.000058530              -0.001109523               0.002290386               0.001180863               0.000000000               0.000000000               0.000000000               0.000000000              -0.000689242               0.005354378               0.000036778              -0.000927761               0.002094028               0.001166268               0.000000000               0.000000000               0.000000000               0.000000000              -0.000401087               0.005029951               0.000020732              -0.000779149               0.001936350               0.001157201               0.000000000               0.000000000               0.000000000               0.000000000              -0.000187273               0.004793298               0.000012893              -0.000669388               0.001820879               0.001151491               0.000000000               0.000000000               0.000000000               0.000000000              -0.000050683               0.004649188               0.000002542              -0.000600153               0.001749765               0.001149612               0.000000000               0.000000000               0.000000000               0.000000000               0.000007970               0.004588004              -0.000004299              -0.000570510               0.001719490               0.001148979               0.000000000               0.000000000               0.000000000               0.000000000               0.000013668               0.004588851              -0.000001680              -0.000568480               0.001719095               0.001150615               0.000000000               0.000000000               0.000000000               0.000000000               0.000008551               0.004609063              -0.000000611              -0.000572925               0.001727314               0.001154389               0.000000000               0.000000000               0.000000000               0.000000000              -0.001417453               0.005782606              -0.001646051              -0.001254368               0.002345639               0.001091270               0.000000000               0.000000000               0.000000000               0.000000000              -0.003056801               0.007250161              -0.001295053              -0.002052566               0.003100885               0.001048319               0.000000000               0.000000000               0.000000000               0.000000000              -0.004310882               0.008675435              -0.000878760              -0.002701004               0.003792117               0.001091114               0.000000000               0.000000000               0.000000000               0.000000000              -0.004134130               0.008621756              -0.000636942              -0.002628012               0.003749894               0.001121882               0.000000000               0.000000000               0.000000000               0.000000000              -0.003591301               0.008189247              -0.000487243              -0.002370388               0.003519851               0.001149463               0.000000000               0.000000000               0.000000000               0.000000000              -0.002967857               0.007668824              -0.000390486              -0.002071544               0.003246764               0.001175220               0.000000000               0.000000000               0.000000000               0.000000000              -0.002351039               0.007146778              -0.000326881              -0.001774983               0.002973896               0.001198914               0.000000000               0.000000000               0.000000000               0.000000000              -0.001779111               0.006635359              -0.000279692              -0.001496583               0.002710625               0.001214042               0.000000000               0.000000000               0.000000000               0.000000000              -0.001265968               0.006159002              -0.000247152              -0.001244610               0.002467850               0.001223240               0.000000000               0.000000000               0.000000000               0.000000000              -0.000821682               0.005727973              -0.000222510              -0.001024125               0.002250680               0.001226555               0.000000000               0.000000000               0.000000000               0.000000000              -0.000455787               0.005357500              -0.000196810              -0.000840605               0.002066017               0.001225412               0.000000000               0.000000000               0.000000000               0.000000000              -0.000173858               0.005074774              -0.000158930              -0.000699542               0.001924755               0.001225213               0.000000000               0.000000000               0.000000000               0.000000000               0.000012140               0.004884939              -0.000108636              -0.000606063               0.001830318               0.001224254               0.000000000               0.000000000               0.000000000               0.000000000               0.000098332               0.004782686              -0.000062027              -0.000560960               0.001781200               0.001220240               0.000000000               0.000000000               0.000000000               0.000000000               0.000105707               0.004764193              -0.000026702              -0.000555883               0.001773343               0.001217460               0.000000000               0.000000000               0.000000000               0.000000000               0.000076679               0.004805385              -0.000002906              -0.000571917               0.001792418               0.001220501               0.000000000               0.000000000               0.000000000               0.000000000               0.000057052               0.004841780               0.000004606              -0.000583827               0.001808519               0.001224693               0.000000000               0.000000000               0.000000000               0.000000000              -0.002930430               0.003844571              -0.000717610              -0.001579479               0.001808003               0.000228524               0.000000000               0.000000000               0.000000000               0.000000000              -0.003911844               0.005746345              -0.001141178              -0.002185229               0.002643839               0.000458609               0.000000000               0.000000000               0.000000000               0.000000000              -0.004785595               0.007566489              -0.001378345              -0.002740403               0.003435605               0.000695202               0.000000000               0.000000000               0.000000000               0.000000000              -0.004454762               0.007895125              -0.001225202              -0.002657420               0.003517489               0.000860069               0.000000000               0.000000000               0.000000000               0.000000000              -0.003826504               0.007732594              -0.001042130              -0.002401507               0.003378008               0.000976500               0.000000000               0.000000000               0.000000000               0.000000000              -0.003137943               0.007411277              -0.000889865              -0.002103133               0.003171445               0.001068312               0.000000000               0.000000000               0.000000000               0.000000000              -0.002473024               0.007041408              -0.000767867              -0.001807556               0.002949631               0.001142075               0.000000000               0.000000000               0.000000000               0.000000000              -0.001862916               0.006655647              -0.000662992              -0.001530546               0.002728709               0.001198163               0.000000000               0.000000000               0.000000000               0.000000000              -0.001321395               0.006273840              -0.000576116              -0.001279750               0.002517842               0.001238092               0.000000000               0.000000000               0.000000000               0.000000000              -0.000852031               0.005899073              -0.000506387              -0.001056893               0.002318636               0.001261742               0.000000000               0.000000000               0.000000000               0.000000000              -0.000454176               0.005549189              -0.000438472              -0.000863962               0.002137699               0.001273736               0.000000000               0.000000000               0.000000000               0.000000000              -0.000138140               0.005258490              -0.000354718              -0.000709112               0.001989183               0.001280071               0.000000000               0.000000000               0.000000000               0.000000000               0.000083952               0.005043927              -0.000256405              -0.000599007               0.001880961               0.001281954               0.000000000               0.000000000               0.000000000               0.000000000               0.000207979               0.004917609              -0.000159186              -0.000536708               0.001818089               0.001281381               0.000000000               0.000000000               0.000000000               0.000000000               0.000246203               0.004881245              -0.000078557              -0.000517828               0.001799675               0.001281847               0.000000000               0.000000000               0.000000000               0.000000000               0.000227323               0.004918091              -0.000025633              -0.000529514               0.001815852               0.001286338               0.000000000               0.000000000               0.000000000               0.000000000               0.000191241               0.004940803              -0.000000995              -0.000545884               0.001828879               0.001282996               0.000000000               0.000000000               0.000000000               0.000000000              -0.004833559               0.002100446               0.000166234              -0.002075137               0.001391852              -0.000683285               0.000000000               0.000000000               0.000000000               0.000000000              -0.004876534               0.004227794              -0.000934017              -0.002357169               0.002194973              -0.000162197               0.000000000               0.000000000               0.000000000               0.000000000              -0.005188752               0.006244463              -0.001780293              -0.002726334               0.002990244               0.000263911               0.000000000               0.000000000               0.000000000               0.000000000              -0.004719698               0.006932943              -0.001783230              -0.002636498               0.003189790               0.000553292               0.000000000               0.000000000               0.000000000               0.000000000              -0.004044204               0.007079655              -0.001605070              -0.002401528               0.003160370               0.000758843               0.000000000               0.000000000               0.000000000               0.000000000              -0.003335454               0.006994526              -0.001411776              -0.002125106               0.003039854               0.000914748               0.000000000               0.000000000               0.000000000               0.000000000              -0.002650924               0.006814154              -0.001235508              -0.001845861               0.002886649               0.001040787               0.000000000               0.000000000               0.000000000               0.000000000              -0.002016434               0.006584092              -0.001075905              -0.001579171               0.002721065               0.001141895               0.000000000               0.000000000               0.000000000               0.000000000              -0.001443303               0.006325377              -0.000938960              -0.001331908               0.002552407               0.001220499               0.000000000               0.000000000               0.000000000               0.000000000              -0.000937355               0.006039077              -0.000829163              -0.001106390               0.002381802               0.001275412               0.000000000               0.000000000               0.000000000               0.000000000              -0.000493227               0.005742116              -0.000729510              -0.000902723               0.002214927               0.001312204               0.000000000               0.000000000               0.000000000               0.000000000              -0.000112501               0.005465801              -0.000615433              -0.000725411               0.002063719               0.001338308               0.000000000               0.000000000               0.000000000               0.000000000               0.000192275               0.005236995              -0.000481203              -0.000582520               0.001939821               0.001357301               0.000000000               0.000000000               0.000000000               0.000000000               0.000399924               0.005072165              -0.000336685              -0.000484048               0.001852054               0.001368006               0.000000000               0.000000000               0.000000000               0.000000000               0.000503369               0.004981158              -0.000201992              -0.000433880               0.001804996               0.001371116               0.000000000               0.000000000               0.000000000               0.000000000               0.000513614               0.004965770              -0.000090509              -0.000428115               0.001797945               0.001369830               0.000000000               0.000000000               0.000000000               0.000000000               0.000469069               0.004954942              -0.000030789              -0.000443466               0.001799453               0.001355987               0.000000000               0.000000000               0.000000000               0.000000000              -0.006991440               0.000698916               0.000918793              -0.002709152               0.001136015              -0.001573137               0.000000000               0.000000000               0.000000000               0.000000000              -0.005983573               0.002799797              -0.000667870              -0.002593810               0.001797857              -0.000795953               0.000000000               0.000000000               0.000000000               0.000000000              -0.005532776               0.004734597              -0.001985625              -0.002666610               0.002467052              -0.000199558               0.000000000               0.000000000               0.000000000               0.000000000              -0.004846153               0.005668684              -0.002177059              -0.002525887               0.002731504               0.000205617               0.000000000               0.000000000               0.000000000               0.000000000              -0.004115330               0.006097802              -0.002054125              -0.002305469               0.002801069               0.000495601               0.000000000               0.000000000               0.000000000               0.000000000              -0.003397324               0.006263376              -0.001857374              -0.002056914               0.002773408               0.000716495               0.000000000               0.000000000               0.000000000               0.000000000              -0.002709583               0.006298090              -0.001653555              -0.001803351               0.002700459               0.000897108               0.000000000               0.000000000               0.000000000               0.000000000              -0.002062798               0.006245331              -0.001459028              -0.001554212               0.002599826               0.001045614               0.000000000               0.000000000               0.000000000               0.000000000              -0.001468258               0.006129679              -0.001288682              -0.001316804               0.002482140               0.001165336               0.000000000               0.000000000               0.000000000               0.000000000              -0.000927580               0.005972912              -0.001147529              -0.001094454               0.002355769               0.001261314               0.000000000               0.000000000               0.000000000               0.000000000              -0.000440711               0.005779546              -0.001021366              -0.000887708               0.002222399               0.001334691               0.000000000               0.000000000               0.000000000               0.000000000              -0.000005747               0.005562482              -0.000887025              -0.000697464               0.002086630               0.001389166               0.000000000               0.000000000               0.000000000               0.000000000               0.000375838               0.005359675              -0.000729448              -0.000529019               0.001962880               0.001433861               0.000000000               0.000000000               0.000000000               0.000000000               0.000681043               0.005191234              -0.000547506              -0.000393512               0.001861565               0.001468052               0.000000000               0.000000000               0.000000000               0.000000000               0.000887768               0.005076599              -0.000361667              -0.000301661               0.001792737               0.001491075               0.000000000               0.000000000               0.000000000               0.000000000               0.000978634               0.005019244              -0.000181925              -0.000260417               0.001759870               0.001499453               0.000000000               0.000000000               0.000000000               0.000000000               0.000970396               0.004989179              -0.000087057              -0.000259748               0.001749626               0.001489878               0.000000000               0.000000000               0.000000000               0.000000000              -0.009258432              -0.000288482               0.001424157              -0.003435849               0.001049115              -0.002386734               0.000000000               0.000000000               0.000000000               0.000000000              -0.007166985               0.001538115              -0.000385503              -0.002879880               0.001472655              -0.001407225               0.000000000               0.000000000               0.000000000               0.000000000              -0.005841121               0.003165394              -0.001963334              -0.002586090               0.001917148              -0.000668943               0.000000000               0.000000000               0.000000000               0.000000000              -0.004856473               0.004213400              -0.002316675              -0.002347848               0.002187067              -0.000160781               0.000000000               0.000000000               0.000000000               0.000000000              -0.004036240               0.004865208              -0.002273938              -0.002121736               0.002328964               0.000207228               0.000000000               0.000000000               0.000000000               0.000000000              -0.003299835               0.005262128              -0.002111236              -0.001895200               0.002385758               0.000490558               0.000000000               0.000000000               0.000000000               0.000000000              -0.002618318               0.005502781              -0.001916420              -0.001669713               0.002390812               0.000721099               0.000000000               0.000000000               0.000000000               0.000000000              -0.001973103               0.005638151              -0.001718574              -0.001444680               0.002360924               0.000916245               0.000000000               0.000000000               0.000000000               0.000000000              -0.001369687               0.005690140              -0.001537775              -0.001224898               0.002304993               0.001080096               0.000000000               0.000000000               0.000000000               0.000000000              -0.000807735               0.005676417              -0.001384960              -0.001012451               0.002229603               0.001217152               0.000000000               0.000000000               0.000000000               0.000000000              -0.000283620               0.005606988              -0.001246034              -0.000807230               0.002138054               0.001330824               0.000000000               0.000000000               0.000000000               0.000000000               0.000207783               0.005496987              -0.001102409              -0.000609204               0.002035378               0.001426175               0.000000000               0.000000000               0.000000000               0.000000000               0.000661115               0.005365223              -0.000934211              -0.000422734               0.001929301               0.001506567               0.000000000               0.000000000               0.000000000               0.000000000               0.001067616               0.005232979              -0.000733974              -0.000253766               0.001828898               0.001575131               0.000000000               0.000000000               0.000000000               0.000000000               0.001405897               0.005125938              -0.000512655              -0.000113531               0.001746473               0.001632942               0.000000000               0.000000000               0.000000000               0.000000000               0.001642581               0.005052184              -0.000269452              -0.000015555               0.001689230               0.001673674               0.000000000               0.000000000               0.000000000               0.000000000               0.001739788               0.005027420              -0.000144339               0.000023992               0.001667792               0.001691785               0.000000000               0.000000000               0.000000000               0.000000000              -0.011420607              -0.000895422               0.001581027              -0.004170797               0.001091784              -0.003079013               0.000000000               0.000000000               0.000000000               0.000000000              -0.008330353               0.000514587              -0.000144473              -0.003188203               0.001234255              -0.001953948               0.000000000               0.000000000               0.000000000               0.000000000              -0.006119811               0.001705938              -0.001704668              -0.002508168               0.001404692              -0.001103476               0.000000000               0.000000000               0.000000000               0.000000000              -0.004787251               0.002740969              -0.002143568              -0.002137837               0.001626257              -0.000511580               0.000000000               0.000000000               0.000000000               0.000000000              -0.003838965               0.003529356              -0.002177626              -0.001880778               0.001803365              -0.000077413               0.000000000               0.000000000               0.000000000               0.000000000              -0.003069848               0.004108638              -0.002066992              -0.001664770               0.001924455               0.000259685               0.000000000               0.000000000               0.000000000               0.000000000              -0.002390201               0.004535391              -0.001907591              -0.001463246               0.001999530               0.000536284               0.000000000               0.000000000               0.000000000               0.000000000              -0.001752951               0.004849906              -0.001735745              -0.001263592               0.002037816               0.000774224               0.000000000               0.000000000               0.000000000               0.000000000              -0.001148408               0.005058736              -0.001571381              -0.001062993               0.002040559               0.000977566               0.000000000               0.000000000               0.000000000               0.000000000              -0.000574879               0.005181574              -0.001430755              -0.000863275               0.002014932               0.001151657               0.000000000               0.000000000               0.000000000               0.000000000              -0.000024641               0.005242293              -0.001304615              -0.000664526               0.001968922               0.001304396               0.000000000               0.000000000               0.000000000               0.000000000               0.000513345               0.005258106              -0.001171796              -0.000464758               0.001907604               0.001442845               0.000000000               0.000000000               0.000000000               0.000000000               0.001039929               0.005229236              -0.001014382              -0.000263681               0.001830955               0.001567274               0.000000000               0.000000000               0.000000000               0.000000000               0.001552460               0.005171292              -0.000822649              -0.000064239               0.001745160               0.001680920               0.000000000               0.000000000               0.000000000               0.000000000               0.002035961               0.005109634              -0.000591962               0.000124779               0.001661601               0.001786381               0.000000000               0.000000000               0.000000000               0.000000000               0.002463972               0.005052647              -0.000319175               0.000292406               0.001586730               0.001879136               0.000000000               0.000000000               0.000000000               0.000000000               0.002721155               0.005050747              -0.000184884               0.000389086               0.001553870               0.001942956               0.000000000               0.000000000               0.000000000               0.000000000              -0.013217536              -0.001190195               0.001351232              -0.004807799               0.001205860              -0.003601939               0.000000000               0.000000000               0.000000000               0.000000000              -0.009332287              -0.000214756               0.000003699              -0.003472760               0.001085994              -0.002386766               0.000000000               0.000000000               0.000000000               0.000000000              -0.006361496               0.000523763              -0.001247251              -0.002451029               0.000991590              -0.001459439               0.000000000               0.000000000               0.000000000               0.000000000              -0.004690329               0.001467061              -0.001647972              -0.001942253               0.001136430              -0.000805824               0.000000000               0.000000000               0.000000000               0.000000000              -0.003598229               0.002313874              -0.001721138              -0.001638567               0.001317471              -0.000321097               0.000000000               0.000000000               0.000000000               0.000000000              -0.002781042               0.003011314              -0.001663415              -0.001419302               0.001476861               0.000057559               0.000000000               0.000000000               0.000000000               0.000000000              -0.002094315               0.003575426              -0.001556073              -0.001232294               0.001602561               0.000370267               0.000000000               0.000000000               0.000000000               0.000000000              -0.001465863               0.004023072              -0.001431452              -0.001052581               0.001691871               0.000639290               0.000000000               0.000000000               0.000000000               0.000000000              -0.000863657               0.004361729              -0.001306578              -0.000869086               0.001743590               0.000874504               0.000000000               0.000000000               0.000000000               0.000000000              -0.000280426               0.004613661              -0.001196730              -0.000681866               0.001765160               0.001083294               0.000000000               0.000000000               0.000000000               0.000000000               0.000286281               0.004795933              -0.001100205              -0.000492136               0.001762673               0.001270538               0.000000000               0.000000000               0.000000000               0.000000000               0.000854383               0.004921248              -0.001004881              -0.000294762               0.001738653               0.001443891               0.000000000               0.000000000               0.000000000               0.000000000               0.001441208               0.004996557              -0.000889269              -0.000084117               0.001693541               0.001609424               0.000000000               0.000000000               0.000000000               0.000000000               0.002045279               0.005028297              -0.000736406               0.000138441               0.001629935               0.001768376               0.000000000               0.000000000               0.000000000               0.000000000               0.002669656               0.005034164              -0.000540710               0.000371847               0.001554089               0.001925936               0.000000000               0.000000000               0.000000000               0.000000000               0.003310865               0.005024232              -0.000296737               0.000613539               0.001470214               0.002083754               0.000000000               0.000000000               0.000000000               0.000000000               0.003754037               0.005060105              -0.000178590               0.000775243               0.001428270               0.002203513               0.000000000               0.000000000               0.000000000               0.000000000              -0.014409904              -0.001291956               0.000776525              -0.005242216               0.001316744              -0.003925472               0.000000000               0.000000000               0.000000000               0.000000000              -0.010010577              -0.000639071               0.000040149              -0.003674080               0.001011663              -0.002662417               0.000000000               0.000000000               0.000000000               0.000000000              -0.006532616              -0.000243067              -0.000654786              -0.002419346               0.000725421              -0.001693925               0.000000000               0.000000000               0.000000000               0.000000000              -0.004618407               0.000599795              -0.000893064              -0.001806875               0.000802218              -0.001004658               0.000000000               0.000000000               0.000000000               0.000000000              -0.003405692               0.001460228              -0.000950105              -0.001459661               0.000973289              -0.000486372               0.000000000               0.000000000               0.000000000               0.000000000              -0.002538049               0.002216471              -0.000930866              -0.001228825               0.001148424              -0.000080401               0.000000000               0.000000000               0.000000000               0.000000000              -0.001838669               0.002852631              -0.000877873              -0.001046078               0.001299560               0.000253482               0.000000000               0.000000000               0.000000000               0.000000000              -0.001219282               0.003381681              -0.000811924              -0.000879939               0.001420529               0.000540590               0.000000000               0.000000000               0.000000000               0.000000000              -0.000628690               0.003813404              -0.000744972              -0.000712433               0.001508599               0.000796166               0.000000000               0.000000000               0.000000000               0.000000000              -0.000046258               0.004160117              -0.000683313              -0.000537360               0.001565812               0.001028452               0.000000000               0.000000000               0.000000000               0.000000000               0.000536563               0.004433082              -0.000630427              -0.000352924               0.001595320               0.001242397               0.000000000               0.000000000               0.000000000               0.000000000               0.001127478               0.004639122              -0.000585609              -0.000157086               0.001598720               0.001441635               0.000000000               0.000000000               0.000000000               0.000000000               0.001743631               0.004791691              -0.000526932               0.000054899               0.001578915               0.001633814               0.000000000               0.000000000               0.000000000               0.000000000               0.002408082               0.004899144              -0.000441670               0.000290635               0.001536153               0.001826788               0.000000000               0.000000000               0.000000000               0.000000000               0.003143333               0.004966179              -0.000331540               0.000557972               0.001469386               0.002027358               0.000000000               0.000000000               0.000000000               0.000000000               0.003965094               0.004995951              -0.000185787               0.000862408               0.001377831               0.002240239               0.000000000               0.000000000               0.000000000               0.000000000               0.004577828               0.005064117              -0.000114239               0.001083660               0.001326802               0.002410462               0.000000000               0.000000000               0.000000000               0.000000000               0.000000000               0.000000000               0.000000000               0.000000000               0.000000000               0.000000000               0.000000000               0.000000000               0.000000000               0.000000000               0.000000000               0.000000000               0.000000000               0.000000000               0.000000000               0.000000000               0.000000000               0.000000000               0.000000000               0.000000000               0.000000000               0.000000000               0.000000000               0.000000000               0.000000000               0.000000000               0.000000000               0.000000000               0.000000000               0.000000000               0.000000000               0.000000000               0.000000000               0.000000000               0.000000000               0.000000000               0.000000000               0.000000000               0.000000000               0.000000000               0.000000000               0.000000000               0.000000000               0.000000000               0.000000000               0.000000000               0.000000000               0.000000000               0.000000000               0.000000000               0.000000000               0.000000000               0.000000000               0.000000000               0.000000000               0.000000000               0.000000000               0.000000000               0.000000000               0.000000000               0.000000000               0.000000000               0.000000000               0.000000000               0.000000000               0.000000000               0.000000000               0.000000000               0.000000000               0.000000000               0.000000000               0.000000000               0.000000000               0.000000000               0.000000000               0.000000000               0.000000000               0.000000000               0.000000000               0.000000000               0.000000000               0.000000000               0.000000000               0.000000000               0.000000000               0.000000000               0.000000000               0.000000000               0.000000000               0.000000000               0.000000000               0.000000000               0.000000000               0.000000000               0.000000000               0.000000000               0.000000000               0.000000000               0.000000000               0.000000000               0.000000000               0.000000000               0.000000000               0.000000000               0.000000000               0.000000000               0.000000000               0.000000000               0.000000000               0.000000000               0.000000000               0.000000000               0.000000000               0.000000000               0.000000000               0.000000000               0.000000000               0.000000000               0.000000000               0.000000000               0.000000000               0.000000000               0.000000000               0.000000000               0.000000000               0.000000000               0.000000000               0.000000000               0.000000000               0.000000000               0.000000000               0.000000000               0.000000000               0.000000000               0.000000000               0.000000000               0.000000000               0.000000000               0.000000000               0.000000000               0.000000000               0.000000000               0.000000000               0.000000000               0.000000000               0.000000000               0.000000000               0.000000000               0.000000000               0.000000000               0.000000000               0.000000000               0.000000000               0.000000000               0.000000000               0.000000000               0.000000000               0.000000000               0.000000000               0.000000000               0.000000000               0.000000000               0.000000000               0.000000000               0.000000000               0.000000000               0.000000000               0.000000000               0.000000000               0.000000000               0.000000000               0.000000000               0.000000000               0.000000000               0.000000000               0.000000000               0.000000000               0.000000000               0.000000000               0.000000000               0.000000000               0.000000000               0.000000000               0.000000000               0.000000000               0.000000000               0.000000000               0.000000000               0.000000000               0.000000000               0.000000000               0.000000000               0.000000000               0.000000000               0.000000000               0.000000000               0.000000000               0.000000000               0.000000000               0.000000000               0.000000000               0.000000000               0.000000000               0.000000000               0.000000000               0.000000000               0.000000000               0.000000000               0.000000000               0.000000000               0.000000000               0.000000000               0.000000000               0.000000000               0.000000000               0.000000000               0.000000000               0.000000000               0.000000000               0.000000000               0.000000000               0.000000000               0.000000000               0.000000000               0.000000000               0.000000000               0.000000000               0.000000000               0.000000000               0.000000000               0.000000000               0.000000000               0.000000000               0.000000000               0.000000000               0.000000000               0.000000000               0.000000000               0.000000000               0.000000000               0.000000000               0.000000000               0.000000000               0.000000000               0.000000000               0.000000000               0.000000000               0.000000000               0.000000000               0.000000000               0.000000000               0.000000000               0.000000000               0.000000000               0.000000000               0.000000000               0.000000000               0.000000000               0.000000000               0.000000000               0.000000000               0.000000000               0.000000000               0.000000000               0.000000000               0.000000000               0.000000000               0.000000000               0.000000000               0.000000000               0.000000000               0.000000000               0.000000000               0.000000000               0.000000000               0.000000000               0.000000000               0.000000000               0.000000000               0.000000000               0.000000000               0.000000000               0.000000000               0.000000000               0.000000000               0.000000000               0.000000000               0.000000000               0.000000000               0.000000000               0.000000000               0.000000000               0.000000000               0.000000000               0.000000000               0.000000000               0.000000000               0.000000000               0.000000000               0.000000000               0.000000000               0.000000000               0.000000000               0.000000000               0.000000000               0.000000000               0.000000000               0.000000000               0.000000000               0.000000000               0.000000000               0.000000000               0.000000000               0.000000000               0.000000000               0.000000000               0.000000000               0.000000000               0.000000000               0.000000000               0.000000000               0.000000000               0.000000000               0.000000000               0.000000000               0.000000000               0.000000000               0.000000000               0.000000000               0.000000000               0.000000000               0.000000000               0.000000000               0.000000000               0.000000000               0.000000000               0.000000000               0.000000000               0.000000000               0.000000000               0.002223932               0.022236037               0.001481997              -0.001945526               0.008060446               0.006114921               0.000000000               0.000000000               0.000000000               0.000000000               0.002000397               0.017039891               0.000634347              -0.001379834               0.006139851               0.004760017               0.000000000               0.000000000               0.000000000               0.000000000               0.002455399               0.012869702              -0.000193294              -0.000687937               0.004519170               0.003831233               0.000000000               0.000000000               0.000000000               0.000000000               0.002208973               0.010500212              -0.000522407              -0.000484161               0.003661423               0.003177262               0.000000000               0.000000000               0.000000000               0.000000000               0.001800589               0.008983358              -0.000646152              -0.000447698               0.003143655               0.002695958               0.000000000               0.000000000               0.000000000               0.000000000               0.001389758               0.007908500              -0.000678786              -0.000467402               0.002791941               0.002324539               0.000000000               0.000000000               0.000000000               0.000000000               0.001017222               0.007068698              -0.000665849              -0.000502128               0.002523585               0.002021457               0.000000000               0.000000000               0.000000000               0.000000000               0.000700939               0.006352328              -0.000636331              -0.000531188               0.002294484               0.001763296               0.000000000               0.000000000               0.000000000               0.000000000               0.000440372               0.005699268              -0.000602283              -0.000547268               0.002082159               0.001534892               0.000000000               0.000000000               0.000000000               0.000000000               0.000231989               0.005077360              -0.000565748              -0.000547673               0.001874994               0.001327321               0.000000000               0.000000000               0.000000000               0.000000000               0.000068763               0.004466362              -0.000532579              -0.000532508               0.001666275               0.001133767               0.000000000               0.000000000               0.000000000               0.000000000              -0.000055556               0.003855947              -0.000496040              -0.000502826               0.001452912               0.000950086               0.000000000               0.000000000               0.000000000               0.000000000              -0.000139683               0.003225521              -0.000447249              -0.000455571               0.001227020               0.000771449               0.000000000               0.000000000               0.000000000               0.000000000              -0.000177103               0.002560028              -0.000382147              -0.000386416               0.000982139               0.000595723               0.000000000               0.000000000               0.000000000               0.000000000              -0.000162646               0.001848525              -0.000291982              -0.000292058               0.000713521               0.000421464               0.000000000               0.000000000               0.000000000               0.000000000              -0.000095523               0.001076298              -0.000165854              -0.000170358               0.000415548               0.000245190               0.000000000               0.000000000               0.000000000               0.000000000              -0.000111254               0.000500204              -0.000104292              -0.000104246               0.000201481               0.000097236               0.000000000               0.000000000               0.000000000               0.000000000               0.002342001               0.020802476               0.002733721              -0.001722056               0.007508108               0.005786052               0.000000000               0.000000000               0.000000000               0.000000000               0.001766293               0.016149791               0.001165965              -0.001356361               0.005835330               0.004478969               0.000000000               0.000000000               0.000000000               0.000000000               0.001845435               0.012530250              -0.000352302              -0.000874241               0.004468122               0.003593881               0.000000000               0.000000000               0.000000000               0.000000000               0.001475107               0.010443773              -0.000935466              -0.000752305               0.003731991               0.002979686               0.000000000               0.000000000               0.000000000               0.000000000               0.001055683               0.009074376              -0.001142618              -0.000738414               0.003270900               0.002532486               0.000000000               0.000000000               0.000000000               0.000000000               0.000686224               0.008068251              -0.001189352              -0.000751196               0.002939789               0.002188593               0.000000000               0.000000000               0.000000000               0.000000000               0.000387668               0.007255415              -0.001160422              -0.000761550               0.002672297               0.001910747               0.000000000               0.000000000               0.000000000               0.000000000               0.000159924               0.006545828              -0.001101477              -0.000758256               0.002434673               0.001676417               0.000000000               0.000000000               0.000000000               0.000000000              -0.000014524               0.005891551              -0.001035818              -0.000741889               0.002211127               0.001469238               0.000000000               0.000000000               0.000000000               0.000000000              -0.000142102               0.005272389              -0.000967527              -0.000712335               0.001994890               0.001282555               0.000000000               0.000000000               0.000000000               0.000000000              -0.000229697               0.004673628              -0.000904122              -0.000670339               0.001781306               0.001110968               0.000000000               0.000000000               0.000000000               0.000000000              -0.000283491               0.004083756              -0.000834403              -0.000616777               0.001566831               0.000950053               0.000000000               0.000000000               0.000000000               0.000000000              -0.000296198               0.003493782              -0.000740035              -0.000547796               0.001347181               0.000799385               0.000000000               0.000000000               0.000000000               0.000000000              -0.000267855               0.002897470              -0.000620696              -0.000462629               0.001120023               0.000657394               0.000000000               0.000000000               0.000000000               0.000000000              -0.000202572               0.002296980              -0.000467252              -0.000363086               0.000886681               0.000523595               0.000000000               0.000000000               0.000000000               0.000000000              -0.000107590               0.001698956              -0.000261290              -0.000252715               0.000650551               0.000397836               0.000000000               0.000000000               0.000000000               0.000000000              -0.000097368               0.001288295              -0.000158703              -0.000197549               0.000495277               0.000297728               0.000000000               0.000000000               0.000000000               0.000000000               0.002405185               0.018642526               0.003570533              -0.001428370               0.006690236               0.005261866               0.000000000               0.000000000               0.000000000               0.000000000               0.001345101               0.014826778               0.001513565              -0.001348932               0.005391853               0.004042922               0.000000000               0.000000000               0.000000000               0.000000000               0.000911507               0.012034760              -0.000449843              -0.001162527               0.004399055               0.003236528               0.000000000               0.000000000               0.000000000               0.000000000               0.000406873               0.010347348              -0.001157737              -0.001140838               0.003829361               0.002688522               0.000000000               0.000000000               0.000000000               0.000000000               0.000011439               0.009169330              -0.001385755              -0.001141874               0.003437037               0.002295163               0.000000000               0.000000000               0.000000000               0.000000000              -0.000268921               0.008249735              -0.001421204              -0.001132060               0.003127237               0.001995177               0.000000000               0.000000000               0.000000000               0.000000000              -0.000450923               0.007465819              -0.001372564              -0.001102321               0.002856022               0.001753700               0.000000000               0.000000000               0.000000000               0.000000000              -0.000552837               0.006762615              -0.001291588              -0.001052639               0.002605062               0.001552423               0.000000000               0.000000000               0.000000000               0.000000000              -0.000603784               0.006113679              -0.001204044              -0.000990627               0.002368081               0.001377454               0.000000000               0.000000000               0.000000000               0.000000000              -0.000615920               0.005504339              -0.001115939              -0.000919011               0.002141098               0.001222087               0.000000000               0.000000000               0.000000000               0.000000000              -0.000590723               0.004928287              -0.001031511              -0.000837555               0.001921931               0.001084375               0.000000000               0.000000000               0.000000000               0.000000000              -0.000537017               0.004373606              -0.000940684              -0.000748081               0.001707214               0.000959133               0.000000000               0.000000000               0.000000000               0.000000000              -0.000454634               0.003847067              -0.000822213              -0.000651370               0.001499466               0.000848096               0.000000000               0.000000000               0.000000000               0.000000000              -0.000346849               0.003352964              -0.000672526              -0.000549188               0.001300706               0.000751518               0.000000000               0.000000000               0.000000000               0.000000000              -0.000227910               0.002900883              -0.000489423              -0.000448076               0.001116310               0.000668234               0.000000000               0.000000000               0.000000000               0.000000000              -0.000112148               0.002515210              -0.000265938              -0.000356456               0.000957214               0.000600758               0.000000000               0.000000000               0.000000000               0.000000000              -0.000075889               0.002294142              -0.000153805              -0.000315225               0.000869782               0.000554556               0.000000000               0.000000000               0.000000000               0.000000000               0.002267258               0.016018266               0.003915970              -0.001152062               0.005723388               0.004571327               0.000000000               0.000000000               0.000000000               0.000000000               0.000718551               0.013258732               0.001667013              -0.001387882               0.004882160               0.003494278               0.000000000               0.000000000               0.000000000               0.000000000              -0.000231440               0.011450281              -0.000441899              -0.001518072               0.004322746               0.002804674               0.000000000               0.000000000               0.000000000               0.000000000              -0.000810323               0.010189080              -0.001140672              -0.001577502               0.003922160               0.002344658               0.000000000               0.000000000               0.000000000               0.000000000              -0.001117840               0.009199453              -0.001338034              -0.001569118               0.003589493               0.002020375               0.000000000               0.000000000               0.000000000               0.000000000              -0.001248439               0.008359638              -0.001351040              -0.001513116               0.003290890               0.001777774               0.000000000               0.000000000               0.000000000               0.000000000              -0.001271537               0.007606898              -0.001288795              -0.001427686               0.003011502               0.001583817               0.000000000               0.000000000               0.000000000               0.000000000              -0.001226307               0.006922638              -0.001199083              -0.001325192               0.002749254               0.001424061               0.000000000               0.000000000               0.000000000               0.000000000              -0.001136437               0.006292903              -0.001106251              -0.001212774               0.002501871               0.001289097               0.000000000               0.000000000               0.000000000               0.000000000              -0.001012711               0.005707665              -0.001016249              -0.001093222               0.002266943               0.001173721               0.000000000               0.000000000               0.000000000               0.000000000              -0.000862492               0.005162434              -0.000927837              -0.000968737               0.002043706               0.001074970               0.000000000               0.000000000               0.000000000               0.000000000              -0.000696873               0.004655089              -0.000832543              -0.000843212               0.001832751               0.000989540               0.000000000               0.000000000               0.000000000               0.000000000              -0.000525287               0.004200402              -0.000711629              -0.000722031               0.001640797               0.000918766               0.000000000               0.000000000               0.000000000               0.000000000              -0.000356987               0.003814400              -0.000557607              -0.000610669               0.001475010               0.000864341               0.000000000               0.000000000               0.000000000               0.000000000              -0.000203836               0.003508307              -0.000382850              -0.000514976               0.001341083               0.000826107               0.000000000               0.000000000               0.000000000               0.000000000              -0.000087188               0.003304085              -0.000197330              -0.000445705               0.001249919               0.000804214               0.000000000               0.000000000               0.000000000               0.000000000              -0.000042429               0.003225730              -0.000104094              -0.000419126               0.001214941               0.000795815               0.000000000               0.000000000               0.000000000               0.000000000               0.001824119               0.013200183               0.003794403              -0.000965979               0.004722009               0.003756030               0.000000000               0.000000000               0.000000000               0.000000000              -0.000091233               0.011608571               0.001668868              -0.001485281               0.004364578               0.002879297               0.000000000               0.000000000               0.000000000               0.000000000              -0.001443221               0.010809431              -0.000293077              -0.001892382               0.004233902               0.002341520               0.000000000               0.000000000               0.000000000               0.000000000              -0.001984169               0.009943938              -0.000888124              -0.001987051               0.003976963               0.001989912               0.000000000               0.000000000               0.000000000               0.000000000              -0.002128248               0.009118526              -0.001036420              -0.001937904               0.003685446               0.001747542               0.000000000               0.000000000               0.000000000               0.000000000              -0.002069280               0.008344443              -0.001034741              -0.001819031               0.003387797               0.001568766               0.000000000               0.000000000               0.000000000               0.000000000              -0.001912579               0.007626320              -0.000978334              -0.001670503               0.003098915               0.001428412               0.000000000               0.000000000               0.000000000               0.000000000              -0.001706052               0.006975553              -0.000902105              -0.001511710               0.002829064               0.001317354               0.000000000               0.000000000               0.000000000               0.000000000              -0.001469997               0.006377767              -0.000822361              -0.001348467               0.002575390               0.001226923               0.000000000               0.000000000               0.000000000               0.000000000              -0.001219770               0.005825164              -0.000743893              -0.001185557               0.002336887               0.001151331               0.000000000               0.000000000               0.000000000               0.000000000              -0.000962046               0.005320011              -0.000660776              -0.001025766               0.002115241               0.001089475               0.000000000               0.000000000               0.000000000               0.000000000              -0.000712506               0.004866390              -0.000572169              -0.000875486               0.001913943               0.001038456               0.000000000               0.000000000               0.000000000               0.000000000              -0.000483237               0.004485156              -0.000469297              -0.000741857               0.001742323               0.001000466               0.000000000               0.000000000               0.000000000               0.000000000              -0.000287166               0.004191303              -0.000341778              -0.000631599               0.001607620               0.000976021               0.000000000               0.000000000               0.000000000               0.000000000              -0.000138089               0.003992786              -0.000207254              -0.000550880               0.001514542               0.000963662               0.000000000               0.000000000               0.000000000               0.000000000              -0.000046105               0.003894072              -0.000092334              -0.000504047               0.001466027               0.000961980               0.000000000               0.000000000               0.000000000               0.000000000              -0.000011947               0.003879019              -0.000040006              -0.000489356               0.001456112               0.000966756               0.000000000               0.000000000               0.000000000               0.000000000               0.001019883               0.010433240               0.003298085              -0.000921699               0.003784944               0.002863245               0.000000000               0.000000000               0.000000000               0.000000000              -0.001034300               0.010004405               0.001576718              -0.001638410               0.003880905               0.002242495               0.000000000               0.000000000               0.000000000               0.000000000              -0.002584271               0.010128693              -0.000005685              -0.002235183               0.004121258               0.001886076               0.000000000               0.000000000               0.000000000               0.000000000              -0.002960744               0.009589475              -0.000457366              -0.002308958               0.003966112               0.001657155               0.000000000               0.000000000               0.000000000               0.000000000              -0.002885694               0.008894977              -0.000569196              -0.002194002               0.003696297               0.001502295               0.000000000               0.000000000               0.000000000               0.000000000              -0.002621940               0.008188613              -0.000575870              -0.002006799               0.003398443               0.001391644               0.000000000               0.000000000               0.000000000               0.000000000              -0.002285174               0.007525539              -0.000549797              -0.001797628               0.003107697               0.001310069               0.000000000               0.000000000               0.000000000               0.000000000              -0.001928438               0.006917841              -0.000505561              -0.001587891               0.002835221               0.001247330               0.000000000               0.000000000               0.000000000               0.000000000              -0.001566381               0.006355422              -0.000451244              -0.001381817               0.002579058               0.001197241               0.000000000               0.000000000               0.000000000               0.000000000              -0.001219790               0.005841004              -0.000394668              -0.001187544               0.002342830               0.001155286               0.000000000               0.000000000               0.000000000               0.000000000              -0.000898536               0.005381500              -0.000331271              -0.001009636               0.002130361               0.001120725               0.000000000               0.000000000               0.000000000               0.000000000              -0.000607309               0.004992073              -0.000268250              -0.000851748               0.001947924               0.001096176               0.000000000               0.000000000               0.000000000               0.000000000              -0.000363392               0.004684046              -0.000204427              -0.000721776               0.001801925               0.001080149               0.000000000               0.000000000               0.000000000               0.000000000              -0.000179093               0.004465547              -0.000130391              -0.000625352               0.001696951               0.001071600               0.000000000               0.000000000               0.000000000               0.000000000              -0.000063154               0.004339593              -0.000062866              -0.000566131               0.001635227               0.001069096               0.000000000               0.000000000               0.000000000               0.000000000              -0.000011206               0.004294392              -0.000021468              -0.000541000               0.001611783               0.001070783               0.000000000               0.000000000               0.000000000               0.000000000               0.000000598               0.004294560              -0.000007953              -0.000536594               0.001610371               0.001073776               0.000000000               0.000000000               0.000000000               0.000000000              -0.000105484               0.007897487               0.002542881              -0.001026742               0.002974716               0.001947974               0.000000000               0.000000000               0.000000000               0.000000000              -0.002056895               0.008546573               0.001439951              -0.001839653               0.003462046               0.001622393               0.000000000               0.000000000               0.000000000               0.000000000              -0.003549867               0.009412081               0.000398066              -0.002507704               0.003973230               0.001465526               0.000000000               0.000000000               0.000000000               0.000000000              -0.003655568               0.009111538               0.000075205              -0.002509774               0.003873740               0.001363966               0.000000000               0.000000000               0.000000000               0.000000000              -0.003328931               0.008532914              -0.000038420              -0.002314957               0.003615929               0.001300971               0.000000000               0.000000000               0.000000000               0.000000000              -0.002867221               0.007911162              -0.000081977              -0.002064098               0.003325060               0.001260962               0.000000000               0.000000000               0.000000000               0.000000000              -0.002372915               0.007316350              -0.000098393              -0.001804382               0.003040220               0.001235837               0.000000000               0.000000000               0.000000000               0.000000000              -0.001894598               0.006752116              -0.000096046              -0.001554485               0.002768844               0.001214359               0.000000000               0.000000000               0.000000000               0.000000000              -0.001444142               0.006230218              -0.000079683              -0.001320327               0.002516828               0.001196500               0.000000000               0.000000000               0.000000000               0.000000000              -0.001038170               0.005761693              -0.000058530              -0.001109523               0.002290386               0.001180863               0.000000000               0.000000000               0.000000000               0.000000000              -0.000689242               0.005354378              -0.000036778              -0.000927761               0.002094028               0.001166268               0.000000000               0.000000000               0.000000000               0.000000000              -0.000401087               0.005029951              -0.000020732              -0.000779149               0.001936350               0.001157201               0.000000000               0.000000000               0.000000000               0.000000000              -0.000187273               0.004793298              -0.000012893              -0.000669388               0.001820879               0.001151491               0.000000000               0.000000000               0.000000000               0.000000000              -0.000050683               0.004649188              -0.000002542              -0.000600153               0.001749765               0.001149612               0.000000000               0.000000000               0.000000000               0.000000000               0.000007970               0.004588004               0.000004299              -0.000570510               0.001719490               0.001148979               0.000000000               0.000000000               0.000000000               0.000000000               0.000013668               0.004588851               0.000001680              -0.000568480               0.001719095               0.001150615               0.000000000               0.000000000               0.000000000               0.000000000               0.000008551               0.004609063               0.000000611              -0.000572925               0.001727314               0.001154389               0.000000000               0.000000000               0.000000000               0.000000000              -0.001417453               0.005782606               0.001646051              -0.001254368               0.002345639               0.001091270               0.000000000               0.000000000               0.000000000               0.000000000              -0.003056801               0.007250161               0.001295053              -0.002052566               0.003100885               0.001048319               0.000000000               0.000000000               0.000000000               0.000000000              -0.004310882               0.008675435               0.000878760              -0.002701004               0.003792117               0.001091114               0.000000000               0.000000000               0.000000000               0.000000000              -0.004134130               0.008621756               0.000636942              -0.002628012               0.003749894               0.001121882               0.000000000               0.000000000               0.000000000               0.000000000              -0.003591301               0.008189247               0.000487243              -0.002370388               0.003519851               0.001149463               0.000000000               0.000000000               0.000000000               0.000000000              -0.002967857               0.007668824               0.000390486              -0.002071544               0.003246764               0.001175220               0.000000000               0.000000000               0.000000000               0.000000000              -0.002351039               0.007146778               0.000326881              -0.001774983               0.002973896               0.001198914               0.000000000               0.000000000               0.000000000               0.000000000              -0.001779111               0.006635359               0.000279692              -0.001496583               0.002710625               0.001214042               0.000000000               0.000000000               0.000000000               0.000000000              -0.001265968               0.006159002               0.000247152              -0.001244610               0.002467850               0.001223240               0.000000000               0.000000000               0.000000000               0.000000000              -0.000821682               0.005727973               0.000222510              -0.001024125               0.002250680               0.001226555               0.000000000               0.000000000               0.000000000               0.000000000              -0.000455787               0.005357500               0.000196810              -0.000840605               0.002066017               0.001225412               0.000000000               0.000000000               0.000000000               0.000000000              -0.000173858               0.005074774               0.000158930              -0.000699542               0.001924755               0.001225213               0.000000000               0.000000000               0.000000000               0.000000000               0.000012140               0.004884939               0.000108636              -0.000606063               0.001830318               0.001224254               0.000000000               0.000000000               0.000000000               0.000000000               0.000098332               0.004782686               0.000062027              -0.000560960               0.001781200               0.001220240               0.000000000               0.000000000               0.000000000               0.000000000               0.000105707               0.004764193               0.000026702              -0.000555883               0.001773343               0.001217460               0.000000000               0.000000000               0.000000000               0.000000000               0.000076679               0.004805385               0.000002906              -0.000571917               0.001792418               0.001220501               0.000000000               0.000000000               0.000000000               0.000000000               0.000057052               0.004841780              -0.000004606              -0.000583827               0.001808519               0.001224693               0.000000000               0.000000000               0.000000000               0.000000000              -0.002930430               0.003844571               0.000717610              -0.001579479               0.001808003               0.000228524               0.000000000               0.000000000               0.000000000               0.000000000              -0.003911844               0.005746345               0.001141178              -0.002185229               0.002643839               0.000458609               0.000000000               0.000000000               0.000000000               0.000000000              -0.004785595               0.007566489               0.001378345              -0.002740403               0.003435605               0.000695202               0.000000000               0.000000000               0.000000000               0.000000000              -0.004454762               0.007895125               0.001225202              -0.002657420               0.003517489               0.000860069               0.000000000               0.000000000               0.000000000               0.000000000              -0.003826504               0.007732594               0.001042130              -0.002401507               0.003378008               0.000976500               0.000000000               0.000000000               0.000000000               0.000000000              -0.003137943               0.007411277               0.000889865              -0.002103133               0.003171445               0.001068312               0.000000000               0.000000000               0.000000000               0.000000000              -0.002473024               0.007041408               0.000767867              -0.001807556               0.002949631               0.001142075               0.000000000               0.000000000               0.000000000               0.000000000              -0.001862916               0.006655647               0.000662992              -0.001530546               0.002728709               0.001198163               0.000000000               0.000000000               0.000000000               0.000000000              -0.001321395               0.006273840               0.000576116              -0.001279750               0.002517842               0.001238092               0.000000000               0.000000000               0.000000000               0.000000000              -0.000852031               0.005899073               0.000506387              -0.001056893               0.002318636               0.001261742               0.000000000               0.000000000               0.000000000               0.000000000              -0.000454176               0.005549189               0.000438472              -0.000863962               0.002137699               0.001273736               0.000000000               0.000000000               0.000000000               0.000000000              -0.000138140               0.005258490               0.000354718              -0.000709112               0.001989183               0.001280071               0.000000000               0.000000000               0.000000000               0.000000000               0.000083952               0.005043927               0.000256405              -0.000599007               0.001880961               0.001281954               0.000000000               0.000000000               0.000000000               0.000000000               0.000207979               0.004917609               0.000159186              -0.000536708               0.001818089               0.001281381               0.000000000               0.000000000               0.000000000               0.000000000               0.000246203               0.004881245               0.000078557              -0.000517828               0.001799675               0.001281847               0.000000000               0.000000000               0.000000000               0.000000000               0.000227323               0.004918091               0.000025633              -0.000529514               0.001815852               0.001286338               0.000000000               0.000000000               0.000000000               0.000000000               0.000191241               0.004940803               0.000000995              -0.000545884               0.001828879               0.001282996               0.000000000               0.000000000               0.000000000               0.000000000              -0.004833559               0.002100446              -0.000166234              -0.002075137               0.001391852              -0.000683285               0.000000000               0.000000000               0.000000000               0.000000000              -0.004876534               0.004227794               0.000934017              -0.002357169               0.002194973              -0.000162197               0.000000000               0.000000000               0.000000000               0.000000000              -0.005188752               0.006244463               0.001780293              -0.002726334               0.002990244               0.000263911               0.000000000               0.000000000               0.000000000               0.000000000              -0.004719698               0.006932943               0.001783230              -0.002636498               0.003189790               0.000553292               0.000000000               0.000000000               0.000000000               0.000000000              -0.004044204               0.007079655               0.001605070              -0.002401528               0.003160370               0.000758843               0.000000000               0.000000000               0.000000000               0.000000000              -0.003335454               0.006994526               0.001411776              -0.002125106               0.003039854               0.000914748               0.000000000               0.000000000               0.000000000               0.000000000              -0.002650924               0.006814154               0.001235508              -0.001845861               0.002886649               0.001040787               0.000000000               0.000000000               0.000000000               0.000000000              -0.002016434               0.006584092               0.001075905              -0.001579171               0.002721065               0.001141895               0.000000000               0.000000000               0.000000000               0.000000000              -0.001443303               0.006325377               0.000938960              -0.001331908               0.002552407               0.001220499               0.000000000               0.000000000               0.000000000               0.000000000              -0.000937355               0.006039077               0.000829163              -0.001106390               0.002381802               0.001275412               0.000000000               0.000000000               0.000000000               0.000000000              -0.000493227               0.005742116               0.000729510              -0.000902723               0.002214927               0.001312204               0.000000000               0.000000000               0.000000000               0.000000000              -0.000112501               0.005465801               0.000615433              -0.000725411               0.002063719               0.001338308               0.000000000               0.000000000               0.000000000               0.000000000               0.000192275               0.005236995               0.000481203              -0.000582520               0.001939821               0.001357301               0.000000000               0.000000000               0.000000000               0.000000000               0.000399924               0.005072165               0.000336685              -0.000484048               0.001852054               0.001368006               0.000000000               0.000000000               0.000000000               0.000000000               0.000503369               0.004981158               0.000201992              -0.000433880               0.001804996               0.001371116               0.000000000               0.000000000               0.000000000               0.000000000               0.000513614               0.004965770               0.000090509              -0.000428115               0.001797945               0.001369830               0.000000000               0.000000000               0.000000000               0.000000000               0.000469069               0.004954942               0.000030789              -0.000443466               0.001799453               0.001355987               0.000000000               0.000000000               0.000000000               0.000000000              -0.006991440               0.000698916              -0.000918793              -0.002709152               0.001136015              -0.001573137               0.000000000               0.000000000               0.000000000               0.000000000              -0.005983573               0.002799797               0.000667870              -0.002593810               0.001797857              -0.000795953               0.000000000               0.000000000               0.000000000               0.000000000              -0.005532776               0.004734597               0.001985625              -0.002666610               0.002467052              -0.000199558               0.000000000               0.000000000               0.000000000               0.000000000              -0.004846153               0.005668684               0.002177059              -0.002525887               0.002731504               0.000205617               0.000000000               0.000000000               0.000000000               0.000000000              -0.004115330               0.006097802               0.002054125              -0.002305469               0.002801069               0.000495601               0.000000000               0.000000000               0.000000000               0.000000000              -0.003397324               0.006263376               0.001857374              -0.002056914               0.002773408               0.000716495               0.000000000               0.000000000               0.000000000               0.000000000              -0.002709583               0.006298090               0.001653555              -0.001803351               0.002700459               0.000897108               0.000000000               0.000000000               0.000000000               0.000000000              -0.002062798               0.006245331               0.001459028              -0.001554212               0.002599826               0.001045614               0.000000000               0.000000000               0.000000000               0.000000000              -0.001468258               0.006129679               0.001288682              -0.001316804               0.002482140               0.001165336               0.000000000               0.000000000               0.000000000               0.000000000              -0.000927580               0.005972912               0.001147529              -0.001094454               0.002355769               0.001261314               0.000000000               0.000000000               0.000000000               0.000000000              -0.000440711               0.005779546               0.001021366              -0.000887708               0.002222399               0.001334691               0.000000000               0.000000000               0.000000000               0.000000000              -0.000005747               0.005562482               0.000887025              -0.000697464               0.002086630               0.001389166               0.000000000               0.000000000               0.000000000               0.000000000               0.000375838               0.005359675               0.000729448              -0.000529019               0.001962880               0.001433861               0.000000000               0.000000000               0.000000000               0.000000000               0.000681043               0.005191234               0.000547506              -0.000393512               0.001861565               0.001468052               0.000000000               0.000000000               0.000000000               0.000000000               0.000887768               0.005076599               0.000361667              -0.000301661               0.001792737               0.001491075               0.000000000               0.000000000               0.000000000               0.000000000               0.000978634               0.005019244               0.000181925              -0.000260417               0.001759870               0.001499453               0.000000000               0.000000000               0.000000000               0.000000000               0.000970396               0.004989179               0.000087057              -0.000259748               0.001749626               0.001489878               0.000000000               0.000000000               0.000000000               0.000000000              -0.009258432              -0.000288482              -0.001424157              -0.003435849               0.001049115              -0.002386734               0.000000000               0.000000000               0.000000000               0.000000000              -0.007166985               0.001538115               0.000385503              -0.002879880               0.001472655              -0.001407225               0.000000000               0.000000000               0.000000000               0.000000000              -0.005841121               0.003165394               0.001963334              -0.002586090               0.001917148              -0.000668943               0.000000000               0.000000000               0.000000000               0.000000000              -0.004856473               0.004213400               0.002316675              -0.002347848               0.002187067              -0.000160781               0.000000000               0.000000000               0.000000000               0.000000000              -0.004036240               0.004865208               0.002273938              -0.002121736               0.002328964               0.000207228               0.000000000               0.000000000               0.000000000               0.000000000              -0.003299835               0.005262128               0.002111236              -0.001895200               0.002385758               0.000490558               0.000000000               0.000000000               0.000000000               0.000000000              -0.002618318               0.005502781               0.001916420              -0.001669713               0.002390812               0.000721099               0.000000000               0.000000000               0.000000000               0.000000000              -0.001973103               0.005638151               0.001718574              -0.001444680               0.002360924               0.000916245               0.000000000               0.000000000               0.000000000               0.000000000              -0.001369687               0.005690140               0.001537775              -0.001224898               0.002304993               0.001080096               0.000000000               0.000000000               0.000000000               0.000000000              -0.000807735               0.005676417               0.001384960              -0.001012451               0.002229603               0.001217152               0.000000000               0.000000000               0.000000000               0.000000000              -0.000283620               0.005606988               0.001246034              -0.000807230               0.002138054               0.001330824               0.000000000               0.000000000               0.000000000               0.000000000               0.000207783               0.005496987               0.001102409              -0.000609204               0.002035378               0.001426175               0.000000000               0.000000000               0.000000000               0.000000000               0.000661115               0.005365223               0.000934211              -0.000422734               0.001929301               0.001506567               0.000000000               0.000000000               0.000000000               0.000000000               0.001067616               0.005232979               0.000733974              -0.000253766               0.001828898               0.001575131               0.000000000               0.000000000               0.000000000               0.000000000               0.001405897               0.005125938               0.000512655              -0.000113531               0.001746473               0.001632942               0.000000000               0.000000000               0.000000000               0.000000000               0.001642581               0.005052184               0.000269452              -0.000015555               0.001689230               0.001673674               0.000000000               0.000000000               0.000000000               0.000000000               0.001739788               0.005027420               0.000144339               0.000023992               0.001667792               0.001691785               0.000000000               0.000000000               0.000000000               0.000000000              -0.011420607              -0.000895422              -0.001581027              -0.004170797               0.001091784              -0.003079013               0.000000000               0.000000000               0.000000000               0.000000000              -0.008330353               0.000514587               0.000144473              -0.003188203               0.001234255              -0.001953948               0.000000000               0.000000000               0.000000000               0.000000000              -0.006119811               0.001705938               0.001704668              -0.002508168               0.001404692              -0.001103476               0.000000000               0.000000000               0.000000000               0.000000000              -0.004787251               0.002740969               0.002143568              -0.002137837               0.001626257              -0.000511580               0.000000000               0.000000000               0.000000000               0.000000000              -0.003838965               0.003529356               0.002177626              -0.001880778               0.001803365              -0.000077413               0.000000000               0.000000000               0.000000000               0.000000000              -0.003069848               0.004108638               0.002066992              -0.001664770               0.001924455               0.000259685               0.000000000               0.000000000               0.000000000               0.000000000              -0.002390201               0.004535391               0.001907591              -0.001463246               0.001999530               0.000536284               0.000000000               0.000000000               0.000000000               0.000000000              -0.001752951               0.004849906               0.001735745              -0.001263592               0.002037816               0.000774224               0.000000000               0.000000000               0.000000000               0.000000000              -0.001148408               0.005058736               0.001571381              -0.001062993               0.002040559               0.000977566               0.000000000               0.000000000               0.000000000               0.000000000              -0.000574879               0.005181574               0.001430755              -0.000863275               0.002014932               0.001151657               0.000000000               0.000000000               0.000000000               0.000000000              -0.000024641               0.005242293               0.001304615              -0.000664526               0.001968922               0.001304396               0.000000000               0.000000000               0.000000000               0.000000000               0.000513345               0.005258106               0.001171796              -0.000464758               0.001907604               0.001442845               0.000000000               0.000000000               0.000000000               0.000000000               0.001039929               0.005229236               0.001014382              -0.000263681               0.001830955               0.001567274               0.000000000               0.000000000               0.000000000               0.000000000               0.001552460               0.005171292               0.000822649              -0.000064239               0.001745160               0.001680920               0.000000000               0.000000000               0.000000000               0.000000000               0.002035961               0.005109634               0.000591962               0.000124779               0.001661601               0.001786381               0.000000000               0.000000000               0.000000000               0.000000000               0.002463972               0.005052647               0.000319175               0.000292406               0.001586730               0.001879136               0.000000000               0.000000000               0.000000000               0.000000000               0.002721155               0.005050747               0.000184884               0.000389086               0.001553870               0.001942956               0.000000000               0.000000000               0.000000000               0.000000000              -0.013217536              -0.001190195              -0.001351232              -0.004807799               0.001205860              -0.003601939               0.000000000               0.000000000               0.000000000               0.000000000              -0.009332287              -0.000214756              -0.000003699              -0.003472760               0.001085994              -0.002386766               0.000000000               0.000000000               0.000000000               0.000000000              -0.006361496               0.000523763               0.001247251              -0.002451029               0.000991590              -0.001459439               0.000000000               0.000000000               0.000000000               0.000000000              -0.004690329               0.001467061               0.001647972              -0.001942253               0.001136430              -0.000805824               0.000000000               0.000000000               0.000000000               0.000000000              -0.003598229               0.002313874               0.001721138              -0.001638567               0.001317471              -0.000321097               0.000000000               0.000000000               0.000000000               0.000000000              -0.002781042               0.003011314               0.001663415              -0.001419302               0.001476861               0.000057559               0.000000000               0.000000000               0.000000000               0.000000000              -0.002094315               0.003575426               0.001556073              -0.001232294               0.001602561               0.000370267               0.000000000               0.000000000               0.000000000               0.000000000              -0.001465863               0.004023072               0.001431452              -0.001052581               0.001691871               0.000639290               0.000000000               0.000000000               0.000000000               0.000000000              -0.000863657               0.004361729               0.001306578              -0.000869086               0.001743590               0.000874504               0.000000000               0.000000000               0.000000000               0.000000000              -0.000280426               0.004613661               0.001196730              -0.000681866               0.001765160               0.001083294               0.000000000               0.000000000               0.000000000               0.000000000               0.000286281               0.004795933               0.001100205              -0.000492136               0.001762673               0.001270538               0.000000000               0.000000000               0.000000000               0.000000000               0.000854383               0.004921248               0.001004881              -0.000294762               0.001738653               0.001443891               0.000000000               0.000000000               0.000000000               0.000000000               0.001441208               0.004996557               0.000889269              -0.000084117               0.001693541               0.001609424               0.000000000               0.000000000               0.000000000               0.000000000               0.002045279               0.005028297               0.000736406               0.000138441               0.001629935               0.001768376               0.000000000               0.000000000               0.000000000               0.000000000               0.002669656               0.005034164               0.000540710               0.000371847               0.001554089               0.001925936               0.000000000               0.000000000               0.000000000               0.000000000               0.003310865               0.005024232               0.000296737               0.000613539               0.001470214               0.002083754               0.000000000               0.000000000               0.000000000               0.000000000               0.003754037               0.005060105               0.000178590               0.000775243               0.001428270               0.002203513               0.000000000               0.000000000               0.000000000               0.000000000              -0.014409904              -0.001291956              -0.000776525              -0.005242216               0.001316744              -0.003925472               0.000000000               0.000000000               0.000000000               0.000000000              -0.010010577              -0.000639071              -0.000040149              -0.003674080               0.001011663              -0.002662417               0.000000000               0.000000000               0.000000000               0.000000000              -0.006532616              -0.000243067               0.000654786              -0.002419346               0.000725421              -0.001693925               0.000000000               0.000000000               0.000000000               0.000000000              -0.004618407               0.000599795               0.000893064              -0.001806875               0.000802218              -0.001004658               0.000000000               0.000000000               0.000000000               0.000000000              -0.003405692               0.001460228               0.000950105              -0.001459661               0.000973289              -0.000486372               0.000000000               0.000000000               0.000000000               0.000000000              -0.002538049               0.002216471               0.000930866              -0.001228825               0.001148424              -0.000080401               0.000000000               0.000000000               0.000000000               0.000000000              -0.001838669               0.002852631               0.000877873              -0.001046078               0.001299560               0.000253482               0.000000000               0.000000000               0.000000000               0.000000000              -0.001219282               0.003381681               0.000811924              -0.000879939               0.001420529               0.000540590               0.000000000               0.000000000               0.000000000               0.000000000              -0.000628690               0.003813404               0.000744972              -0.000712433               0.001508599               0.000796166               0.000000000               0.000000000               0.000000000               0.000000000              -0.000046258               0.004160117               0.000683313              -0.000537360               0.001565812               0.001028452               0.000000000               0.000000000               0.000000000               0.000000000               0.000536563               0.004433082               0.000630427              -0.000352924               0.001595320               0.001242397               0.000000000               0.000000000               0.000000000               0.000000000               0.001127478               0.004639122               0.000585609              -0.000157086               0.001598720               0.001441635               0.000000000               0.000000000               0.000000000               0.000000000               0.001743631               0.004791691               0.000526932               0.000054899               0.001578915               0.001633814               0.000000000               0.000000000               0.000000000               0.000000000               0.002408082               0.004899144               0.000441670               0.000290635               0.001536153               0.001826788               0.000000000               0.000000000               0.000000000               0.000000000               0.003143333               0.004966179               0.000331540               0.000557972               0.001469386               0.002027358               0.000000000               0.000000000               0.000000000               0.000000000               0.003965094               0.004995951               0.000185787               0.000862408               0.001377831               0.002240239               0.000000000               0.000000000               0.000000000               0.000000000               0.004577828               0.005064117               0.000114239               0.001083660               0.001326802               0.002410462               0.000000000               0.000000000               0.000000000               0.000000000               0.000000000               0.000000000               0.000000000               0.000000000               0.000000000               0.000000000               0.000000000               0.000000000               0.000000000               0.000000000               0.000000000               0.000000000               0.000000000               0.000000000               0.000000000               0.000000000               0.000000000               0.000000000               0.000000000               0.000000000               0.000000000               0.000000000               0.000000000               0.000000000               0.000000000               0.000000000               0.000000000               0.000000000               0.000000000               0.000000000               0.000000000               0.000000000               0.000000000               0.000000000               0.000000000               0.000000000               0.000000000               0.000000000               0.000000000               0.000000000               0.000000000               0.000000000               0.000000000               0.000000000               0.000000000               0.000000000               0.000000000               0.000000000               0.000000000               0.000000000               0.000000000               0.000000000               0.000000000               0.000000000               0.000000000               0.000000000               0.000000000               0.000000000               0.000000000               0.000000000               0.000000000               0.000000000               0.000000000               0.000000000               0.000000000               0.000000000               0.000000000               0.000000000               0.000000000               0.000000000               0.000000000               0.000000000               0.000000000               0.000000000               0.000000000               0.000000000               0.000000000               0.000000000               0.000000000               0.000000000               0.000000000               0.000000000               0.000000000               0.000000000               0.000000000               0.000000000               0.000000000               0.000000000               0.000000000               0.000000000               0.000000000               0.000000000               0.000000000               0.000000000               0.000000000               0.000000000               0.000000000               0.000000000               0.000000000               0.000000000               0.000000000               0.000000000               0.000000000               0.000000000               0.000000000               0.000000000               0.000000000               0.000000000               0.000000000               0.000000000               0.000000000               0.000000000               0.000000000               0.000000000               0.000000000               0.000000000               0.000000000               0.000000000               0.000000000               0.000000000               0.000000000               0.000000000               0.000000000               0.000000000               0.000000000               0.000000000               0.000000000               0.000000000               0.000000000               0.000000000               0.000000000               0.000000000               0.000000000               0.000000000               0.000000000               0.000000000               0.000000000               0.000000000               0.000000000               0.000000000               0.000000000               0.000000000               0.000000000               0.000000000               0.000000000               0.000000000               0.000000000               0.000000000               0.000000000               0.000000000               0.000000000               0.000000000               0.000000000               0.000000000               0.000000000               0.000000000               0.000000000               0.000000000               0.000000000               0.000000000               0.000000000               0.000000000               0.000000000               0.000000000               0.000000000               0.000000000               0.000000000               0.000000000               0.000000000               0.000000000 </DataArray>
</PointData>
</Piece>
</UnstructuredGrid> </VTKFile>
