<?xml version="1.0"?>
<VTKFile type="UnstructuredGrid" version="0.1">
<UnstructuredGrid>
<Piece NumberOfPoints="      1156" NumberOfCells="      1024">
<Points>
<DataArray type="Float64"                                    Name="coordinates"                                                      NumberOfComponents=" 3" format="ascii">
              0.133000000               0.000000000               0.000000000               0.155937500               0.000000000               0.000000000               0.178875000               0.000000000               0.000000000               0.201812500               0.000000000               0.000000000               0.224750000               0.000000000               0.000000000               0.247687500               0.000000000               0.000000000               0.270625000               0.000000000               0.000000000               0.293562500               0.000000000               0.000000000               0.316500000               0.000000000               0.000000000               0.339437500               0.000000000               0.000000000               0.362375000               0.000000000               0.000000000               0.385312500               0.000000000               0.000000000               0.408250000               0.000000000               0.000000000               0.431187500               0.000000000               0.000000000               0.454125000               0.000000000               0.000000000               0.477062500               0.000000000               0.000000000               0.500000000               0.000000000               0.000000000               0.132359569               0.013036280               0.000000000               0.155337096               0.016127762               0.000000000               0.178314623               0.019219245               0.000000000               0.201292150               0.022310727               0.000000000               0.224269676               0.025402210               0.000000000               0.247247203               0.028493692               0.000000000               0.270224730               0.031585175               0.000000000               0.293202257               0.034676657               0.000000000               0.316179784               0.037768140               0.000000000               0.339157311               0.040859622               0.000000000               0.362134838               0.043951105               0.000000000               0.385112365               0.047042587               0.000000000               0.408089892               0.050134070               0.000000000               0.431067419               0.053225552               0.000000000               0.454044946               0.056317035               0.000000000               0.477022473               0.059408517               0.000000000               0.500000000               0.062500000               0.000000000               0.130444442               0.025947013               0.000000000               0.153541665               0.032137825               0.000000000               0.176638887               0.038328636               0.000000000               0.199736109               0.044519448               0.000000000               0.222833332               0.050710260               0.000000000               0.245930554               0.056901071               0.000000000               0.269027776               0.063091883               0.000000000               0.292124999               0.069282695               0.000000000               0.315222221               0.075473506               0.000000000               0.338319444               0.081664318               0.000000000               0.361416666               0.087855130               0.000000000               0.384513888               0.094045942               0.000000000               0.407611111               0.100236753               0.000000000               0.430708333               0.106427565               0.000000000               0.453805555               0.112618377               0.000000000               0.476902778               0.118809188               0.000000000               0.500000000               0.125000000               0.000000000               0.127273065               0.038607862               0.000000000               0.150568498               0.047913621               0.000000000               0.173863932               0.057219379               0.000000000               0.197159365               0.066525138               0.000000000               0.220454798               0.075830897               0.000000000               0.243750232               0.085136655               0.000000000               0.267045665               0.094442414               0.000000000               0.290341099               0.103748172               0.000000000               0.313636532               0.113053931               0.000000000               0.336931966               0.122359690               0.000000000               0.360227399               0.131665448               0.000000000               0.383522833               0.140971207               0.000000000               0.406818266               0.150276966               0.000000000               0.430113700               0.159582724               0.000000000               0.453409133               0.168888483               0.000000000               0.476704567               0.178194241               0.000000000               0.500000000               0.187500000               0.000000000               0.122875978               0.050896897               0.000000000               0.146446229               0.063340840               0.000000000               0.170016481               0.075784784               0.000000000               0.193586732               0.088228728               0.000000000               0.217156983               0.100672672               0.000000000               0.240727235               0.113116616               0.000000000               0.264297486               0.125560560               0.000000000               0.287867738               0.138004504               0.000000000               0.311437989               0.150448448               0.000000000               0.335008240               0.162892392               0.000000000               0.358578492               0.175336336               0.000000000               0.382148743               0.187780280               0.000000000               0.405718994               0.200224224               0.000000000               0.429289246               0.212668168               0.000000000               0.452859497               0.225112112               0.000000000               0.476429749               0.237556056               0.000000000               0.500000000               0.250000000               0.000000000               0.117295528               0.062695766               0.000000000               0.141214558               0.078308531               0.000000000               0.165133587               0.093921295               0.000000000               0.189052617               0.109534060               0.000000000               0.212971646               0.125146824               0.000000000               0.236890676               0.140759589               0.000000000               0.260809705               0.156372354               0.000000000               0.284728735               0.171985118               0.000000000               0.308647764               0.187597883               0.000000000               0.332566794               0.203210648               0.000000000               0.356485823               0.218823412               0.000000000               0.380404853               0.234436177               0.000000000               0.404323882               0.250048941               0.000000000               0.428242912               0.265661706               0.000000000               0.452161941               0.281274471               0.000000000               0.476080971               0.296887235               0.000000000               0.500000000               0.312500000               0.000000000               0.110585458               0.073890841               0.000000000               0.134923867               0.092710163               0.000000000               0.159262276               0.111529486               0.000000000               0.183600685               0.130348808               0.000000000               0.207939094               0.149168131               0.000000000               0.232277503               0.167987453               0.000000000               0.256615912               0.186806776               0.000000000               0.280954320               0.205626098               0.000000000               0.305292729               0.224445420               0.000000000               0.329631138               0.243264743               0.000000000               0.353969547               0.262084065               0.000000000               0.378307956               0.280903388               0.000000000               0.402646365               0.299722710               0.000000000               0.426984773               0.318542033               0.000000000               0.451323182               0.337361355               0.000000000               0.475661591               0.356180678               0.000000000               0.500000000               0.375000000               0.000000000               0.102810390               0.084374307               0.000000000               0.127634741               0.106444663               0.000000000               0.152459092               0.128515018               0.000000000               0.177283442               0.150585374               0.000000000               0.202107793               0.172655730               0.000000000               0.226932143               0.194726086               0.000000000               0.251756494               0.216796442               0.000000000               0.276580845               0.238866798               0.000000000               0.301405195               0.260937153               0.000000000               0.326229546               0.283007509               0.000000000               0.351053896               0.305077865               0.000000000               0.375878247               0.327148221               0.000000000               0.400702598               0.349218577               0.000000000               0.425526948               0.371288933               0.000000000               0.450351299               0.393359288               0.000000000               0.475175649               0.415429644               0.000000000               0.500000000               0.437500000               0.000000000               0.094045202               0.094045202               0.000000000               0.119417377               0.119417377               0.000000000               0.144789552               0.144789552               0.000000000               0.170161727               0.170161727               0.000000000               0.195533901               0.195533901               0.000000000               0.220906076               0.220906076               0.000000000               0.246278251               0.246278251               0.000000000               0.271650426               0.271650426               0.000000000               0.297022601               0.297022601               0.000000000               0.322394776               0.322394776               0.000000000               0.347766951               0.347766951               0.000000000               0.373139126               0.373139126               0.000000000               0.398511300               0.398511300               0.000000000               0.423883475               0.423883475               0.000000000               0.449255650               0.449255650               0.000000000               0.474627825               0.474627825               0.000000000               0.500000000               0.500000000               0.000000000               0.084374307               0.102810390               0.000000000               0.106444663               0.127634741               0.000000000               0.128515018               0.152459092               0.000000000               0.150585374               0.177283442               0.000000000               0.172655730               0.202107793               0.000000000               0.194726086               0.226932143               0.000000000               0.216796442               0.251756494               0.000000000               0.238866798               0.276580845               0.000000000               0.260937153               0.301405195               0.000000000               0.283007509               0.326229546               0.000000000               0.305077865               0.351053896               0.000000000               0.327148221               0.375878247               0.000000000               0.349218577               0.400702598               0.000000000               0.371288933               0.425526948               0.000000000               0.393359288               0.450351299               0.000000000               0.415429644               0.475175649               0.000000000               0.437500000               0.500000000               0.000000000               0.073890841               0.110585458               0.000000000               0.092710163               0.134923867               0.000000000               0.111529486               0.159262276               0.000000000               0.130348808               0.183600685               0.000000000               0.149168131               0.207939094               0.000000000               0.167987453               0.232277503               0.000000000               0.186806776               0.256615912               0.000000000               0.205626098               0.280954320               0.000000000               0.224445420               0.305292729               0.000000000               0.243264743               0.329631138               0.000000000               0.262084065               0.353969547               0.000000000               0.280903388               0.378307956               0.000000000               0.299722710               0.402646365               0.000000000               0.318542033               0.426984773               0.000000000               0.337361355               0.451323182               0.000000000               0.356180678               0.475661591               0.000000000               0.375000000               0.500000000               0.000000000               0.062695766               0.117295528               0.000000000               0.078308531               0.141214558               0.000000000               0.093921295               0.165133587               0.000000000               0.109534060               0.189052617               0.000000000               0.125146824               0.212971646               0.000000000               0.140759589               0.236890676               0.000000000               0.156372354               0.260809705               0.000000000               0.171985118               0.284728735               0.000000000               0.187597883               0.308647764               0.000000000               0.203210648               0.332566794               0.000000000               0.218823412               0.356485823               0.000000000               0.234436177               0.380404853               0.000000000               0.250048941               0.404323882               0.000000000               0.265661706               0.428242912               0.000000000               0.281274471               0.452161941               0.000000000               0.296887235               0.476080971               0.000000000               0.312500000               0.500000000               0.000000000               0.050896897               0.122875978               0.000000000               0.063340840               0.146446229               0.000000000               0.075784784               0.170016481               0.000000000               0.088228728               0.193586732               0.000000000               0.100672672               0.217156983               0.000000000               0.113116616               0.240727235               0.000000000               0.125560560               0.264297486               0.000000000               0.138004504               0.287867738               0.000000000               0.150448448               0.311437989               0.000000000               0.162892392               0.335008240               0.000000000               0.175336336               0.358578492               0.000000000               0.187780280               0.382148743               0.000000000               0.200224224               0.405718994               0.000000000               0.212668168               0.429289246               0.000000000               0.225112112               0.452859497               0.000000000               0.237556056               0.476429749               0.000000000               0.250000000               0.500000000               0.000000000               0.038607862               0.127273065               0.000000000               0.047913621               0.150568498               0.000000000               0.057219379               0.173863932               0.000000000               0.066525138               0.197159365               0.000000000               0.075830897               0.220454798               0.000000000               0.085136655               0.243750232               0.000000000               0.094442414               0.267045665               0.000000000               0.103748172               0.290341099               0.000000000               0.113053931               0.313636532               0.000000000               0.122359690               0.336931966               0.000000000               0.131665448               0.360227399               0.000000000               0.140971207               0.383522833               0.000000000               0.150276966               0.406818266               0.000000000               0.159582724               0.430113700               0.000000000               0.168888483               0.453409133               0.000000000               0.178194241               0.476704567               0.000000000               0.187500000               0.500000000               0.000000000               0.025947013               0.130444442               0.000000000               0.032137825               0.153541665               0.000000000               0.038328636               0.176638887               0.000000000               0.044519448               0.199736109               0.000000000               0.050710260               0.222833332               0.000000000               0.056901071               0.245930554               0.000000000               0.063091883               0.269027776               0.000000000               0.069282695               0.292124999               0.000000000               0.075473506               0.315222221               0.000000000               0.081664318               0.338319444               0.000000000               0.087855130               0.361416666               0.000000000               0.094045942               0.384513888               0.000000000               0.100236753               0.407611111               0.000000000               0.106427565               0.430708333               0.000000000               0.112618377               0.453805555               0.000000000               0.118809188               0.476902778               0.000000000               0.125000000               0.500000000               0.000000000               0.013036280               0.132359569               0.000000000               0.016127762               0.155337096               0.000000000               0.019219245               0.178314623               0.000000000               0.022310727               0.201292150               0.000000000               0.025402210               0.224269676               0.000000000               0.028493692               0.247247203               0.000000000               0.031585175               0.270224730               0.000000000               0.034676657               0.293202257               0.000000000               0.037768140               0.316179784               0.000000000               0.040859622               0.339157311               0.000000000               0.043951105               0.362134838               0.000000000               0.047042587               0.385112365               0.000000000               0.050134070               0.408089892               0.000000000               0.053225552               0.431067419               0.000000000               0.056317035               0.454044946               0.000000000               0.059408517               0.477022473               0.000000000               0.062500000               0.500000000               0.000000000               0.000000000               0.133000000               0.000000000               0.000000000               0.155937500               0.000000000               0.000000000               0.178875000               0.000000000               0.000000000               0.201812500               0.000000000               0.000000000               0.224750000               0.000000000               0.000000000               0.247687500               0.000000000               0.000000000               0.270625000               0.000000000               0.000000000               0.293562500               0.000000000               0.000000000               0.316500000               0.000000000               0.000000000               0.339437500               0.000000000               0.000000000               0.362375000               0.000000000               0.000000000               0.385312500               0.000000000               0.000000000               0.408250000               0.000000000               0.000000000               0.431187500               0.000000000               0.000000000               0.454125000               0.000000000               0.000000000               0.477062500               0.000000000               0.000000000               0.500000000               0.000000000               0.133000000               0.000000000               0.000000000               0.155937500               0.000000000               0.000000000               0.178875000               0.000000000               0.000000000               0.201812500               0.000000000               0.000000000               0.224750000               0.000000000               0.000000000               0.247687500               0.000000000               0.000000000               0.270625000               0.000000000               0.000000000               0.293562500               0.000000000               0.000000000               0.316500000               0.000000000               0.000000000               0.339437500               0.000000000               0.000000000               0.362375000               0.000000000               0.000000000               0.385312500               0.000000000               0.000000000               0.408250000               0.000000000               0.000000000               0.431187500               0.000000000               0.000000000               0.454125000               0.000000000               0.000000000               0.477062500               0.000000000               0.000000000               0.500000000               0.000000000               0.000000000               0.132359569              -0.013036280               0.000000000               0.155337096              -0.016127762               0.000000000               0.178314623              -0.019219245               0.000000000               0.201292150              -0.022310727               0.000000000               0.224269676              -0.025402210               0.000000000               0.247247203              -0.028493692               0.000000000               0.270224730              -0.031585175               0.000000000               0.293202257              -0.034676657               0.000000000               0.316179784              -0.037768140               0.000000000               0.339157311              -0.040859622               0.000000000               0.362134838              -0.043951105               0.000000000               0.385112365              -0.047042587               0.000000000               0.408089892              -0.050134070               0.000000000               0.431067419              -0.053225552               0.000000000               0.454044946              -0.056317035               0.000000000               0.477022473              -0.059408517               0.000000000               0.500000000              -0.062500000               0.000000000               0.130444442              -0.025947013               0.000000000               0.153541665              -0.032137825               0.000000000               0.176638887              -0.038328636               0.000000000               0.199736109              -0.044519448               0.000000000               0.222833332              -0.050710260               0.000000000               0.245930554              -0.056901071               0.000000000               0.269027776              -0.063091883               0.000000000               0.292124999              -0.069282695               0.000000000               0.315222221              -0.075473506               0.000000000               0.338319444              -0.081664318               0.000000000               0.361416666              -0.087855130               0.000000000               0.384513888              -0.094045942               0.000000000               0.407611111              -0.100236753               0.000000000               0.430708333              -0.106427565               0.000000000               0.453805555              -0.112618377               0.000000000               0.476902778              -0.118809188               0.000000000               0.500000000              -0.125000000               0.000000000               0.127273065              -0.038607862               0.000000000               0.150568498              -0.047913621               0.000000000               0.173863932              -0.057219379               0.000000000               0.197159365              -0.066525138               0.000000000               0.220454798              -0.075830897               0.000000000               0.243750232              -0.085136655               0.000000000               0.267045665              -0.094442414               0.000000000               0.290341099              -0.103748172               0.000000000               0.313636532              -0.113053931               0.000000000               0.336931966              -0.122359690               0.000000000               0.360227399              -0.131665448               0.000000000               0.383522833              -0.140971207               0.000000000               0.406818266              -0.150276966               0.000000000               0.430113700              -0.159582724               0.000000000               0.453409133              -0.168888483               0.000000000               0.476704567              -0.178194241               0.000000000               0.500000000              -0.187500000               0.000000000               0.122875978              -0.050896897               0.000000000               0.146446229              -0.063340840               0.000000000               0.170016481              -0.075784784               0.000000000               0.193586732              -0.088228728               0.000000000               0.217156983              -0.100672672               0.000000000               0.240727235              -0.113116616               0.000000000               0.264297486              -0.125560560               0.000000000               0.287867738              -0.138004504               0.000000000               0.311437989              -0.150448448               0.000000000               0.335008240              -0.162892392               0.000000000               0.358578492              -0.175336336               0.000000000               0.382148743              -0.187780280               0.000000000               0.405718994              -0.200224224               0.000000000               0.429289246              -0.212668168               0.000000000               0.452859497              -0.225112112               0.000000000               0.476429749              -0.237556056               0.000000000               0.500000000              -0.250000000               0.000000000               0.117295528              -0.062695766               0.000000000               0.141214558              -0.078308531               0.000000000               0.165133587              -0.093921295               0.000000000               0.189052617              -0.109534060               0.000000000               0.212971646              -0.125146824               0.000000000               0.236890676              -0.140759589               0.000000000               0.260809705              -0.156372354               0.000000000               0.284728735              -0.171985118               0.000000000               0.308647764              -0.187597883               0.000000000               0.332566794              -0.203210648               0.000000000               0.356485823              -0.218823412               0.000000000               0.380404853              -0.234436177               0.000000000               0.404323882              -0.250048941               0.000000000               0.428242912              -0.265661706               0.000000000               0.452161941              -0.281274471               0.000000000               0.476080971              -0.296887235               0.000000000               0.500000000              -0.312500000               0.000000000               0.110585458              -0.073890841               0.000000000               0.134923867              -0.092710163               0.000000000               0.159262276              -0.111529486               0.000000000               0.183600685              -0.130348808               0.000000000               0.207939094              -0.149168131               0.000000000               0.232277503              -0.167987453               0.000000000               0.256615912              -0.186806776               0.000000000               0.280954320              -0.205626098               0.000000000               0.305292729              -0.224445420               0.000000000               0.329631138              -0.243264743               0.000000000               0.353969547              -0.262084065               0.000000000               0.378307956              -0.280903388               0.000000000               0.402646365              -0.299722710               0.000000000               0.426984773              -0.318542033               0.000000000               0.451323182              -0.337361355               0.000000000               0.475661591              -0.356180678               0.000000000               0.500000000              -0.375000000               0.000000000               0.102810390              -0.084374307               0.000000000               0.127634741              -0.106444663               0.000000000               0.152459092              -0.128515018               0.000000000               0.177283442              -0.150585374               0.000000000               0.202107793              -0.172655730               0.000000000               0.226932143              -0.194726086               0.000000000               0.251756494              -0.216796442               0.000000000               0.276580845              -0.238866798               0.000000000               0.301405195              -0.260937153               0.000000000               0.326229546              -0.283007509               0.000000000               0.351053896              -0.305077865               0.000000000               0.375878247              -0.327148221               0.000000000               0.400702598              -0.349218577               0.000000000               0.425526948              -0.371288933               0.000000000               0.450351299              -0.393359288               0.000000000               0.475175649              -0.415429644               0.000000000               0.500000000              -0.437500000               0.000000000               0.094045202              -0.094045202               0.000000000               0.119417377              -0.119417377               0.000000000               0.144789552              -0.144789552               0.000000000               0.170161727              -0.170161727               0.000000000               0.195533901              -0.195533901               0.000000000               0.220906076              -0.220906076               0.000000000               0.246278251              -0.246278251               0.000000000               0.271650426              -0.271650426               0.000000000               0.297022601              -0.297022601               0.000000000               0.322394776              -0.322394776               0.000000000               0.347766951              -0.347766951               0.000000000               0.373139126              -0.373139126               0.000000000               0.398511300              -0.398511300               0.000000000               0.423883475              -0.423883475               0.000000000               0.449255650              -0.449255650               0.000000000               0.474627825              -0.474627825               0.000000000               0.500000000              -0.500000000               0.000000000               0.084374307              -0.102810390               0.000000000               0.106444663              -0.127634741               0.000000000               0.128515018              -0.152459092               0.000000000               0.150585374              -0.177283442               0.000000000               0.172655730              -0.202107793               0.000000000               0.194726086              -0.226932143               0.000000000               0.216796442              -0.251756494               0.000000000               0.238866798              -0.276580845               0.000000000               0.260937153              -0.301405195               0.000000000               0.283007509              -0.326229546               0.000000000               0.305077865              -0.351053896               0.000000000               0.327148221              -0.375878247               0.000000000               0.349218577              -0.400702598               0.000000000               0.371288933              -0.425526948               0.000000000               0.393359288              -0.450351299               0.000000000               0.415429644              -0.475175649               0.000000000               0.437500000              -0.500000000               0.000000000               0.073890841              -0.110585458               0.000000000               0.092710163              -0.134923867               0.000000000               0.111529486              -0.159262276               0.000000000               0.130348808              -0.183600685               0.000000000               0.149168131              -0.207939094               0.000000000               0.167987453              -0.232277503               0.000000000               0.186806776              -0.256615912               0.000000000               0.205626098              -0.280954320               0.000000000               0.224445420              -0.305292729               0.000000000               0.243264743              -0.329631138               0.000000000               0.262084065              -0.353969547               0.000000000               0.280903388              -0.378307956               0.000000000               0.299722710              -0.402646365               0.000000000               0.318542033              -0.426984773               0.000000000               0.337361355              -0.451323182               0.000000000               0.356180678              -0.475661591               0.000000000               0.375000000              -0.500000000               0.000000000               0.062695766              -0.117295528               0.000000000               0.078308531              -0.141214558               0.000000000               0.093921295              -0.165133587               0.000000000               0.109534060              -0.189052617               0.000000000               0.125146824              -0.212971646               0.000000000               0.140759589              -0.236890676               0.000000000               0.156372354              -0.260809705               0.000000000               0.171985118              -0.284728735               0.000000000               0.187597883              -0.308647764               0.000000000               0.203210648              -0.332566794               0.000000000               0.218823412              -0.356485823               0.000000000               0.234436177              -0.380404853               0.000000000               0.250048941              -0.404323882               0.000000000               0.265661706              -0.428242912               0.000000000               0.281274471              -0.452161941               0.000000000               0.296887235              -0.476080971               0.000000000               0.312500000              -0.500000000               0.000000000               0.050896897              -0.122875978               0.000000000               0.063340840              -0.146446229               0.000000000               0.075784784              -0.170016481               0.000000000               0.088228728              -0.193586732               0.000000000               0.100672672              -0.217156983               0.000000000               0.113116616              -0.240727235               0.000000000               0.125560560              -0.264297486               0.000000000               0.138004504              -0.287867738               0.000000000               0.150448448              -0.311437989               0.000000000               0.162892392              -0.335008240               0.000000000               0.175336336              -0.358578492               0.000000000               0.187780280              -0.382148743               0.000000000               0.200224224              -0.405718994               0.000000000               0.212668168              -0.429289246               0.000000000               0.225112112              -0.452859497               0.000000000               0.237556056              -0.476429749               0.000000000               0.250000000              -0.500000000               0.000000000               0.038607862              -0.127273065               0.000000000               0.047913621              -0.150568498               0.000000000               0.057219379              -0.173863932               0.000000000               0.066525138              -0.197159365               0.000000000               0.075830897              -0.220454798               0.000000000               0.085136655              -0.243750232               0.000000000               0.094442414              -0.267045665               0.000000000               0.103748172              -0.290341099               0.000000000               0.113053931              -0.313636532               0.000000000               0.122359690              -0.336931966               0.000000000               0.131665448              -0.360227399               0.000000000               0.140971207              -0.383522833               0.000000000               0.150276966              -0.406818266               0.000000000               0.159582724              -0.430113700               0.000000000               0.168888483              -0.453409133               0.000000000               0.178194241              -0.476704567               0.000000000               0.187500000              -0.500000000               0.000000000               0.025947013              -0.130444442               0.000000000               0.032137825              -0.153541665               0.000000000               0.038328636              -0.176638887               0.000000000               0.044519448              -0.199736109               0.000000000               0.050710260              -0.222833332               0.000000000               0.056901071              -0.245930554               0.000000000               0.063091883              -0.269027776               0.000000000               0.069282695              -0.292124999               0.000000000               0.075473506              -0.315222221               0.000000000               0.081664318              -0.338319444               0.000000000               0.087855130              -0.361416666               0.000000000               0.094045942              -0.384513888               0.000000000               0.100236753              -0.407611111               0.000000000               0.106427565              -0.430708333               0.000000000               0.112618377              -0.453805555               0.000000000               0.118809188              -0.476902778               0.000000000               0.125000000              -0.500000000               0.000000000               0.013036280              -0.132359569               0.000000000               0.016127762              -0.155337096               0.000000000               0.019219245              -0.178314623               0.000000000               0.022310727              -0.201292150               0.000000000               0.025402210              -0.224269676               0.000000000               0.028493692              -0.247247203               0.000000000               0.031585175              -0.270224730               0.000000000               0.034676657              -0.293202257               0.000000000               0.037768140              -0.316179784               0.000000000               0.040859622              -0.339157311               0.000000000               0.043951105              -0.362134838               0.000000000               0.047042587              -0.385112365               0.000000000               0.050134070              -0.408089892               0.000000000               0.053225552              -0.431067419               0.000000000               0.056317035              -0.454044946               0.000000000               0.059408517              -0.477022473               0.000000000               0.062500000              -0.500000000               0.000000000               0.000000000              -0.133000000               0.000000000               0.000000000              -0.155937500               0.000000000               0.000000000              -0.178875000               0.000000000               0.000000000              -0.201812500               0.000000000               0.000000000              -0.224750000               0.000000000               0.000000000              -0.247687500               0.000000000               0.000000000              -0.270625000               0.000000000               0.000000000              -0.293562500               0.000000000               0.000000000              -0.316500000               0.000000000               0.000000000              -0.339437500               0.000000000               0.000000000              -0.362375000               0.000000000               0.000000000              -0.385312500               0.000000000               0.000000000              -0.408250000               0.000000000               0.000000000              -0.431187500               0.000000000               0.000000000              -0.454125000               0.000000000               0.000000000              -0.477062500               0.000000000               0.000000000              -0.500000000               0.000000000              -0.133000000               0.000000000               0.000000000              -0.155937500               0.000000000               0.000000000              -0.178875000               0.000000000               0.000000000              -0.201812500               0.000000000               0.000000000              -0.224750000               0.000000000               0.000000000              -0.247687500               0.000000000               0.000000000              -0.270625000               0.000000000               0.000000000              -0.293562500               0.000000000               0.000000000              -0.316500000               0.000000000               0.000000000              -0.339437500               0.000000000               0.000000000              -0.362375000               0.000000000               0.000000000              -0.385312500               0.000000000               0.000000000              -0.408250000               0.000000000               0.000000000              -0.431187500               0.000000000               0.000000000              -0.454125000               0.000000000               0.000000000              -0.477062500               0.000000000               0.000000000              -0.500000000               0.000000000               0.000000000              -0.132359569              -0.013036280               0.000000000              -0.155337096              -0.016127762               0.000000000              -0.178314623              -0.019219245               0.000000000              -0.201292150              -0.022310727               0.000000000              -0.224269676              -0.025402210               0.000000000              -0.247247203              -0.028493692               0.000000000              -0.270224730              -0.031585175               0.000000000              -0.293202257              -0.034676657               0.000000000              -0.316179784              -0.037768140               0.000000000              -0.339157311              -0.040859622               0.000000000              -0.362134838              -0.043951105               0.000000000              -0.385112365              -0.047042587               0.000000000              -0.408089892              -0.050134070               0.000000000              -0.431067419              -0.053225552               0.000000000              -0.454044946              -0.056317035               0.000000000              -0.477022473              -0.059408517               0.000000000              -0.500000000              -0.062500000               0.000000000              -0.130444442              -0.025947013               0.000000000              -0.153541665              -0.032137825               0.000000000              -0.176638887              -0.038328636               0.000000000              -0.199736109              -0.044519448               0.000000000              -0.222833332              -0.050710260               0.000000000              -0.245930554              -0.056901071               0.000000000              -0.269027776              -0.063091883               0.000000000              -0.292124999              -0.069282695               0.000000000              -0.315222221              -0.075473506               0.000000000              -0.338319444              -0.081664318               0.000000000              -0.361416666              -0.087855130               0.000000000              -0.384513888              -0.094045942               0.000000000              -0.407611111              -0.100236753               0.000000000              -0.430708333              -0.106427565               0.000000000              -0.453805555              -0.112618377               0.000000000              -0.476902778              -0.118809188               0.000000000              -0.500000000              -0.125000000               0.000000000              -0.127273065              -0.038607862               0.000000000              -0.150568498              -0.047913621               0.000000000              -0.173863932              -0.057219379               0.000000000              -0.197159365              -0.066525138               0.000000000              -0.220454798              -0.075830897               0.000000000              -0.243750232              -0.085136655               0.000000000              -0.267045665              -0.094442414               0.000000000              -0.290341099              -0.103748172               0.000000000              -0.313636532              -0.113053931               0.000000000              -0.336931966              -0.122359690               0.000000000              -0.360227399              -0.131665448               0.000000000              -0.383522833              -0.140971207               0.000000000              -0.406818266              -0.150276966               0.000000000              -0.430113700              -0.159582724               0.000000000              -0.453409133              -0.168888483               0.000000000              -0.476704567              -0.178194241               0.000000000              -0.500000000              -0.187500000               0.000000000              -0.122875978              -0.050896897               0.000000000              -0.146446229              -0.063340840               0.000000000              -0.170016481              -0.075784784               0.000000000              -0.193586732              -0.088228728               0.000000000              -0.217156983              -0.100672672               0.000000000              -0.240727235              -0.113116616               0.000000000              -0.264297486              -0.125560560               0.000000000              -0.287867738              -0.138004504               0.000000000              -0.311437989              -0.150448448               0.000000000              -0.335008240              -0.162892392               0.000000000              -0.358578492              -0.175336336               0.000000000              -0.382148743              -0.187780280               0.000000000              -0.405718994              -0.200224224               0.000000000              -0.429289246              -0.212668168               0.000000000              -0.452859497              -0.225112112               0.000000000              -0.476429749              -0.237556056               0.000000000              -0.500000000              -0.250000000               0.000000000              -0.117295528              -0.062695766               0.000000000              -0.141214558              -0.078308531               0.000000000              -0.165133587              -0.093921295               0.000000000              -0.189052617              -0.109534060               0.000000000              -0.212971646              -0.125146824               0.000000000              -0.236890676              -0.140759589               0.000000000              -0.260809705              -0.156372354               0.000000000              -0.284728735              -0.171985118               0.000000000              -0.308647764              -0.187597883               0.000000000              -0.332566794              -0.203210648               0.000000000              -0.356485823              -0.218823412               0.000000000              -0.380404853              -0.234436177               0.000000000              -0.404323882              -0.250048941               0.000000000              -0.428242912              -0.265661706               0.000000000              -0.452161941              -0.281274471               0.000000000              -0.476080971              -0.296887235               0.000000000              -0.500000000              -0.312500000               0.000000000              -0.110585458              -0.073890841               0.000000000              -0.134923867              -0.092710163               0.000000000              -0.159262276              -0.111529486               0.000000000              -0.183600685              -0.130348808               0.000000000              -0.207939094              -0.149168131               0.000000000              -0.232277503              -0.167987453               0.000000000              -0.256615912              -0.186806776               0.000000000              -0.280954320              -0.205626098               0.000000000              -0.305292729              -0.224445420               0.000000000              -0.329631138              -0.243264743               0.000000000              -0.353969547              -0.262084065               0.000000000              -0.378307956              -0.280903388               0.000000000              -0.402646365              -0.299722710               0.000000000              -0.426984773              -0.318542033               0.000000000              -0.451323182              -0.337361355               0.000000000              -0.475661591              -0.356180678               0.000000000              -0.500000000              -0.375000000               0.000000000              -0.102810390              -0.084374307               0.000000000              -0.127634741              -0.106444663               0.000000000              -0.152459092              -0.128515018               0.000000000              -0.177283442              -0.150585374               0.000000000              -0.202107793              -0.172655730               0.000000000              -0.226932143              -0.194726086               0.000000000              -0.251756494              -0.216796442               0.000000000              -0.276580845              -0.238866798               0.000000000              -0.301405195              -0.260937153               0.000000000              -0.326229546              -0.283007509               0.000000000              -0.351053896              -0.305077865               0.000000000              -0.375878247              -0.327148221               0.000000000              -0.400702598              -0.349218577               0.000000000              -0.425526948              -0.371288933               0.000000000              -0.450351299              -0.393359288               0.000000000              -0.475175649              -0.415429644               0.000000000              -0.500000000              -0.437500000               0.000000000              -0.094045202              -0.094045202               0.000000000              -0.119417377              -0.119417377               0.000000000              -0.144789552              -0.144789552               0.000000000              -0.170161727              -0.170161727               0.000000000              -0.195533901              -0.195533901               0.000000000              -0.220906076              -0.220906076               0.000000000              -0.246278251              -0.246278251               0.000000000              -0.271650426              -0.271650426               0.000000000              -0.297022601              -0.297022601               0.000000000              -0.322394776              -0.322394776               0.000000000              -0.347766951              -0.347766951               0.000000000              -0.373139126              -0.373139126               0.000000000              -0.398511300              -0.398511300               0.000000000              -0.423883475              -0.423883475               0.000000000              -0.449255650              -0.449255650               0.000000000              -0.474627825              -0.474627825               0.000000000              -0.500000000              -0.500000000               0.000000000              -0.084374307              -0.102810390               0.000000000              -0.106444663              -0.127634741               0.000000000              -0.128515018              -0.152459092               0.000000000              -0.150585374              -0.177283442               0.000000000              -0.172655730              -0.202107793               0.000000000              -0.194726086              -0.226932143               0.000000000              -0.216796442              -0.251756494               0.000000000              -0.238866798              -0.276580845               0.000000000              -0.260937153              -0.301405195               0.000000000              -0.283007509              -0.326229546               0.000000000              -0.305077865              -0.351053896               0.000000000              -0.327148221              -0.375878247               0.000000000              -0.349218577              -0.400702598               0.000000000              -0.371288933              -0.425526948               0.000000000              -0.393359288              -0.450351299               0.000000000              -0.415429644              -0.475175649               0.000000000              -0.437500000              -0.500000000               0.000000000              -0.073890841              -0.110585458               0.000000000              -0.092710163              -0.134923867               0.000000000              -0.111529486              -0.159262276               0.000000000              -0.130348808              -0.183600685               0.000000000              -0.149168131              -0.207939094               0.000000000              -0.167987453              -0.232277503               0.000000000              -0.186806776              -0.256615912               0.000000000              -0.205626098              -0.280954320               0.000000000              -0.224445420              -0.305292729               0.000000000              -0.243264743              -0.329631138               0.000000000              -0.262084065              -0.353969547               0.000000000              -0.280903388              -0.378307956               0.000000000              -0.299722710              -0.402646365               0.000000000              -0.318542033              -0.426984773               0.000000000              -0.337361355              -0.451323182               0.000000000              -0.356180678              -0.475661591               0.000000000              -0.375000000              -0.500000000               0.000000000              -0.062695766              -0.117295528               0.000000000              -0.078308531              -0.141214558               0.000000000              -0.093921295              -0.165133587               0.000000000              -0.109534060              -0.189052617               0.000000000              -0.125146824              -0.212971646               0.000000000              -0.140759589              -0.236890676               0.000000000              -0.156372354              -0.260809705               0.000000000              -0.171985118              -0.284728735               0.000000000              -0.187597883              -0.308647764               0.000000000              -0.203210648              -0.332566794               0.000000000              -0.218823412              -0.356485823               0.000000000              -0.234436177              -0.380404853               0.000000000              -0.250048941              -0.404323882               0.000000000              -0.265661706              -0.428242912               0.000000000              -0.281274471              -0.452161941               0.000000000              -0.296887235              -0.476080971               0.000000000              -0.312500000              -0.500000000               0.000000000              -0.050896897              -0.122875978               0.000000000              -0.063340840              -0.146446229               0.000000000              -0.075784784              -0.170016481               0.000000000              -0.088228728              -0.193586732               0.000000000              -0.100672672              -0.217156983               0.000000000              -0.113116616              -0.240727235               0.000000000              -0.125560560              -0.264297486               0.000000000              -0.138004504              -0.287867738               0.000000000              -0.150448448              -0.311437989               0.000000000              -0.162892392              -0.335008240               0.000000000              -0.175336336              -0.358578492               0.000000000              -0.187780280              -0.382148743               0.000000000              -0.200224224              -0.405718994               0.000000000              -0.212668168              -0.429289246               0.000000000              -0.225112112              -0.452859497               0.000000000              -0.237556056              -0.476429749               0.000000000              -0.250000000              -0.500000000               0.000000000              -0.038607862              -0.127273065               0.000000000              -0.047913621              -0.150568498               0.000000000              -0.057219379              -0.173863932               0.000000000              -0.066525138              -0.197159365               0.000000000              -0.075830897              -0.220454798               0.000000000              -0.085136655              -0.243750232               0.000000000              -0.094442414              -0.267045665               0.000000000              -0.103748172              -0.290341099               0.000000000              -0.113053931              -0.313636532               0.000000000              -0.122359690              -0.336931966               0.000000000              -0.131665448              -0.360227399               0.000000000              -0.140971207              -0.383522833               0.000000000              -0.150276966              -0.406818266               0.000000000              -0.159582724              -0.430113700               0.000000000              -0.168888483              -0.453409133               0.000000000              -0.178194241              -0.476704567               0.000000000              -0.187500000              -0.500000000               0.000000000              -0.025947013              -0.130444442               0.000000000              -0.032137825              -0.153541665               0.000000000              -0.038328636              -0.176638887               0.000000000              -0.044519448              -0.199736109               0.000000000              -0.050710260              -0.222833332               0.000000000              -0.056901071              -0.245930554               0.000000000              -0.063091883              -0.269027776               0.000000000              -0.069282695              -0.292124999               0.000000000              -0.075473506              -0.315222221               0.000000000              -0.081664318              -0.338319444               0.000000000              -0.087855130              -0.361416666               0.000000000              -0.094045942              -0.384513888               0.000000000              -0.100236753              -0.407611111               0.000000000              -0.106427565              -0.430708333               0.000000000              -0.112618377              -0.453805555               0.000000000              -0.118809188              -0.476902778               0.000000000              -0.125000000              -0.500000000               0.000000000              -0.013036280              -0.132359569               0.000000000              -0.016127762              -0.155337096               0.000000000              -0.019219245              -0.178314623               0.000000000              -0.022310727              -0.201292150               0.000000000              -0.025402210              -0.224269676               0.000000000              -0.028493692              -0.247247203               0.000000000              -0.031585175              -0.270224730               0.000000000              -0.034676657              -0.293202257               0.000000000              -0.037768140              -0.316179784               0.000000000              -0.040859622              -0.339157311               0.000000000              -0.043951105              -0.362134838               0.000000000              -0.047042587              -0.385112365               0.000000000              -0.050134070              -0.408089892               0.000000000              -0.053225552              -0.431067419               0.000000000              -0.056317035              -0.454044946               0.000000000              -0.059408517              -0.477022473               0.000000000              -0.062500000              -0.500000000               0.000000000               0.000000000              -0.133000000               0.000000000               0.000000000              -0.155937500               0.000000000               0.000000000              -0.178875000               0.000000000               0.000000000              -0.201812500               0.000000000               0.000000000              -0.224750000               0.000000000               0.000000000              -0.247687500               0.000000000               0.000000000              -0.270625000               0.000000000               0.000000000              -0.293562500               0.000000000               0.000000000              -0.316500000               0.000000000               0.000000000              -0.339437500               0.000000000               0.000000000              -0.362375000               0.000000000               0.000000000              -0.385312500               0.000000000               0.000000000              -0.408250000               0.000000000               0.000000000              -0.431187500               0.000000000               0.000000000              -0.454125000               0.000000000               0.000000000              -0.477062500               0.000000000               0.000000000              -0.500000000               0.000000000              -0.133000000               0.000000000               0.000000000              -0.155937500               0.000000000               0.000000000              -0.178875000               0.000000000               0.000000000              -0.201812500               0.000000000               0.000000000              -0.224750000               0.000000000               0.000000000              -0.247687500               0.000000000               0.000000000              -0.270625000               0.000000000               0.000000000              -0.293562500               0.000000000               0.000000000              -0.316500000               0.000000000               0.000000000              -0.339437500               0.000000000               0.000000000              -0.362375000               0.000000000               0.000000000              -0.385312500               0.000000000               0.000000000              -0.408250000               0.000000000               0.000000000              -0.431187500               0.000000000               0.000000000              -0.454125000               0.000000000               0.000000000              -0.477062500               0.000000000               0.000000000              -0.500000000               0.000000000               0.000000000              -0.132359569               0.013036280               0.000000000              -0.155337096               0.016127762               0.000000000              -0.178314623               0.019219245               0.000000000              -0.201292150               0.022310727               0.000000000              -0.224269676               0.025402210               0.000000000              -0.247247203               0.028493692               0.000000000              -0.270224730               0.031585175               0.000000000              -0.293202257               0.034676657               0.000000000              -0.316179784               0.037768140               0.000000000              -0.339157311               0.040859622               0.000000000              -0.362134838               0.043951105               0.000000000              -0.385112365               0.047042587               0.000000000              -0.408089892               0.050134070               0.000000000              -0.431067419               0.053225552               0.000000000              -0.454044946               0.056317035               0.000000000              -0.477022473               0.059408517               0.000000000              -0.500000000               0.062500000               0.000000000              -0.130444442               0.025947013               0.000000000              -0.153541665               0.032137825               0.000000000              -0.176638887               0.038328636               0.000000000              -0.199736109               0.044519448               0.000000000              -0.222833332               0.050710260               0.000000000              -0.245930554               0.056901071               0.000000000              -0.269027776               0.063091883               0.000000000              -0.292124999               0.069282695               0.000000000              -0.315222221               0.075473506               0.000000000              -0.338319444               0.081664318               0.000000000              -0.361416666               0.087855130               0.000000000              -0.384513888               0.094045942               0.000000000              -0.407611111               0.100236753               0.000000000              -0.430708333               0.106427565               0.000000000              -0.453805555               0.112618377               0.000000000              -0.476902778               0.118809188               0.000000000              -0.500000000               0.125000000               0.000000000              -0.127273065               0.038607862               0.000000000              -0.150568498               0.047913621               0.000000000              -0.173863932               0.057219379               0.000000000              -0.197159365               0.066525138               0.000000000              -0.220454798               0.075830897               0.000000000              -0.243750232               0.085136655               0.000000000              -0.267045665               0.094442414               0.000000000              -0.290341099               0.103748172               0.000000000              -0.313636532               0.113053931               0.000000000              -0.336931966               0.122359690               0.000000000              -0.360227399               0.131665448               0.000000000              -0.383522833               0.140971207               0.000000000              -0.406818266               0.150276966               0.000000000              -0.430113700               0.159582724               0.000000000              -0.453409133               0.168888483               0.000000000              -0.476704567               0.178194241               0.000000000              -0.500000000               0.187500000               0.000000000              -0.122875978               0.050896897               0.000000000              -0.146446229               0.063340840               0.000000000              -0.170016481               0.075784784               0.000000000              -0.193586732               0.088228728               0.000000000              -0.217156983               0.100672672               0.000000000              -0.240727235               0.113116616               0.000000000              -0.264297486               0.125560560               0.000000000              -0.287867738               0.138004504               0.000000000              -0.311437989               0.150448448               0.000000000              -0.335008240               0.162892392               0.000000000              -0.358578492               0.175336336               0.000000000              -0.382148743               0.187780280               0.000000000              -0.405718994               0.200224224               0.000000000              -0.429289246               0.212668168               0.000000000              -0.452859497               0.225112112               0.000000000              -0.476429749               0.237556056               0.000000000              -0.500000000               0.250000000               0.000000000              -0.117295528               0.062695766               0.000000000              -0.141214558               0.078308531               0.000000000              -0.165133587               0.093921295               0.000000000              -0.189052617               0.109534060               0.000000000              -0.212971646               0.125146824               0.000000000              -0.236890676               0.140759589               0.000000000              -0.260809705               0.156372354               0.000000000              -0.284728735               0.171985118               0.000000000              -0.308647764               0.187597883               0.000000000              -0.332566794               0.203210648               0.000000000              -0.356485823               0.218823412               0.000000000              -0.380404853               0.234436177               0.000000000              -0.404323882               0.250048941               0.000000000              -0.428242912               0.265661706               0.000000000              -0.452161941               0.281274471               0.000000000              -0.476080971               0.296887235               0.000000000              -0.500000000               0.312500000               0.000000000              -0.110585458               0.073890841               0.000000000              -0.134923867               0.092710163               0.000000000              -0.159262276               0.111529486               0.000000000              -0.183600685               0.130348808               0.000000000              -0.207939094               0.149168131               0.000000000              -0.232277503               0.167987453               0.000000000              -0.256615912               0.186806776               0.000000000              -0.280954320               0.205626098               0.000000000              -0.305292729               0.224445420               0.000000000              -0.329631138               0.243264743               0.000000000              -0.353969547               0.262084065               0.000000000              -0.378307956               0.280903388               0.000000000              -0.402646365               0.299722710               0.000000000              -0.426984773               0.318542033               0.000000000              -0.451323182               0.337361355               0.000000000              -0.475661591               0.356180678               0.000000000              -0.500000000               0.375000000               0.000000000              -0.102810390               0.084374307               0.000000000              -0.127634741               0.106444663               0.000000000              -0.152459092               0.128515018               0.000000000              -0.177283442               0.150585374               0.000000000              -0.202107793               0.172655730               0.000000000              -0.226932143               0.194726086               0.000000000              -0.251756494               0.216796442               0.000000000              -0.276580845               0.238866798               0.000000000              -0.301405195               0.260937153               0.000000000              -0.326229546               0.283007509               0.000000000              -0.351053896               0.305077865               0.000000000              -0.375878247               0.327148221               0.000000000              -0.400702598               0.349218577               0.000000000              -0.425526948               0.371288933               0.000000000              -0.450351299               0.393359288               0.000000000              -0.475175649               0.415429644               0.000000000              -0.500000000               0.437500000               0.000000000              -0.094045202               0.094045202               0.000000000              -0.119417377               0.119417377               0.000000000              -0.144789552               0.144789552               0.000000000              -0.170161727               0.170161727               0.000000000              -0.195533901               0.195533901               0.000000000              -0.220906076               0.220906076               0.000000000              -0.246278251               0.246278251               0.000000000              -0.271650426               0.271650426               0.000000000              -0.297022601               0.297022601               0.000000000              -0.322394776               0.322394776               0.000000000              -0.347766951               0.347766951               0.000000000              -0.373139126               0.373139126               0.000000000              -0.398511300               0.398511300               0.000000000              -0.423883475               0.423883475               0.000000000              -0.449255650               0.449255650               0.000000000              -0.474627825               0.474627825               0.000000000              -0.500000000               0.500000000               0.000000000              -0.084374307               0.102810390               0.000000000              -0.106444663               0.127634741               0.000000000              -0.128515018               0.152459092               0.000000000              -0.150585374               0.177283442               0.000000000              -0.172655730               0.202107793               0.000000000              -0.194726086               0.226932143               0.000000000              -0.216796442               0.251756494               0.000000000              -0.238866798               0.276580845               0.000000000              -0.260937153               0.301405195               0.000000000              -0.283007509               0.326229546               0.000000000              -0.305077865               0.351053896               0.000000000              -0.327148221               0.375878247               0.000000000              -0.349218577               0.400702598               0.000000000              -0.371288933               0.425526948               0.000000000              -0.393359288               0.450351299               0.000000000              -0.415429644               0.475175649               0.000000000              -0.437500000               0.500000000               0.000000000              -0.073890841               0.110585458               0.000000000              -0.092710163               0.134923867               0.000000000              -0.111529486               0.159262276               0.000000000              -0.130348808               0.183600685               0.000000000              -0.149168131               0.207939094               0.000000000              -0.167987453               0.232277503               0.000000000              -0.186806776               0.256615912               0.000000000              -0.205626098               0.280954320               0.000000000              -0.224445420               0.305292729               0.000000000              -0.243264743               0.329631138               0.000000000              -0.262084065               0.353969547               0.000000000              -0.280903388               0.378307956               0.000000000              -0.299722710               0.402646365               0.000000000              -0.318542033               0.426984773               0.000000000              -0.337361355               0.451323182               0.000000000              -0.356180678               0.475661591               0.000000000              -0.375000000               0.500000000               0.000000000              -0.062695766               0.117295528               0.000000000              -0.078308531               0.141214558               0.000000000              -0.093921295               0.165133587               0.000000000              -0.109534060               0.189052617               0.000000000              -0.125146824               0.212971646               0.000000000              -0.140759589               0.236890676               0.000000000              -0.156372354               0.260809705               0.000000000              -0.171985118               0.284728735               0.000000000              -0.187597883               0.308647764               0.000000000              -0.203210648               0.332566794               0.000000000              -0.218823412               0.356485823               0.000000000              -0.234436177               0.380404853               0.000000000              -0.250048941               0.404323882               0.000000000              -0.265661706               0.428242912               0.000000000              -0.281274471               0.452161941               0.000000000              -0.296887235               0.476080971               0.000000000              -0.312500000               0.500000000               0.000000000              -0.050896897               0.122875978               0.000000000              -0.063340840               0.146446229               0.000000000              -0.075784784               0.170016481               0.000000000              -0.088228728               0.193586732               0.000000000              -0.100672672               0.217156983               0.000000000              -0.113116616               0.240727235               0.000000000              -0.125560560               0.264297486               0.000000000              -0.138004504               0.287867738               0.000000000              -0.150448448               0.311437989               0.000000000              -0.162892392               0.335008240               0.000000000              -0.175336336               0.358578492               0.000000000              -0.187780280               0.382148743               0.000000000              -0.200224224               0.405718994               0.000000000              -0.212668168               0.429289246               0.000000000              -0.225112112               0.452859497               0.000000000              -0.237556056               0.476429749               0.000000000              -0.250000000               0.500000000               0.000000000              -0.038607862               0.127273065               0.000000000              -0.047913621               0.150568498               0.000000000              -0.057219379               0.173863932               0.000000000              -0.066525138               0.197159365               0.000000000              -0.075830897               0.220454798               0.000000000              -0.085136655               0.243750232               0.000000000              -0.094442414               0.267045665               0.000000000              -0.103748172               0.290341099               0.000000000              -0.113053931               0.313636532               0.000000000              -0.122359690               0.336931966               0.000000000              -0.131665448               0.360227399               0.000000000              -0.140971207               0.383522833               0.000000000              -0.150276966               0.406818266               0.000000000              -0.159582724               0.430113700               0.000000000              -0.168888483               0.453409133               0.000000000              -0.178194241               0.476704567               0.000000000              -0.187500000               0.500000000               0.000000000              -0.025947013               0.130444442               0.000000000              -0.032137825               0.153541665               0.000000000              -0.038328636               0.176638887               0.000000000              -0.044519448               0.199736109               0.000000000              -0.050710260               0.222833332               0.000000000              -0.056901071               0.245930554               0.000000000              -0.063091883               0.269027776               0.000000000              -0.069282695               0.292124999               0.000000000              -0.075473506               0.315222221               0.000000000              -0.081664318               0.338319444               0.000000000              -0.087855130               0.361416666               0.000000000              -0.094045942               0.384513888               0.000000000              -0.100236753               0.407611111               0.000000000              -0.106427565               0.430708333               0.000000000              -0.112618377               0.453805555               0.000000000              -0.118809188               0.476902778               0.000000000              -0.125000000               0.500000000               0.000000000              -0.013036280               0.132359569               0.000000000              -0.016127762               0.155337096               0.000000000              -0.019219245               0.178314623               0.000000000              -0.022310727               0.201292150               0.000000000              -0.025402210               0.224269676               0.000000000              -0.028493692               0.247247203               0.000000000              -0.031585175               0.270224730               0.000000000              -0.034676657               0.293202257               0.000000000              -0.037768140               0.316179784               0.000000000              -0.040859622               0.339157311               0.000000000              -0.043951105               0.362134838               0.000000000              -0.047042587               0.385112365               0.000000000              -0.050134070               0.408089892               0.000000000              -0.053225552               0.431067419               0.000000000              -0.056317035               0.454044946               0.000000000              -0.059408517               0.477022473               0.000000000              -0.062500000               0.500000000               0.000000000               0.000000000               0.133000000               0.000000000               0.000000000               0.155937500               0.000000000               0.000000000               0.178875000               0.000000000               0.000000000               0.201812500               0.000000000               0.000000000               0.224750000               0.000000000               0.000000000               0.247687500               0.000000000               0.000000000               0.270625000               0.000000000               0.000000000               0.293562500               0.000000000               0.000000000               0.316500000               0.000000000               0.000000000               0.339437500               0.000000000               0.000000000               0.362375000               0.000000000               0.000000000               0.385312500               0.000000000               0.000000000               0.408250000               0.000000000               0.000000000               0.431187500               0.000000000               0.000000000               0.454125000               0.000000000               0.000000000               0.477062500               0.000000000               0.000000000               0.500000000               0.000000000 </DataArray>
</Points>
<Cells>
<DataArray type="Int32"                                    Name="connectivity"                                                      NumberOfComponents=" 1" format="ascii">
         0          1         18         17          1          2         19         18          2          3         20         19          3          4         21         20          4          5         22         21          5          6         23         22          6          7         24         23          7          8         25         24          8          9         26         25          9         10         27         26         10         11         28         27         11         12         29         28         12         13         30         29         13         14         31         30         14         15         32         31         15         16         33         32         17         18         35         34         18         19         36         35         19         20         37         36         20         21         38         37         21         22         39         38         22         23         40         39         23         24         41         40         24         25         42         41         25         26         43         42         26         27         44         43         27         28         45         44         28         29         46         45         29         30         47         46         30         31         48         47         31         32         49         48         32         33         50         49         34         35         52         51         35         36         53         52         36         37         54         53         37         38         55         54         38         39         56         55         39         40         57         56         40         41         58         57         41         42         59         58         42         43         60         59         43         44         61         60         44         45         62         61         45         46         63         62         46         47         64         63         47         48         65         64         48         49         66         65         49         50         67         66         51         52         69         68         52         53         70         69         53         54         71         70         54         55         72         71         55         56         73         72         56         57         74         73         57         58         75         74         58         59         76         75         59         60         77         76         60         61         78         77         61         62         79         78         62         63         80         79         63         64         81         80         64         65         82         81         65         66         83         82         66         67         84         83         68         69         86         85         69         70         87         86         70         71         88         87         71         72         89         88         72         73         90         89         73         74         91         90         74         75         92         91         75         76         93         92         76         77         94         93         77         78         95         94         78         79         96         95         79         80         97         96         80         81         98         97         81         82         99         98         82         83        100         99         83         84        101        100         85         86        103        102         86         87        104        103         87         88        105        104         88         89        106        105         89         90        107        106         90         91        108        107         91         92        109        108         92         93        110        109         93         94        111        110         94         95        112        111         95         96        113        112         96         97        114        113         97         98        115        114         98         99        116        115         99        100        117        116        100        101        118        117        102        103        120        119        103        104        121        120        104        105        122        121        105        106        123        122        106        107        124        123        107        108        125        124        108        109        126        125        109        110        127        126        110        111        128        127        111        112        129        128        112        113        130        129        113        114        131        130        114        115        132        131        115        116        133        132        116        117        134        133        117        118        135        134        119        120        137        136        120        121        138        137        121        122        139        138        122        123        140        139        123        124        141        140        124        125        142        141        125        126        143        142        126        127        144        143        127        128        145        144        128        129        146        145        129        130        147        146        130        131        148        147        131        132        149        148        132        133        150        149        133        134        151        150        134        135        152        151        136        137        154        153        137        138        155        154        138        139        156        155        139        140        157        156        140        141        158        157        141        142        159        158        142        143        160        159        143        144        161        160        144        145        162        161        145        146        163        162        146        147        164        163        147        148        165        164        148        149        166        165        149        150        167        166        150        151        168        167        151        152        169        168        153        154        171        170        154        155        172        171        155        156        173        172        156        157        174        173        157        158        175        174        158        159        176        175        159        160        177        176        160        161        178        177        161        162        179        178        162        163        180        179        163        164        181        180        164        165        182        181        165        166        183        182        166        167        184        183        167        168        185        184        168        169        186        185        170        171        188        187        171        172        189        188        172        173        190        189        173        174        191        190        174        175        192        191        175        176        193        192        176        177        194        193        177        178        195        194        178        179        196        195        179        180        197        196        180        181        198        197        181        182        199        198        182        183        200        199        183        184        201        200        184        185        202        201        185        186        203        202        187        188        205        204        188        189        206        205        189        190        207        206        190        191        208        207        191        192        209        208        192        193        210        209        193        194        211        210        194        195        212        211        195        196        213        212        196        197        214        213        197        198        215        214        198        199        216        215        199        200        217        216        200        201        218        217        201        202        219        218        202        203        220        219        204        205        222        221        205        206        223        222        206        207        224        223        207        208        225        224        208        209        226        225        209        210        227        226        210        211        228        227        211        212        229        228        212        213        230        229        213        214        231        230        214        215        232        231        215        216        233        232        216        217        234        233        217        218        235        234        218        219        236        235        219        220        237        236        221        222        239        238        222        223        240        239        223        224        241        240        224        225        242        241        225        226        243        242        226        227        244        243        227        228        245        244        228        229        246        245        229        230        247        246        230        231        248        247        231        232        249        248        232        233        250        249        233        234        251        250        234        235        252        251        235        236        253        252        236        237        254        253        238        239        256        255        239        240        257        256        240        241        258        257        241        242        259        258        242        243        260        259        243        244        261        260        244        245        262        261        245        246        263        262        246        247        264        263        247        248        265        264        248        249        266        265        249        250        267        266        250        251        268        267        251        252        269        268        252        253        270        269        253        254        271        270        255        256        273        272        256        257        274        273        257        258        275        274        258        259        276        275        259        260        277        276        260        261        278        277        261        262        279        278        262        263        280        279        263        264        281        280        264        265        282        281        265        266        283        282        266        267        284        283        267        268        285        284        268        269        286        285        269        270        287        286        270        271        288        287        306        307          1          0        307        308          2          1        308        309          3          2        309        310          4          3        310        311          5          4        311        312          6          5        312        313          7          6        313        314          8          7        314        315          9          8        315        316         10          9        316        317         11         10        317        318         12         11        318        319         13         12        319        320         14         13        320        321         15         14        321        322         16         15        323        324        307        306        324        325        308        307        325        326        309        308        326        327        310        309        327        328        311        310        328        329        312        311        329        330        313        312        330        331        314        313        331        332        315        314        332        333        316        315        333        334        317        316        334        335        318        317        335        336        319        318        336        337        320        319        337        338        321        320        338        339        322        321        340        341        324        323        341        342        325        324        342        343        326        325        343        344        327        326        344        345        328        327        345        346        329        328        346        347        330        329        347        348        331        330        348        349        332        331        349        350        333        332        350        351        334        333        351        352        335        334        352        353        336        335        353        354        337        336        354        355        338        337        355        356        339        338        357        358        341        340        358        359        342        341        359        360        343        342        360        361        344        343        361        362        345        344        362        363        346        345        363        364        347        346        364        365        348        347        365        366        349        348        366        367        350        349        367        368        351        350        368        369        352        351        369        370        353        352        370        371        354        353        371        372        355        354        372        373        356        355        374        375        358        357        375        376        359        358        376        377        360        359        377        378        361        360        378        379        362        361        379        380        363        362        380        381        364        363        381        382        365        364        382        383        366        365        383        384        367        366        384        385        368        367        385        386        369        368        386        387        370        369        387        388        371        370        388        389        372        371        389        390        373        372        391        392        375        374        392        393        376        375        393        394        377        376        394        395        378        377        395        396        379        378        396        397        380        379        397        398        381        380        398        399        382        381        399        400        383        382        400        401        384        383        401        402        385        384        402        403        386        385        403        404        387        386        404        405        388        387        405        406        389        388        406        407        390        389        408        409        392        391        409        410        393        392        410        411        394        393        411        412        395        394        412        413        396        395        413        414        397        396        414        415        398        397        415        416        399        398        416        417        400        399        417        418        401        400        418        419        402        401        419        420        403        402        420        421        404        403        421        422        405        404        422        423        406        405        423        424        407        406        425        426        409        408        426        427        410        409        427        428        411        410        428        429        412        411        429        430        413        412        430        431        414        413        431        432        415        414        432        433        416        415        433        434        417        416        434        435        418        417        435        436        419        418        436        437        420        419        437        438        421        420        438        439        422        421        439        440        423        422        440        441        424        423        442        443        426        425        443        444        427        426        444        445        428        427        445        446        429        428        446        447        430        429        447        448        431        430        448        449        432        431        449        450        433        432        450        451        434        433        451        452        435        434        452        453        436        435        453        454        437        436        454        455        438        437        455        456        439        438        456        457        440        439        457        458        441        440        459        460        443        442        460        461        444        443        461        462        445        444        462        463        446        445        463        464        447        446        464        465        448        447        465        466        449        448        466        467        450        449        467        468        451        450        468        469        452        451        469        470        453        452        470        471        454        453        471        472        455        454        472        473        456        455        473        474        457        456        474        475        458        457        476        477        460        459        477        478        461        460        478        479        462        461        479        480        463        462        480        481        464        463        481        482        465        464        482        483        466        465        483        484        467        466        484        485        468        467        485        486        469        468        486        487        470        469        487        488        471        470        488        489        472        471        489        490        473        472        490        491        474        473        491        492        475        474        493        494        477        476        494        495        478        477        495        496        479        478        496        497        480        479        497        498        481        480        498        499        482        481        499        500        483        482        500        501        484        483        501        502        485        484        502        503        486        485        503        504        487        486        504        505        488        487        505        506        489        488        506        507        490        489        507        508        491        490        508        509        492        491        510        511        494        493        511        512        495        494        512        513        496        495        513        514        497        496        514        515        498        497        515        516        499        498        516        517        500        499        517        518        501        500        518        519        502        501        519        520        503        502        520        521        504        503        521        522        505        504        522        523        506        505        523        524        507        506        524        525        508        507        525        526        509        508        527        528        511        510        528        529        512        511        529        530        513        512        530        531        514        513        531        532        515        514        532        533        516        515        533        534        517        516        534        535        518        517        535        536        519        518        536        537        520        519        537        538        521        520        538        539        522        521        539        540        523        522        540        541        524        523        541        542        525        524        542        543        526        525        544        545        528        527        545        546        529        528        546        547        530        529        547        548        531        530        548        549        532        531        549        550        533        532        550        551        534        533        551        552        535        534        552        553        536        535        553        554        537        536        554        555        538        537        555        556        539        538        556        557        540        539        557        558        541        540        558        559        542        541        559        560        543        542        561        562        545        544        562        563        546        545        563        564        547        546        564        565        548        547        565        566        549        548        566        567        550        549        567        568        551        550        568        569        552        551        569        570        553        552        570        571        554        553        571        572        555        554        572        573        556        555        573        574        557        556        574        575        558        557        575        576        559        558        576        577        560        559        578        579        596        595        579        580        597        596        580        581        598        597        581        582        599        598        582        583        600        599        583        584        601        600        584        585        602        601        585        586        603        602        586        587        604        603        587        588        605        604        588        589        606        605        589        590        607        606        590        591        608        607        591        592        609        608        592        593        610        609        593        594        611        610        595        596        613        612        596        597        614        613        597        598        615        614        598        599        616        615        599        600        617        616        600        601        618        617        601        602        619        618        602        603        620        619        603        604        621        620        604        605        622        621        605        606        623        622        606        607        624        623        607        608        625        624        608        609        626        625        609        610        627        626        610        611        628        627        612        613        630        629        613        614        631        630        614        615        632        631        615        616        633        632        616        617        634        633        617        618        635        634        618        619        636        635        619        620        637        636        620        621        638        637        621        622        639        638        622        623        640        639        623        624        641        640        624        625        642        641        625        626        643        642        626        627        644        643        627        628        645        644        629        630        647        646        630        631        648        647        631        632        649        648        632        633        650        649        633        634        651        650        634        635        652        651        635        636        653        652        636        637        654        653        637        638        655        654        638        639        656        655        639        640        657        656        640        641        658        657        641        642        659        658        642        643        660        659        643        644        661        660        644        645        662        661        646        647        664        663        647        648        665        664        648        649        666        665        649        650        667        666        650        651        668        667        651        652        669        668        652        653        670        669        653        654        671        670        654        655        672        671        655        656        673        672        656        657        674        673        657        658        675        674        658        659        676        675        659        660        677        676        660        661        678        677        661        662        679        678        663        664        681        680        664        665        682        681        665        666        683        682        666        667        684        683        667        668        685        684        668        669        686        685        669        670        687        686        670        671        688        687        671        672        689        688        672        673        690        689        673        674        691        690        674        675        692        691        675        676        693        692        676        677        694        693        677        678        695        694        678        679        696        695        680        681        698        697        681        682        699        698        682        683        700        699        683        684        701        700        684        685        702        701        685        686        703        702        686        687        704        703        687        688        705        704        688        689        706        705        689        690        707        706        690        691        708        707        691        692        709        708        692        693        710        709        693        694        711        710        694        695        712        711        695        696        713        712        697        698        715        714        698        699        716        715        699        700        717        716        700        701        718        717        701        702        719        718        702        703        720        719        703        704        721        720        704        705        722        721        705        706        723        722        706        707        724        723        707        708        725        724        708        709        726        725        709        710        727        726        710        711        728        727        711        712        729        728        712        713        730        729        714        715        732        731        715        716        733        732        716        717        734        733        717        718        735        734        718        719        736        735        719        720        737        736        720        721        738        737        721        722        739        738        722        723        740        739        723        724        741        740        724        725        742        741        725        726        743        742        726        727        744        743        727        728        745        744        728        729        746        745        729        730        747        746        731        732        749        748        732        733        750        749        733        734        751        750        734        735        752        751        735        736        753        752        736        737        754        753        737        738        755        754        738        739        756        755        739        740        757        756        740        741        758        757        741        742        759        758        742        743        760        759        743        744        761        760        744        745        762        761        745        746        763        762        746        747        764        763        748        749        766        765        749        750        767        766        750        751        768        767        751        752        769        768        752        753        770        769        753        754        771        770        754        755        772        771        755        756        773        772        756        757        774        773        757        758        775        774        758        759        776        775        759        760        777        776        760        761        778        777        761        762        779        778        762        763        780        779        763        764        781        780        765        766        783        782        766        767        784        783        767        768        785        784        768        769        786        785        769        770        787        786        770        771        788        787        771        772        789        788        772        773        790        789        773        774        791        790        774        775        792        791        775        776        793        792        776        777        794        793        777        778        795        794        778        779        796        795        779        780        797        796        780        781        798        797        782        783        800        799        783        784        801        800        784        785        802        801        785        786        803        802        786        787        804        803        787        788        805        804        788        789        806        805        789        790        807        806        790        791        808        807        791        792        809        808        792        793        810        809        793        794        811        810        794        795        812        811        795        796        813        812        796        797        814        813        797        798        815        814        799        800        817        816        800        801        818        817        801        802        819        818        802        803        820        819        803        804        821        820        804        805        822        821        805        806        823        822        806        807        824        823        807        808        825        824        808        809        826        825        809        810        827        826        810        811        828        827        811        812        829        828        812        813        830        829        813        814        831        830        814        815        832        831        816        817        834        833        817        818        835        834        818        819        836        835        819        820        837        836        820        821        838        837        821        822        839        838        822        823        840        839        823        824        841        840        824        825        842        841        825        826        843        842        826        827        844        843        827        828        845        844        828        829        846        845        829        830        847        846        830        831        848        847        831        832        849        848        833        834        562        561        834        835        563        562        835        836        564        563        836        837        565        564        837        838        566        565        838        839        567        566        839        840        568        567        840        841        569        568        841        842        570        569        842        843        571        570        843        844        572        571        844        845        573        572        845        846        574        573        846        847        575        574        847        848        576        575        848        849        577        576        884        885        579        578        885        886        580        579        886        887        581        580        887        888        582        581        888        889        583        582        889        890        584        583        890        891        585        584        891        892        586        585        892        893        587        586        893        894        588        587        894        895        589        588        895        896        590        589        896        897        591        590        897        898        592        591        898        899        593        592        899        900        594        593        901        902        885        884        902        903        886        885        903        904        887        886        904        905        888        887        905        906        889        888        906        907        890        889        907        908        891        890        908        909        892        891        909        910        893        892        910        911        894        893        911        912        895        894        912        913        896        895        913        914        897        896        914        915        898        897        915        916        899        898        916        917        900        899        918        919        902        901        919        920        903        902        920        921        904        903        921        922        905        904        922        923        906        905        923        924        907        906        924        925        908        907        925        926        909        908        926        927        910        909        927        928        911        910        928        929        912        911        929        930        913        912        930        931        914        913        931        932        915        914        932        933        916        915        933        934        917        916        935        936        919        918        936        937        920        919        937        938        921        920        938        939        922        921        939        940        923        922        940        941        924        923        941        942        925        924        942        943        926        925        943        944        927        926        944        945        928        927        945        946        929        928        946        947        930        929        947        948        931        930        948        949        932        931        949        950        933        932        950        951        934        933        952        953        936        935        953        954        937        936        954        955        938        937        955        956        939        938        956        957        940        939        957        958        941        940        958        959        942        941        959        960        943        942        960        961        944        943        961        962        945        944        962        963        946        945        963        964        947        946        964        965        948        947        965        966        949        948        966        967        950        949        967        968        951        950        969        970        953        952        970        971        954        953        971        972        955        954        972        973        956        955        973        974        957        956        974        975        958        957        975        976        959        958        976        977        960        959        977        978        961        960        978        979        962        961        979        980        963        962        980        981        964        963        981        982        965        964        982        983        966        965        983        984        967        966        984        985        968        967        986        987        970        969        987        988        971        970        988        989        972        971        989        990        973        972        990        991        974        973        991        992        975        974        992        993        976        975        993        994        977        976        994        995        978        977        995        996        979        978        996        997        980        979        997        998        981        980        998        999        982        981        999       1000        983        982       1000       1001        984        983       1001       1002        985        984       1003       1004        987        986       1004       1005        988        987       1005       1006        989        988       1006       1007        990        989       1007       1008        991        990       1008       1009        992        991       1009       1010        993        992       1010       1011        994        993       1011       1012        995        994       1012       1013        996        995       1013       1014        997        996       1014       1015        998        997       1015       1016        999        998       1016       1017       1000        999       1017       1018       1001       1000       1018       1019       1002       1001       1020       1021       1004       1003       1021       1022       1005       1004       1022       1023       1006       1005       1023       1024       1007       1006       1024       1025       1008       1007       1025       1026       1009       1008       1026       1027       1010       1009       1027       1028       1011       1010       1028       1029       1012       1011       1029       1030       1013       1012       1030       1031       1014       1013       1031       1032       1015       1014       1032       1033       1016       1015       1033       1034       1017       1016       1034       1035       1018       1017       1035       1036       1019       1018       1037       1038       1021       1020       1038       1039       1022       1021       1039       1040       1023       1022       1040       1041       1024       1023       1041       1042       1025       1024       1042       1043       1026       1025       1043       1044       1027       1026       1044       1045       1028       1027       1045       1046       1029       1028       1046       1047       1030       1029       1047       1048       1031       1030       1048       1049       1032       1031       1049       1050       1033       1032       1050       1051       1034       1033       1051       1052       1035       1034       1052       1053       1036       1035       1054       1055       1038       1037       1055       1056       1039       1038       1056       1057       1040       1039       1057       1058       1041       1040       1058       1059       1042       1041       1059       1060       1043       1042       1060       1061       1044       1043       1061       1062       1045       1044       1062       1063       1046       1045       1063       1064       1047       1046       1064       1065       1048       1047       1065       1066       1049       1048       1066       1067       1050       1049       1067       1068       1051       1050       1068       1069       1052       1051       1069       1070       1053       1052       1071       1072       1055       1054       1072       1073       1056       1055       1073       1074       1057       1056       1074       1075       1058       1057       1075       1076       1059       1058       1076       1077       1060       1059       1077       1078       1061       1060       1078       1079       1062       1061       1079       1080       1063       1062       1080       1081       1064       1063       1081       1082       1065       1064       1082       1083       1066       1065       1083       1084       1067       1066       1084       1085       1068       1067       1085       1086       1069       1068       1086       1087       1070       1069       1088       1089       1072       1071       1089       1090       1073       1072       1090       1091       1074       1073       1091       1092       1075       1074       1092       1093       1076       1075       1093       1094       1077       1076       1094       1095       1078       1077       1095       1096       1079       1078       1096       1097       1080       1079       1097       1098       1081       1080       1098       1099       1082       1081       1099       1100       1083       1082       1100       1101       1084       1083       1101       1102       1085       1084       1102       1103       1086       1085       1103       1104       1087       1086       1105       1106       1089       1088       1106       1107       1090       1089       1107       1108       1091       1090       1108       1109       1092       1091       1109       1110       1093       1092       1110       1111       1094       1093       1111       1112       1095       1094       1112       1113       1096       1095       1113       1114       1097       1096       1114       1115       1098       1097       1115       1116       1099       1098       1116       1117       1100       1099       1117       1118       1101       1100       1118       1119       1102       1101       1119       1120       1103       1102       1120       1121       1104       1103       1122       1123       1106       1105       1123       1124       1107       1106       1124       1125       1108       1107       1125       1126       1109       1108       1126       1127       1110       1109       1127       1128       1111       1110       1128       1129       1112       1111       1129       1130       1113       1112       1130       1131       1114       1113       1131       1132       1115       1114       1132       1133       1116       1115       1133       1134       1117       1116       1134       1135       1118       1117       1135       1136       1119       1118       1136       1137       1120       1119       1137       1138       1121       1120        272        273       1123       1122        273        274       1124       1123        274        275       1125       1124        275        276       1126       1125        276        277       1127       1126        277        278       1128       1127        278        279       1129       1128        279        280       1130       1129        280        281       1131       1130        281        282       1132       1131        282        283       1133       1132        283        284       1134       1133        284        285       1135       1134        285        286       1136       1135        286        287       1137       1136        287        288       1138       1137 </DataArray>
<DataArray type="Int32"                                    Name="offsets"                                                      NumberOfComponents=" 1" format="ascii">
         4          8         12         16         20         24         28         32         36         40         44         48         52         56         60         64         68         72         76         80         84         88         92         96        100        104        108        112        116        120        124        128        132        136        140        144        148        152        156        160        164        168        172        176        180        184        188        192        196        200        204        208        212        216        220        224        228        232        236        240        244        248        252        256        260        264        268        272        276        280        284        288        292        296        300        304        308        312        316        320        324        328        332        336        340        344        348        352        356        360        364        368        372        376        380        384        388        392        396        400        404        408        412        416        420        424        428        432        436        440        444        448        452        456        460        464        468        472        476        480        484        488        492        496        500        504        508        512        516        520        524        528        532        536        540        544        548        552        556        560        564        568        572        576        580        584        588        592        596        600        604        608        612        616        620        624        628        632        636        640        644        648        652        656        660        664        668        672        676        680        684        688        692        696        700        704        708        712        716        720        724        728        732        736        740        744        748        752        756        760        764        768        772        776        780        784        788        792        796        800        804        808        812        816        820        824        828        832        836        840        844        848        852        856        860        864        868        872        876        880        884        888        892        896        900        904        908        912        916        920        924        928        932        936        940        944        948        952        956        960        964        968        972        976        980        984        988        992        996       1000       1004       1008       1012       1016       1020       1024       1028       1032       1036       1040       1044       1048       1052       1056       1060       1064       1068       1072       1076       1080       1084       1088       1092       1096       1100       1104       1108       1112       1116       1120       1124       1128       1132       1136       1140       1144       1148       1152       1156       1160       1164       1168       1172       1176       1180       1184       1188       1192       1196       1200       1204       1208       1212       1216       1220       1224       1228       1232       1236       1240       1244       1248       1252       1256       1260       1264       1268       1272       1276       1280       1284       1288       1292       1296       1300       1304       1308       1312       1316       1320       1324       1328       1332       1336       1340       1344       1348       1352       1356       1360       1364       1368       1372       1376       1380       1384       1388       1392       1396       1400       1404       1408       1412       1416       1420       1424       1428       1432       1436       1440       1444       1448       1452       1456       1460       1464       1468       1472       1476       1480       1484       1488       1492       1496       1500       1504       1508       1512       1516       1520       1524       1528       1532       1536       1540       1544       1548       1552       1556       1560       1564       1568       1572       1576       1580       1584       1588       1592       1596       1600       1604       1608       1612       1616       1620       1624       1628       1632       1636       1640       1644       1648       1652       1656       1660       1664       1668       1672       1676       1680       1684       1688       1692       1696       1700       1704       1708       1712       1716       1720       1724       1728       1732       1736       1740       1744       1748       1752       1756       1760       1764       1768       1772       1776       1780       1784       1788       1792       1796       1800       1804       1808       1812       1816       1820       1824       1828       1832       1836       1840       1844       1848       1852       1856       1860       1864       1868       1872       1876       1880       1884       1888       1892       1896       1900       1904       1908       1912       1916       1920       1924       1928       1932       1936       1940       1944       1948       1952       1956       1960       1964       1968       1972       1976       1980       1984       1988       1992       1996       2000       2004       2008       2012       2016       2020       2024       2028       2032       2036       2040       2044       2048       2052       2056       2060       2064       2068       2072       2076       2080       2084       2088       2092       2096       2100       2104       2108       2112       2116       2120       2124       2128       2132       2136       2140       2144       2148       2152       2156       2160       2164       2168       2172       2176       2180       2184       2188       2192       2196       2200       2204       2208       2212       2216       2220       2224       2228       2232       2236       2240       2244       2248       2252       2256       2260       2264       2268       2272       2276       2280       2284       2288       2292       2296       2300       2304       2308       2312       2316       2320       2324       2328       2332       2336       2340       2344       2348       2352       2356       2360       2364       2368       2372       2376       2380       2384       2388       2392       2396       2400       2404       2408       2412       2416       2420       2424       2428       2432       2436       2440       2444       2448       2452       2456       2460       2464       2468       2472       2476       2480       2484       2488       2492       2496       2500       2504       2508       2512       2516       2520       2524       2528       2532       2536       2540       2544       2548       2552       2556       2560       2564       2568       2572       2576       2580       2584       2588       2592       2596       2600       2604       2608       2612       2616       2620       2624       2628       2632       2636       2640       2644       2648       2652       2656       2660       2664       2668       2672       2676       2680       2684       2688       2692       2696       2700       2704       2708       2712       2716       2720       2724       2728       2732       2736       2740       2744       2748       2752       2756       2760       2764       2768       2772       2776       2780       2784       2788       2792       2796       2800       2804       2808       2812       2816       2820       2824       2828       2832       2836       2840       2844       2848       2852       2856       2860       2864       2868       2872       2876       2880       2884       2888       2892       2896       2900       2904       2908       2912       2916       2920       2924       2928       2932       2936       2940       2944       2948       2952       2956       2960       2964       2968       2972       2976       2980       2984       2988       2992       2996       3000       3004       3008       3012       3016       3020       3024       3028       3032       3036       3040       3044       3048       3052       3056       3060       3064       3068       3072       3076       3080       3084       3088       3092       3096       3100       3104       3108       3112       3116       3120       3124       3128       3132       3136       3140       3144       3148       3152       3156       3160       3164       3168       3172       3176       3180       3184       3188       3192       3196       3200       3204       3208       3212       3216       3220       3224       3228       3232       3236       3240       3244       3248       3252       3256       3260       3264       3268       3272       3276       3280       3284       3288       3292       3296       3300       3304       3308       3312       3316       3320       3324       3328       3332       3336       3340       3344       3348       3352       3356       3360       3364       3368       3372       3376       3380       3384       3388       3392       3396       3400       3404       3408       3412       3416       3420       3424       3428       3432       3436       3440       3444       3448       3452       3456       3460       3464       3468       3472       3476       3480       3484       3488       3492       3496       3500       3504       3508       3512       3516       3520       3524       3528       3532       3536       3540       3544       3548       3552       3556       3560       3564       3568       3572       3576       3580       3584       3588       3592       3596       3600       3604       3608       3612       3616       3620       3624       3628       3632       3636       3640       3644       3648       3652       3656       3660       3664       3668       3672       3676       3680       3684       3688       3692       3696       3700       3704       3708       3712       3716       3720       3724       3728       3732       3736       3740       3744       3748       3752       3756       3760       3764       3768       3772       3776       3780       3784       3788       3792       3796       3800       3804       3808       3812       3816       3820       3824       3828       3832       3836       3840       3844       3848       3852       3856       3860       3864       3868       3872       3876       3880       3884       3888       3892       3896       3900       3904       3908       3912       3916       3920       3924       3928       3932       3936       3940       3944       3948       3952       3956       3960       3964       3968       3972       3976       3980       3984       3988       3992       3996       4000       4004       4008       4012       4016       4020       4024       4028       4032       4036       4040       4044       4048       4052       4056       4060       4064       4068       4072       4076       4080       4084       4088       4092       4096 </DataArray>
<DataArray type="UInt8"                                    Name="types"                                                      NumberOfComponents=" 1" format="ascii">
         9          9          9          9          9          9          9          9          9          9          9          9          9          9          9          9          9          9          9          9          9          9          9          9          9          9          9          9          9          9          9          9          9          9          9          9          9          9          9          9          9          9          9          9          9          9          9          9          9          9          9          9          9          9          9          9          9          9          9          9          9          9          9          9          9          9          9          9          9          9          9          9          9          9          9          9          9          9          9          9          9          9          9          9          9          9          9          9          9          9          9          9          9          9          9          9          9          9          9          9          9          9          9          9          9          9          9          9          9          9          9          9          9          9          9          9          9          9          9          9          9          9          9          9          9          9          9          9          9          9          9          9          9          9          9          9          9          9          9          9          9          9          9          9          9          9          9          9          9          9          9          9          9          9          9          9          9          9          9          9          9          9          9          9          9          9          9          9          9          9          9          9          9          9          9          9          9          9          9          9          9          9          9          9          9          9          9          9          9          9          9          9          9          9          9          9          9          9          9          9          9          9          9          9          9          9          9          9          9          9          9          9          9          9          9          9          9          9          9          9          9          9          9          9          9          9          9          9          9          9          9          9          9          9          9          9          9          9          9          9          9          9          9          9          9          9          9          9          9          9          9          9          9          9          9          9          9          9          9          9          9          9          9          9          9          9          9          9          9          9          9          9          9          9          9          9          9          9          9          9          9          9          9          9          9          9          9          9          9          9          9          9          9          9          9          9          9          9          9          9          9          9          9          9          9          9          9          9          9          9          9          9          9          9          9          9          9          9          9          9          9          9          9          9          9          9          9          9          9          9          9          9          9          9          9          9          9          9          9          9          9          9          9          9          9          9          9          9          9          9          9          9          9          9          9          9          9          9          9          9          9          9          9          9          9          9          9          9          9          9          9          9          9          9          9          9          9          9          9          9          9          9          9          9          9          9          9          9          9          9          9          9          9          9          9          9          9          9          9          9          9          9          9          9          9          9          9          9          9          9          9          9          9          9          9          9          9          9          9          9          9          9          9          9          9          9          9          9          9          9          9          9          9          9          9          9          9          9          9          9          9          9          9          9          9          9          9          9          9          9          9          9          9          9          9          9          9          9          9          9          9          9          9          9          9          9          9          9          9          9          9          9          9          9          9          9          9          9          9          9          9          9          9          9          9          9          9          9          9          9          9          9          9          9          9          9          9          9          9          9          9          9          9          9          9          9          9          9          9          9          9          9          9          9          9          9          9          9          9          9          9          9          9          9          9          9          9          9          9          9          9          9          9          9          9          9          9          9          9          9          9          9          9          9          9          9          9          9          9          9          9          9          9          9          9          9          9          9          9          9          9          9          9          9          9          9          9          9          9          9          9          9          9          9          9          9          9          9          9          9          9          9          9          9          9          9          9          9          9          9          9          9          9          9          9          9          9          9          9          9          9          9          9          9          9          9          9          9          9          9          9          9          9          9          9          9          9          9          9          9          9          9          9          9          9          9          9          9          9          9          9          9          9          9          9          9          9          9          9          9          9          9          9          9          9          9          9          9          9          9          9          9          9          9          9          9          9          9          9          9          9          9          9          9          9          9          9          9          9          9          9          9          9          9          9          9          9          9          9          9          9          9          9          9          9          9          9          9          9          9          9          9          9          9          9          9          9          9          9          9          9          9          9          9          9          9          9          9          9          9          9          9          9          9          9          9          9          9          9          9          9          9          9          9          9          9          9          9          9          9          9          9          9          9          9          9          9          9          9          9          9          9          9          9          9          9          9          9          9          9          9          9          9          9          9          9          9          9          9          9          9          9          9          9          9          9          9          9          9          9          9          9          9          9          9          9          9          9          9          9          9          9          9          9          9          9          9          9          9          9          9          9          9          9          9          9          9          9          9          9          9          9          9          9          9          9          9          9          9          9          9          9          9          9          9          9          9          9          9          9          9          9          9          9          9          9          9          9          9          9          9          9          9          9          9          9          9          9          9          9          9          9          9          9          9          9          9          9          9          9          9          9          9          9          9          9          9          9          9          9          9          9          9          9          9          9          9          9          9          9          9          9          9          9          9          9          9          9          9          9          9          9          9          9          9          9          9          9          9          9          9          9          9          9          9          9          9          9          9          9          9          9          9          9          9          9          9          9          9          9          9          9          9          9          9          9          9          9          9          9          9          9          9          9          9          9          9          9          9          9          9          9          9          9          9          9          9          9          9          9          9          9          9          9          9          9          9          9          9          9          9          9          9          9          9          9          9          9          9          9          9          9          9          9          9          9          9          9          9          9          9          9          9          9          9          9          9          9          9          9          9          9          9          9          9          9          9          9          9          9          9          9          9          9          9          9          9          9          9          9          9          9          9          9          9          9          9          9          9          9          9          9          9          9          9          9          9          9          9          9          9          9          9          9 </DataArray>
</Cells>
<CellData>
<DataArray type="Int32"                                    Name="material"                                                      NumberOfComponents=" 1" format="ascii">
         1          1          1          1          1          1          1          1          1          1          1          1          1          1          1          1          1          1          1          1          1          1          1          1          1          1          1          1          1          1          1          1          1          1          1          1          1          1          1          1          1          1          1          1          1          1          1          1          1          1          1          1          1          1          1          1          1          1          1          1          1          1          1          1          1          1          1          1          1          1          1          1          1          1          1          1          1          1          1          1          1          1          1          1          1          1          1          1          1          1          1          1          1          1          1          1          1          1          1          1          1          1          1          1          1          1          1          1          1          1          1          1          1          1          1          1          1          1          1          1          1          1          1          1          1          1          1          1          1          1          1          1          1          1          1          1          1          1          1          1          1          1          1          1          1          1          1          1          1          1          1          1          1          1          1          1          1          1          1          1          1          1          1          1          1          1          1          1          1          1          1          1          1          1          1          1          1          1          1          1          1          1          1          1          1          1          1          1          1          1          1          1          1          1          1          1          1          1          1          1          1          1          1          1          1          1          1          1          1          1          1          1          1          1          1          1          1          1          1          1          1          1          1          1          1          1          1          1          1          1          1          1          1          1          1          1          1          1          1          1          1          1          1          1          1          1          1          1          1          1          1          1          1          1          1          1          1          1          1          1          1          1          1          1          1          1          1          1          1          1          1          1          1          1          1          1          1          1          1          1          1          1          1          1          1          1          1          1          1          1          1          1          1          1          1          1          1          1          1          1          1          1          1          1          1          1          1          1          1          1          1          1          1          1          1          1          1          1          1          1          1          1          1          1          1          1          1          1          1          1          1          1          1          1          1          1          1          1          1          1          1          1          1          1          1          1          1          1          1          1          1          1          1          1          1          1          1          1          1          1          1          1          1          1          1          1          1          1          1          1          1          1          1          1          1          1          1          1          1          1          1          1          1          1          1          1          1          1          1          1          1          1          1          1          1          1          1          1          1          1          1          1          1          1          1          1          1          1          1          1          1          1          1          1          1          1          1          1          1          1          1          1          1          1          1          1          1          1          1          1          1          1          1          1          1          1          1          1          1          1          1          1          1          1          1          1          1          1          1          1          1          1          1          1          1          1          1          1          1          1          1          1          1          1          1          1          1          1          1          1          1          1          1          1          1          1          1          1          1          1          1          1          1          1          1          1          1          1          1          1          1          1          1          1          1          1          1          1          1          1          1          1          1          1          1          1          1          1          1          1          1          1          1          1          1          1          1          1          1          1          1          1          1          1          1          1          1          1          1          1          1          1          1          1          1          1          1          1          1          1          1          1          1          1          1          1          1          1          1          1          1          1          1          1          1          1          1          1          1          1          1          1          1          1          1          1          1          1          1          1          1          1          1          1          1          1          1          1          1          1          1          1          1          1          1          1          1          1          1          1          1          1          1          1          1          1          1          1          1          1          1          1          1          1          1          1          1          1          1          1          1          1          1          1          1          1          1          1          1          1          1          1          1          1          1          1          1          1          1          1          1          1          1          1          1          1          1          1          1          1          1          1          1          1          1          1          1          1          1          1          1          1          1          1          1          1          1          1          1          1          1          1          1          1          1          1          1          1          1          1          1          1          1          1          1          1          1          1          1          1          1          1          1          1          1          1          1          1          1          1          1          1          1          1          1          1          1          1          1          1          1          1          1          1          1          1          1          1          1          1          1          1          1          1          1          1          1          1          1          1          1          1          1          1          1          1          1          1          1          1          1          1          1          1          1          1          1          1          1          1          1          1          1          1          1          1          1          1          1          1          1          1          1          1          1          1          1          1          1          1          1          1          1          1          1          1          1          1          1          1          1          1          1          1          1          1          1          1          1          1          1          1          1          1          1          1          1          1          1          1          1          1          1          1          1          1          1          1          1          1          1          1          1          1          1          1          1          1          1          1          1          1          1          1          1          1          1          1          1          1          1          1          1          1          1          1          1          1          1          1          1          1          1          1          1          1          1          1          1          1          1          1          1          1          1          1          1          1          1          1          1          1          1          1          1          1          1          1          1          1          1          1          1          1          1          1          1          1          1          1          1          1          1          1          1          1          1          1          1          1          1          1          1          1          1          1          1          1          1          1          1          1          1          1          1          1          1          1          1          1          1          1          1          1          1          1          1          1          1          1          1          1          1          1          1          1          1          1          1          1          1          1          1          1          1          1          1          1          1          1          1          1          1          1          1          1          1          1          1          1          1          1          1          1          1          1          1          1          1          1          1          1          1          1          1          1          1          1          1          1          1          1          1          1          1          1          1          1          1          1          1          1          1          1          1          1          1          1          1          1          1          1          1          1          1          1          1          1          1          1          1          1          1          1          1          1          1          1          1          1          1          1          1          1          1          1          1          1          1          1          1          1          1          1          1          1          1          1          1          1          1          1          1          1 </DataArray>
</CellData>
<PointData>
<DataArray type="Float64"                                    Name="u"                                                      NumberOfComponents=" 3" format="ascii">
             -0.000597682               0.000000000               0.999999984              -0.000644192               0.000000000               0.999999984              -0.000664593               0.000000000               0.999999984              -0.000676032               0.000000000               0.999999984              -0.000685028              -0.000000000               0.999999984              -0.000694065              -0.000000000               0.999999984              -0.000704001               0.000000000               0.999999984              -0.000715036              -0.000000000               0.999999984              -0.000727148               0.000000000               0.999999984              -0.000740248               0.000000000               0.999999984              -0.000754231              -0.000000000               0.999999984              -0.000768781              -0.000000000               0.999999984              -0.000783709               0.000000000               0.999999984              -0.000798580               0.000000000               0.999999984              -0.000812961               0.000000000               0.999999984              -0.000826468              -0.000000000               0.999999984              -0.000838514               0.000000000               0.999999984              -0.000594319               0.000119860               0.999999984              -0.000637569               0.000098587               0.999999984              -0.000655973               0.000089778               0.999999984              -0.000666106               0.000087290               0.999999984              -0.000674161               0.000088218               0.999999984              -0.000682519               0.000090895               0.999999984              -0.000691981               0.000094222               0.999999984              -0.000702615               0.000097784               0.999999984              -0.000714326               0.000101396               0.999999984              -0.000726880               0.000104562               0.999999984              -0.000740035               0.000107067               0.999999984              -0.000753607               0.000108807               0.999999984              -0.000767343               0.000109471               0.999999984              -0.000780838               0.000108584               0.999999984              -0.000793800               0.000105702               0.999999984              -0.000805903               0.000100264               0.999999984              -0.000816619               0.000091190               0.999999984              -0.000584483               0.000238562               0.999999984              -0.000618083               0.000196570               0.999999984              -0.000630560               0.000179908               0.999999984              -0.000637109               0.000175786               0.999999984              -0.000643040               0.000178286               0.999999984              -0.000649999               0.000184050               0.999999984              -0.000658282               0.000191048               0.999999984              -0.000667722               0.000198293               0.999999984              -0.000677998               0.000205431               0.999999984              -0.000688670               0.000211754               0.999999984              -0.000699570               0.000216951               0.999999984              -0.000710418               0.000220693               0.999999984              -0.000720900               0.000222333               0.999999984              -0.000730775               0.000221390               0.999999984              -0.000739807               0.000217200               0.999999984              -0.000747916               0.000208960               0.999999984              -0.000754977               0.000195154               0.999999984              -0.000568303               0.000354992               0.999999984              -0.000586578               0.000293413               0.999999984              -0.000590562               0.000270731               0.999999984              -0.000592597               0.000266441               0.999999984              -0.000595926               0.000271377               0.999999984              -0.000601055               0.000280836               0.999999984              -0.000607777               0.000291944               0.999999984              -0.000615570               0.000303286               0.999999984              -0.000623820               0.000314156               0.999999984              -0.000632092               0.000323776               0.999999984              -0.000640106               0.000331667               0.999999984              -0.000647483               0.000337366               0.999999984              -0.000653964               0.000340300               0.999999984              -0.000659416               0.000340060               0.999999984              -0.000663774               0.000336265               0.999999984              -0.000667100               0.000328277               0.999999984              -0.000669416               0.000314992               0.999999984              -0.000545960               0.000468001               0.999999984              -0.000544679               0.000388878               0.999999984              -0.000539410               0.000362448               0.999999984              -0.000537036               0.000359548               0.999999984              -0.000538122               0.000367913               0.999999984              -0.000542023               0.000381623               0.999999984              -0.000547510               0.000397156               0.999999984              -0.000553721               0.000412720               0.999999984              -0.000559878               0.000427184               0.999999984              -0.000565461               0.000439895               0.999999984              -0.000570070               0.000450320               0.999999984              -0.000573500               0.000458102               0.999999984              -0.000575620               0.000462633               0.999999984              -0.000576470               0.000463772               0.999999984              -0.000575923               0.000461387               0.999999984              -0.000573910               0.000455036               0.999999984              -0.000570535               0.000444387               0.999999984              -0.000517977               0.000576442               0.999999984              -0.000494634               0.000482873               0.999999984              -0.000480801               0.000455047               0.999999984              -0.000475476               0.000454808               0.999999984              -0.000475795               0.000467176               0.999999984              -0.000479187               0.000485382               0.999999984              -0.000483828               0.000505289               0.999999984              -0.000488540               0.000524721               0.999999984              -0.000492449               0.000542463               0.999999984              -0.000495072               0.000557675               0.999999984              -0.000496004               0.000570197               0.999999984              -0.000495200               0.000579777               0.999999984              -0.000492580               0.000586113               0.999999984              -0.000488119               0.000589071               0.999999984              -0.000481706               0.000588428               0.999999984              -0.000473434               0.000584203               0.999999984              -0.000463668               0.000576843               0.999999984              -0.000484806               0.000679328               0.999999984              -0.000439020               0.000575334               0.999999984              -0.000418893               0.000548045               0.999999984              -0.000412685               0.000551329               0.999999984              -0.000413416               0.000568045               0.999999984              -0.000417116               0.000590410               0.999999984              -0.000421350               0.000614062               0.999999984              -0.000424680               0.000636617               0.999999984              -0.000426271               0.000656864               0.999999984              -0.000425542               0.000674049               0.999999984              -0.000422359               0.000688195               0.999999984              -0.000416586               0.000699358               0.999999984              -0.000408251               0.000707365               0.999999984              -0.000397452               0.000712042               0.999999984              -0.000384364               0.000713264               0.999999984              -0.000369398               0.000711680               0.999999984              -0.000353205               0.000708160               0.999999984              -0.000447201               0.000775523               0.999999984              -0.000380672               0.000665989               0.999999984              -0.000357236               0.000640757               0.999999984              -0.000352248               0.000647750               0.999999984              -0.000354519               0.000668346               0.999999984              -0.000359062               0.000694317               0.999999984              -0.000362939               0.000721007               0.999999984              -0.000364677               0.000745953               0.999999984              -0.000363348               0.000768046               0.999999984              -0.000358566               0.000786761               0.999999984              -0.000350281               0.000802200               0.999999984              -0.000338641               0.000814608               0.999999984              -0.000323878               0.000823842               0.999999984              -0.000306184               0.000829872               0.999999984              -0.000286144               0.000833116               0.999999984              -0.000264569               0.000834509               0.999999984              -0.000242157               0.000834849               0.999999984              -0.000406593               0.000863229               0.999999984              -0.000321590               0.000754803               0.999999984              -0.000298996               0.000732001               0.999999984              -0.000296784               0.000742149               0.999999984              -0.000301238               0.000766109               0.999999984              -0.000306662               0.000795083               0.999999984              -0.000309908               0.000824083               0.999999984              -0.000309273               0.000850883               0.999999984              -0.000304085               0.000874341               0.999999984              -0.000294242               0.000894195               0.999999984              -0.000279978               0.000910642               0.999999984              -0.000261682               0.000923927               0.999999984              -0.000239657               0.000934049               0.999999984              -0.000214539               0.000941474               0.999999984              -0.000187710               0.000947108               0.999999984              -0.000160122               0.000951819               0.999999984              -0.000132273               0.000955979               0.999999984              -0.000364918               0.000945788               0.999999984              -0.000272731               0.000852349               0.999999984              -0.000247129               0.000824833               0.999999984              -0.000243695               0.000828994               0.999999984              -0.000247693               0.000848122               0.999999984              -0.000253428               0.000873926               0.999999984              -0.000257556               0.000901861               0.999999984              -0.000258345               0.000928953               0.999999984              -0.000254903               0.000953968               0.999999984              -0.000247094               0.000976255               0.999999984              -0.000234914               0.000995712               0.999999984              -0.000218634               0.001012475               0.999999984              -0.000198408               0.001026650               0.999999984              -0.000174198               0.001038460               0.999999984              -0.000147231               0.001048401               0.999999984              -0.000118917               0.001057228               0.999999984              -0.000090213               0.001065415               0.999999984              -0.000319283               0.001020606               0.999999984              -0.000226843               0.000946227               0.999999984              -0.000198258               0.000919481               0.999999984              -0.000192785               0.000919688               0.999999984              -0.000195627               0.000934958               0.999999984              -0.000200881               0.000957993               0.999999984              -0.000205322               0.000984750               0.999999984              -0.000206997               0.001012180               0.999999984              -0.000205048               0.001038681               0.999999984              -0.000199081               0.001063366               0.999999984              -0.000188917               0.001085866               0.999999984              -0.000174536               0.001105964               0.999999984              -0.000155978               0.001123824               0.999999984              -0.000133040               0.001139525               0.999999984              -0.000106186               0.001153399               0.999999984              -0.000076501               0.001165998               0.999999984              -0.000045525               0.001177990               0.999999984              -0.000270662               0.001086069               0.999999984              -0.000183811               0.001033679               0.999999984              -0.000153749               0.001011725               0.999999984              -0.000146058               0.001010944               0.999999984              -0.000147256               0.001023679               0.999999984              -0.000151397               0.001044703               0.999999984              -0.000155425               0.001070479               0.999999984              -0.000157472               0.001098342               0.999999984              -0.000156606               0.001126456               0.999999984              -0.000152255               0.001153649               0.999999984              -0.000144083               0.001179372               0.999999984              -0.000131725               0.001203161               0.999999984              -0.000114899               0.001224980               0.999999984              -0.000093405               0.001244782               0.999999984              -0.000067138               0.001262747               0.999999984              -0.000036433               0.001279178               0.999999984              -0.000002311               0.001294746               0.999999984              -0.000219614               0.001141049               0.999999984              -0.000143580               0.001111152               0.999999984              -0.000114372               0.001096964               0.999999984              -0.000105123               0.001097870               0.999999984              -0.000104453               0.001110046               0.999999984              -0.000107197               0.001130085               0.999999984              -0.000110396               0.001155233               0.999999984              -0.000112289               0.001183480               0.999999984              -0.000112098               0.001213178               0.999999984              -0.000109086               0.001243010               0.999999984              -0.000102755               0.001272190               0.999999984              -0.000092562               0.001300125               0.999999984              -0.000077948               0.001326454               0.999999984              -0.000058409               0.001350943               0.999999984              -0.000033496               0.001373704               0.999999984              -0.000002993               0.001394773               0.999999984               0.000033371               0.001414529               0.999999984              -0.000166611               0.001184738               0.999999984              -0.000105648               0.001175401               0.999999984              -0.000080181               0.001170356               0.999999984              -0.000070820               0.001174651               0.999999984              -0.000068823               0.001187858               0.999999984              -0.000070094               0.001208192               0.999999984              -0.000072202               0.001233541               0.999999984              -0.000073693               0.001262345               0.999999984              -0.000073728               0.001293375               0.999999984              -0.000071714               0.001325587               0.999999984              -0.000067165               0.001358061               0.999999984              -0.000059282               0.001390100               0.999999984              -0.000047515               0.001421204               0.999999984              -0.000031091               0.001450960               0.999999984              -0.000009252               0.001479069               0.999999984               0.000018691               0.001505447               0.999999984               0.000054011               0.001530211               0.999999984              -0.000112026               0.001216576               0.999999984              -0.000069466               0.001223552               0.999999984              -0.000050563               0.001226986               0.999999984              -0.000042841               0.001235485               0.999999984              -0.000040528               0.001250548               0.999999984              -0.000040829               0.001271760               0.999999984              -0.000041994               0.001297827               0.999999984              -0.000042892               0.001327576               0.999999984              -0.000042814               0.001359900               0.999999984              -0.000041517               0.001394015               0.999999984              -0.000038497               0.001429234               0.999999984              -0.000033172               0.001464791               0.999999984              -0.000024813               0.001500040               0.999999984              -0.000012875               0.001534583               0.999999984               0.000003356               0.001567923               0.999999984               0.000024992               0.001599654               0.999999984               0.000053753               0.001629503               0.999999984              -0.000056312               0.001235939               0.999999984              -0.000034461               0.001253450               0.999999984              -0.000024339               0.001262795               0.999999984              -0.000019987               0.001274592               0.999999984              -0.000018506               0.001291436               0.999999984              -0.000018423               0.001313653               0.999999984              -0.000018872               0.001340481               0.999999984              -0.000019292               0.001371058               0.999999984              -0.000019219               0.001404455               0.999999984              -0.000018472               0.001439882               0.999999984              -0.000016929               0.001476767               0.999999984              -0.000014260               0.001514594               0.999999984              -0.000009897               0.001552701               0.999999984              -0.000003574               0.001590553               0.999999984               0.000004971               0.001627594               0.999999984               0.000016784               0.001663387               0.999999984               0.000033133               0.001697263               0.999999984               0.000000000               0.001242394               0.999999984              -0.000000000               0.001263624               0.999999984               0.000000000               0.001275158               0.999999984              -0.000000000               0.001288116               0.999999984               0.000000000               0.001305635               0.999999984              -0.000000000               0.001328316               0.999999984              -0.000000000               0.001355501               0.999999984               0.000000000               0.001386398               0.999999984               0.000000000               0.001420168               0.999999984              -0.000000000               0.001456140               0.999999984              -0.000000000               0.001493638               0.999999984              -0.000000000               0.001532221               0.999999984               0.000000000               0.001571279               0.999999984              -0.000000000               0.001610284               0.999999984              -0.000000000               0.001648703               0.999999984               0.000000000               0.001686010               0.999999984               0.000000000               0.001721440               0.999999984              -0.000597682               0.000000000               0.999999984              -0.000644192               0.000000000               0.999999984              -0.000664593               0.000000000               0.999999984              -0.000676032               0.000000000               0.999999984              -0.000685028              -0.000000000               0.999999984              -0.000694065              -0.000000000               0.999999984              -0.000704001               0.000000000               0.999999984              -0.000715036              -0.000000000               0.999999984              -0.000727148               0.000000000               0.999999984              -0.000740248               0.000000000               0.999999984              -0.000754231              -0.000000000               0.999999984              -0.000768781              -0.000000000               0.999999984              -0.000783709               0.000000000               0.999999984              -0.000798580               0.000000000               0.999999984              -0.000812961               0.000000000               0.999999984              -0.000826468              -0.000000000               0.999999984              -0.000838514               0.000000000               0.999999984              -0.000594319              -0.000119860               0.999999984              -0.000637569              -0.000098587               0.999999984              -0.000655973              -0.000089778               0.999999984              -0.000666106              -0.000087290               0.999999984              -0.000674161              -0.000088218               0.999999984              -0.000682519              -0.000090895               0.999999984              -0.000691981              -0.000094222               0.999999984              -0.000702615              -0.000097784               0.999999984              -0.000714326              -0.000101396               0.999999984              -0.000726880              -0.000104562               0.999999984              -0.000740035              -0.000107067               0.999999984              -0.000753607              -0.000108807               0.999999984              -0.000767343              -0.000109471               0.999999984              -0.000780838              -0.000108584               0.999999984              -0.000793800              -0.000105702               0.999999984              -0.000805903              -0.000100264               0.999999984              -0.000816619              -0.000091190               0.999999984              -0.000584483              -0.000238562               0.999999984              -0.000618083              -0.000196570               0.999999984              -0.000630560              -0.000179908               0.999999984              -0.000637109              -0.000175786               0.999999984              -0.000643040              -0.000178286               0.999999984              -0.000649999              -0.000184050               0.999999984              -0.000658282              -0.000191048               0.999999984              -0.000667722              -0.000198293               0.999999984              -0.000677998              -0.000205431               0.999999984              -0.000688670              -0.000211754               0.999999984              -0.000699570              -0.000216951               0.999999984              -0.000710418              -0.000220693               0.999999984              -0.000720900              -0.000222333               0.999999984              -0.000730775              -0.000221390               0.999999984              -0.000739807              -0.000217200               0.999999984              -0.000747916              -0.000208960               0.999999984              -0.000754977              -0.000195154               0.999999984              -0.000568303              -0.000354992               0.999999984              -0.000586578              -0.000293413               0.999999984              -0.000590562              -0.000270731               0.999999984              -0.000592597              -0.000266441               0.999999984              -0.000595926              -0.000271377               0.999999984              -0.000601055              -0.000280836               0.999999984              -0.000607777              -0.000291944               0.999999984              -0.000615570              -0.000303286               0.999999984              -0.000623820              -0.000314156               0.999999984              -0.000632092              -0.000323776               0.999999984              -0.000640106              -0.000331667               0.999999984              -0.000647483              -0.000337366               0.999999984              -0.000653964              -0.000340300               0.999999984              -0.000659416              -0.000340060               0.999999984              -0.000663774              -0.000336265               0.999999984              -0.000667100              -0.000328277               0.999999984              -0.000669416              -0.000314992               0.999999984              -0.000545960              -0.000468001               0.999999984              -0.000544679              -0.000388878               0.999999984              -0.000539410              -0.000362448               0.999999984              -0.000537036              -0.000359548               0.999999984              -0.000538122              -0.000367913               0.999999984              -0.000542023              -0.000381623               0.999999984              -0.000547510              -0.000397156               0.999999984              -0.000553721              -0.000412720               0.999999984              -0.000559878              -0.000427184               0.999999984              -0.000565461              -0.000439895               0.999999984              -0.000570070              -0.000450320               0.999999984              -0.000573500              -0.000458102               0.999999984              -0.000575620              -0.000462633               0.999999984              -0.000576470              -0.000463772               0.999999984              -0.000575923              -0.000461387               0.999999984              -0.000573910              -0.000455036               0.999999984              -0.000570535              -0.000444387               0.999999984              -0.000517977              -0.000576442               0.999999984              -0.000494634              -0.000482873               0.999999984              -0.000480801              -0.000455047               0.999999984              -0.000475476              -0.000454808               0.999999984              -0.000475795              -0.000467176               0.999999984              -0.000479187              -0.000485382               0.999999984              -0.000483828              -0.000505289               0.999999984              -0.000488540              -0.000524721               0.999999984              -0.000492449              -0.000542463               0.999999984              -0.000495072              -0.000557675               0.999999984              -0.000496004              -0.000570197               0.999999984              -0.000495200              -0.000579777               0.999999984              -0.000492580              -0.000586113               0.999999984              -0.000488119              -0.000589071               0.999999984              -0.000481706              -0.000588428               0.999999984              -0.000473434              -0.000584203               0.999999984              -0.000463668              -0.000576843               0.999999984              -0.000484806              -0.000679328               0.999999984              -0.000439020              -0.000575334               0.999999984              -0.000418893              -0.000548045               0.999999984              -0.000412685              -0.000551329               0.999999984              -0.000413416              -0.000568045               0.999999984              -0.000417116              -0.000590410               0.999999984              -0.000421350              -0.000614062               0.999999984              -0.000424680              -0.000636617               0.999999984              -0.000426271              -0.000656864               0.999999984              -0.000425542              -0.000674049               0.999999984              -0.000422359              -0.000688195               0.999999984              -0.000416586              -0.000699358               0.999999984              -0.000408251              -0.000707365               0.999999984              -0.000397452              -0.000712042               0.999999984              -0.000384364              -0.000713264               0.999999984              -0.000369398              -0.000711680               0.999999984              -0.000353205              -0.000708160               0.999999984              -0.000447201              -0.000775523               0.999999984              -0.000380672              -0.000665989               0.999999984              -0.000357236              -0.000640757               0.999999984              -0.000352248              -0.000647750               0.999999984              -0.000354519              -0.000668346               0.999999984              -0.000359062              -0.000694317               0.999999984              -0.000362939              -0.000721007               0.999999984              -0.000364677              -0.000745953               0.999999984              -0.000363348              -0.000768046               0.999999984              -0.000358566              -0.000786761               0.999999984              -0.000350281              -0.000802200               0.999999984              -0.000338641              -0.000814608               0.999999984              -0.000323878              -0.000823842               0.999999984              -0.000306184              -0.000829872               0.999999984              -0.000286144              -0.000833116               0.999999984              -0.000264569              -0.000834509               0.999999984              -0.000242157              -0.000834849               0.999999984              -0.000406593              -0.000863229               0.999999984              -0.000321590              -0.000754803               0.999999984              -0.000298996              -0.000732001               0.999999984              -0.000296784              -0.000742149               0.999999984              -0.000301238              -0.000766109               0.999999984              -0.000306662              -0.000795083               0.999999984              -0.000309908              -0.000824083               0.999999984              -0.000309273              -0.000850883               0.999999984              -0.000304085              -0.000874341               0.999999984              -0.000294242              -0.000894195               0.999999984              -0.000279978              -0.000910642               0.999999984              -0.000261682              -0.000923927               0.999999984              -0.000239657              -0.000934049               0.999999984              -0.000214539              -0.000941474               0.999999984              -0.000187710              -0.000947108               0.999999984              -0.000160122              -0.000951819               0.999999984              -0.000132273              -0.000955979               0.999999984              -0.000364918              -0.000945788               0.999999984              -0.000272731              -0.000852349               0.999999984              -0.000247129              -0.000824833               0.999999984              -0.000243695              -0.000828994               0.999999984              -0.000247693              -0.000848122               0.999999984              -0.000253428              -0.000873926               0.999999984              -0.000257556              -0.000901861               0.999999984              -0.000258345              -0.000928953               0.999999984              -0.000254903              -0.000953968               0.999999984              -0.000247094              -0.000976255               0.999999984              -0.000234914              -0.000995712               0.999999984              -0.000218634              -0.001012475               0.999999984              -0.000198408              -0.001026650               0.999999984              -0.000174198              -0.001038460               0.999999984              -0.000147231              -0.001048401               0.999999984              -0.000118917              -0.001057228               0.999999984              -0.000090213              -0.001065415               0.999999984              -0.000319283              -0.001020606               0.999999984              -0.000226843              -0.000946227               0.999999984              -0.000198258              -0.000919481               0.999999984              -0.000192785              -0.000919688               0.999999984              -0.000195627              -0.000934958               0.999999984              -0.000200881              -0.000957993               0.999999984              -0.000205322              -0.000984750               0.999999984              -0.000206997              -0.001012180               0.999999984              -0.000205048              -0.001038681               0.999999984              -0.000199081              -0.001063366               0.999999984              -0.000188917              -0.001085866               0.999999984              -0.000174536              -0.001105964               0.999999984              -0.000155978              -0.001123824               0.999999984              -0.000133040              -0.001139525               0.999999984              -0.000106186              -0.001153399               0.999999984              -0.000076501              -0.001165998               0.999999984              -0.000045525              -0.001177990               0.999999984              -0.000270662              -0.001086069               0.999999984              -0.000183811              -0.001033679               0.999999984              -0.000153749              -0.001011725               0.999999984              -0.000146058              -0.001010944               0.999999984              -0.000147256              -0.001023679               0.999999984              -0.000151397              -0.001044703               0.999999984              -0.000155425              -0.001070479               0.999999984              -0.000157472              -0.001098342               0.999999984              -0.000156606              -0.001126456               0.999999984              -0.000152255              -0.001153649               0.999999984              -0.000144083              -0.001179372               0.999999984              -0.000131725              -0.001203161               0.999999984              -0.000114899              -0.001224980               0.999999984              -0.000093405              -0.001244782               0.999999984              -0.000067138              -0.001262747               0.999999984              -0.000036433              -0.001279178               0.999999984              -0.000002311              -0.001294746               0.999999984              -0.000219614              -0.001141049               0.999999984              -0.000143580              -0.001111152               0.999999984              -0.000114372              -0.001096964               0.999999984              -0.000105123              -0.001097870               0.999999984              -0.000104453              -0.001110046               0.999999984              -0.000107197              -0.001130085               0.999999984              -0.000110396              -0.001155233               0.999999984              -0.000112289              -0.001183480               0.999999984              -0.000112098              -0.001213178               0.999999984              -0.000109086              -0.001243010               0.999999984              -0.000102755              -0.001272190               0.999999984              -0.000092562              -0.001300125               0.999999984              -0.000077948              -0.001326454               0.999999984              -0.000058409              -0.001350943               0.999999984              -0.000033496              -0.001373704               0.999999984              -0.000002993              -0.001394773               0.999999984               0.000033371              -0.001414529               0.999999984              -0.000166611              -0.001184738               0.999999984              -0.000105648              -0.001175401               0.999999984              -0.000080181              -0.001170356               0.999999984              -0.000070820              -0.001174651               0.999999984              -0.000068823              -0.001187858               0.999999984              -0.000070094              -0.001208192               0.999999984              -0.000072202              -0.001233541               0.999999984              -0.000073693              -0.001262345               0.999999984              -0.000073728              -0.001293375               0.999999984              -0.000071714              -0.001325587               0.999999984              -0.000067165              -0.001358061               0.999999984              -0.000059282              -0.001390100               0.999999984              -0.000047515              -0.001421204               0.999999984              -0.000031091              -0.001450960               0.999999984              -0.000009252              -0.001479069               0.999999984               0.000018691              -0.001505447               0.999999984               0.000054011              -0.001530211               0.999999984              -0.000112026              -0.001216576               0.999999984              -0.000069466              -0.001223552               0.999999984              -0.000050563              -0.001226986               0.999999984              -0.000042841              -0.001235485               0.999999984              -0.000040528              -0.001250548               0.999999984              -0.000040829              -0.001271760               0.999999984              -0.000041994              -0.001297827               0.999999984              -0.000042892              -0.001327576               0.999999984              -0.000042814              -0.001359900               0.999999984              -0.000041517              -0.001394015               0.999999984              -0.000038497              -0.001429234               0.999999984              -0.000033172              -0.001464791               0.999999984              -0.000024813              -0.001500040               0.999999984              -0.000012875              -0.001534583               0.999999984               0.000003356              -0.001567923               0.999999984               0.000024992              -0.001599654               0.999999984               0.000053753              -0.001629503               0.999999984              -0.000056312              -0.001235939               0.999999984              -0.000034461              -0.001253450               0.999999984              -0.000024339              -0.001262795               0.999999984              -0.000019987              -0.001274592               0.999999984              -0.000018506              -0.001291436               0.999999984              -0.000018423              -0.001313653               0.999999984              -0.000018872              -0.001340481               0.999999984              -0.000019292              -0.001371058               0.999999984              -0.000019219              -0.001404455               0.999999984              -0.000018472              -0.001439882               0.999999984              -0.000016929              -0.001476767               0.999999984              -0.000014260              -0.001514594               0.999999984              -0.000009897              -0.001552701               0.999999984              -0.000003574              -0.001590553               0.999999984               0.000004971              -0.001627594               0.999999984               0.000016784              -0.001663387               0.999999984               0.000033133              -0.001697263               0.999999984              -0.000000000              -0.001242394               0.999999984               0.000000000              -0.001263624               0.999999984              -0.000000000              -0.001275158               0.999999984               0.000000000              -0.001288116               0.999999984              -0.000000000              -0.001305635               0.999999984              -0.000000000              -0.001328316               0.999999984              -0.000000000              -0.001355501               0.999999984               0.000000000              -0.001386398               0.999999984              -0.000000000              -0.001420168               0.999999984              -0.000000000              -0.001456140               0.999999984               0.000000000              -0.001493638               0.999999984               0.000000000              -0.001532221               0.999999984               0.000000000              -0.001571279               0.999999984               0.000000000              -0.001610284               0.999999984               0.000000000              -0.001648703               0.999999984               0.000000000              -0.001686010               0.999999984              -0.000000000              -0.001721440               0.999999984               0.000597682               0.000000000               0.999999984               0.000644192               0.000000000               0.999999984               0.000664593              -0.000000000               0.999999984               0.000676032              -0.000000000               0.999999984               0.000685028              -0.000000000               0.999999984               0.000694065               0.000000000               0.999999984               0.000704001              -0.000000000               0.999999984               0.000715036              -0.000000000               0.999999984               0.000727148              -0.000000000               0.999999984               0.000740248              -0.000000000               0.999999984               0.000754231              -0.000000000               0.999999984               0.000768781               0.000000000               0.999999984               0.000783709               0.000000000               0.999999984               0.000798580              -0.000000000               0.999999984               0.000812961               0.000000000               0.999999984               0.000826468               0.000000000               0.999999984               0.000838514               0.000000000               0.999999984               0.000594319              -0.000119860               0.999999984               0.000637569              -0.000098587               0.999999984               0.000655973              -0.000089778               0.999999984               0.000666106              -0.000087290               0.999999984               0.000674161              -0.000088218               0.999999984               0.000682519              -0.000090895               0.999999984               0.000691981              -0.000094222               0.999999984               0.000702615              -0.000097784               0.999999984               0.000714326              -0.000101396               0.999999984               0.000726880              -0.000104562               0.999999984               0.000740035              -0.000107067               0.999999984               0.000753607              -0.000108807               0.999999984               0.000767343              -0.000109471               0.999999984               0.000780838              -0.000108584               0.999999984               0.000793800              -0.000105702               0.999999984               0.000805903              -0.000100264               0.999999984               0.000816619              -0.000091190               0.999999984               0.000584483              -0.000238562               0.999999984               0.000618083              -0.000196570               0.999999984               0.000630560              -0.000179908               0.999999984               0.000637109              -0.000175786               0.999999984               0.000643040              -0.000178286               0.999999984               0.000649999              -0.000184050               0.999999984               0.000658282              -0.000191048               0.999999984               0.000667722              -0.000198293               0.999999984               0.000677998              -0.000205431               0.999999984               0.000688670              -0.000211754               0.999999984               0.000699570              -0.000216951               0.999999984               0.000710418              -0.000220693               0.999999984               0.000720900              -0.000222333               0.999999984               0.000730775              -0.000221390               0.999999984               0.000739807              -0.000217200               0.999999984               0.000747916              -0.000208960               0.999999984               0.000754977              -0.000195154               0.999999984               0.000568303              -0.000354992               0.999999984               0.000586578              -0.000293413               0.999999984               0.000590562              -0.000270731               0.999999984               0.000592597              -0.000266441               0.999999984               0.000595926              -0.000271377               0.999999984               0.000601055              -0.000280836               0.999999984               0.000607777              -0.000291944               0.999999984               0.000615570              -0.000303286               0.999999984               0.000623820              -0.000314156               0.999999984               0.000632092              -0.000323776               0.999999984               0.000640106              -0.000331667               0.999999984               0.000647483              -0.000337366               0.999999984               0.000653964              -0.000340300               0.999999984               0.000659416              -0.000340060               0.999999984               0.000663774              -0.000336265               0.999999984               0.000667100              -0.000328277               0.999999984               0.000669416              -0.000314992               0.999999984               0.000545960              -0.000468001               0.999999984               0.000544679              -0.000388878               0.999999984               0.000539410              -0.000362448               0.999999984               0.000537036              -0.000359548               0.999999984               0.000538122              -0.000367913               0.999999984               0.000542023              -0.000381623               0.999999984               0.000547510              -0.000397156               0.999999984               0.000553721              -0.000412720               0.999999984               0.000559878              -0.000427184               0.999999984               0.000565461              -0.000439895               0.999999984               0.000570070              -0.000450320               0.999999984               0.000573500              -0.000458102               0.999999984               0.000575620              -0.000462633               0.999999984               0.000576470              -0.000463772               0.999999984               0.000575923              -0.000461387               0.999999984               0.000573910              -0.000455036               0.999999984               0.000570535              -0.000444387               0.999999984               0.000517977              -0.000576442               0.999999984               0.000494634              -0.000482873               0.999999984               0.000480801              -0.000455047               0.999999984               0.000475476              -0.000454808               0.999999984               0.000475795              -0.000467176               0.999999984               0.000479187              -0.000485382               0.999999984               0.000483828              -0.000505289               0.999999984               0.000488540              -0.000524721               0.999999984               0.000492449              -0.000542463               0.999999984               0.000495072              -0.000557675               0.999999984               0.000496004              -0.000570197               0.999999984               0.000495200              -0.000579777               0.999999984               0.000492580              -0.000586113               0.999999984               0.000488119              -0.000589071               0.999999984               0.000481706              -0.000588428               0.999999984               0.000473434              -0.000584203               0.999999984               0.000463668              -0.000576843               0.999999984               0.000484806              -0.000679328               0.999999984               0.000439020              -0.000575334               0.999999984               0.000418893              -0.000548045               0.999999984               0.000412685              -0.000551329               0.999999984               0.000413416              -0.000568045               0.999999984               0.000417116              -0.000590410               0.999999984               0.000421350              -0.000614062               0.999999984               0.000424680              -0.000636617               0.999999984               0.000426271              -0.000656864               0.999999984               0.000425542              -0.000674049               0.999999984               0.000422359              -0.000688195               0.999999984               0.000416586              -0.000699358               0.999999984               0.000408251              -0.000707365               0.999999984               0.000397452              -0.000712042               0.999999984               0.000384364              -0.000713264               0.999999984               0.000369398              -0.000711680               0.999999984               0.000353205              -0.000708160               0.999999984               0.000447201              -0.000775523               0.999999984               0.000380672              -0.000665989               0.999999984               0.000357236              -0.000640757               0.999999984               0.000352248              -0.000647750               0.999999984               0.000354519              -0.000668346               0.999999984               0.000359062              -0.000694317               0.999999984               0.000362939              -0.000721007               0.999999984               0.000364677              -0.000745953               0.999999984               0.000363348              -0.000768046               0.999999984               0.000358566              -0.000786761               0.999999984               0.000350281              -0.000802200               0.999999984               0.000338641              -0.000814608               0.999999984               0.000323878              -0.000823842               0.999999984               0.000306184              -0.000829872               0.999999984               0.000286144              -0.000833116               0.999999984               0.000264569              -0.000834509               0.999999984               0.000242157              -0.000834849               0.999999984               0.000406593              -0.000863229               0.999999984               0.000321590              -0.000754803               0.999999984               0.000298996              -0.000732001               0.999999984               0.000296784              -0.000742149               0.999999984               0.000301238              -0.000766109               0.999999984               0.000306662              -0.000795083               0.999999984               0.000309908              -0.000824083               0.999999984               0.000309273              -0.000850883               0.999999984               0.000304085              -0.000874341               0.999999984               0.000294242              -0.000894195               0.999999984               0.000279978              -0.000910642               0.999999984               0.000261682              -0.000923927               0.999999984               0.000239657              -0.000934049               0.999999984               0.000214539              -0.000941474               0.999999984               0.000187710              -0.000947108               0.999999984               0.000160122              -0.000951819               0.999999984               0.000132273              -0.000955979               0.999999984               0.000364918              -0.000945788               0.999999984               0.000272731              -0.000852349               0.999999984               0.000247129              -0.000824833               0.999999984               0.000243695              -0.000828994               0.999999984               0.000247693              -0.000848122               0.999999984               0.000253428              -0.000873926               0.999999984               0.000257556              -0.000901861               0.999999984               0.000258345              -0.000928953               0.999999984               0.000254903              -0.000953968               0.999999984               0.000247094              -0.000976255               0.999999984               0.000234914              -0.000995712               0.999999984               0.000218634              -0.001012475               0.999999984               0.000198408              -0.001026650               0.999999984               0.000174198              -0.001038460               0.999999984               0.000147231              -0.001048401               0.999999984               0.000118917              -0.001057228               0.999999984               0.000090213              -0.001065415               0.999999984               0.000319283              -0.001020606               0.999999984               0.000226843              -0.000946227               0.999999984               0.000198258              -0.000919481               0.999999984               0.000192785              -0.000919688               0.999999984               0.000195627              -0.000934958               0.999999984               0.000200881              -0.000957993               0.999999984               0.000205322              -0.000984750               0.999999984               0.000206997              -0.001012180               0.999999984               0.000205048              -0.001038681               0.999999984               0.000199081              -0.001063366               0.999999984               0.000188917              -0.001085866               0.999999984               0.000174536              -0.001105964               0.999999984               0.000155978              -0.001123824               0.999999984               0.000133040              -0.001139525               0.999999984               0.000106186              -0.001153399               0.999999984               0.000076501              -0.001165998               0.999999984               0.000045525              -0.001177990               0.999999984               0.000270662              -0.001086069               0.999999984               0.000183811              -0.001033679               0.999999984               0.000153749              -0.001011725               0.999999984               0.000146058              -0.001010944               0.999999984               0.000147256              -0.001023679               0.999999984               0.000151397              -0.001044703               0.999999984               0.000155425              -0.001070479               0.999999984               0.000157472              -0.001098342               0.999999984               0.000156606              -0.001126456               0.999999984               0.000152255              -0.001153649               0.999999984               0.000144083              -0.001179372               0.999999984               0.000131725              -0.001203161               0.999999984               0.000114899              -0.001224980               0.999999984               0.000093405              -0.001244782               0.999999984               0.000067138              -0.001262747               0.999999984               0.000036433              -0.001279178               0.999999984               0.000002311              -0.001294746               0.999999984               0.000219614              -0.001141049               0.999999984               0.000143580              -0.001111152               0.999999984               0.000114372              -0.001096964               0.999999984               0.000105123              -0.001097870               0.999999984               0.000104453              -0.001110046               0.999999984               0.000107197              -0.001130085               0.999999984               0.000110396              -0.001155233               0.999999984               0.000112289              -0.001183480               0.999999984               0.000112098              -0.001213178               0.999999984               0.000109086              -0.001243010               0.999999984               0.000102755              -0.001272190               0.999999984               0.000092562              -0.001300125               0.999999984               0.000077948              -0.001326454               0.999999984               0.000058409              -0.001350943               0.999999984               0.000033496              -0.001373704               0.999999984               0.000002993              -0.001394773               0.999999984              -0.000033371              -0.001414529               0.999999984               0.000166611              -0.001184738               0.999999984               0.000105648              -0.001175401               0.999999984               0.000080181              -0.001170356               0.999999984               0.000070820              -0.001174651               0.999999984               0.000068823              -0.001187858               0.999999984               0.000070094              -0.001208192               0.999999984               0.000072202              -0.001233541               0.999999984               0.000073693              -0.001262345               0.999999984               0.000073728              -0.001293375               0.999999984               0.000071714              -0.001325587               0.999999984               0.000067165              -0.001358061               0.999999984               0.000059282              -0.001390100               0.999999984               0.000047515              -0.001421204               0.999999984               0.000031091              -0.001450960               0.999999984               0.000009252              -0.001479069               0.999999984              -0.000018691              -0.001505447               0.999999984              -0.000054011              -0.001530211               0.999999984               0.000112026              -0.001216576               0.999999984               0.000069466              -0.001223552               0.999999984               0.000050563              -0.001226986               0.999999984               0.000042841              -0.001235485               0.999999984               0.000040528              -0.001250548               0.999999984               0.000040829              -0.001271760               0.999999984               0.000041994              -0.001297827               0.999999984               0.000042892              -0.001327576               0.999999984               0.000042814              -0.001359900               0.999999984               0.000041517              -0.001394015               0.999999984               0.000038497              -0.001429234               0.999999984               0.000033172              -0.001464791               0.999999984               0.000024813              -0.001500040               0.999999984               0.000012875              -0.001534583               0.999999984              -0.000003356              -0.001567923               0.999999984              -0.000024992              -0.001599654               0.999999984              -0.000053753              -0.001629503               0.999999984               0.000056312              -0.001235939               0.999999984               0.000034461              -0.001253450               0.999999984               0.000024339              -0.001262795               0.999999984               0.000019987              -0.001274592               0.999999984               0.000018506              -0.001291436               0.999999984               0.000018423              -0.001313653               0.999999984               0.000018872              -0.001340481               0.999999984               0.000019292              -0.001371058               0.999999984               0.000019219              -0.001404455               0.999999984               0.000018472              -0.001439882               0.999999984               0.000016929              -0.001476767               0.999999984               0.000014260              -0.001514594               0.999999984               0.000009897              -0.001552701               0.999999984               0.000003574              -0.001590553               0.999999984              -0.000004971              -0.001627594               0.999999984              -0.000016784              -0.001663387               0.999999984              -0.000033133              -0.001697263               0.999999984              -0.000000000              -0.001242394               0.999999984               0.000000000              -0.001263624               0.999999984              -0.000000000              -0.001275158               0.999999984               0.000000000              -0.001288116               0.999999984              -0.000000000              -0.001305635               0.999999984              -0.000000000              -0.001328316               0.999999984              -0.000000000              -0.001355501               0.999999984               0.000000000              -0.001386398               0.999999984              -0.000000000              -0.001420168               0.999999984              -0.000000000              -0.001456140               0.999999984               0.000000000              -0.001493638               0.999999984               0.000000000              -0.001532221               0.999999984               0.000000000              -0.001571279               0.999999984               0.000000000              -0.001610284               0.999999984               0.000000000              -0.001648703               0.999999984               0.000000000              -0.001686010               0.999999984              -0.000000000              -0.001721440               0.999999984               0.000597682               0.000000000               0.999999984               0.000644192               0.000000000               0.999999984               0.000664593              -0.000000000               0.999999984               0.000676032              -0.000000000               0.999999984               0.000685028              -0.000000000               0.999999984               0.000694065               0.000000000               0.999999984               0.000704001              -0.000000000               0.999999984               0.000715036              -0.000000000               0.999999984               0.000727148              -0.000000000               0.999999984               0.000740248              -0.000000000               0.999999984               0.000754231              -0.000000000               0.999999984               0.000768781               0.000000000               0.999999984               0.000783709               0.000000000               0.999999984               0.000798580              -0.000000000               0.999999984               0.000812961               0.000000000               0.999999984               0.000826468               0.000000000               0.999999984               0.000838514               0.000000000               0.999999984               0.000594319               0.000119860               0.999999984               0.000637569               0.000098587               0.999999984               0.000655973               0.000089778               0.999999984               0.000666106               0.000087290               0.999999984               0.000674161               0.000088218               0.999999984               0.000682519               0.000090895               0.999999984               0.000691981               0.000094222               0.999999984               0.000702615               0.000097784               0.999999984               0.000714326               0.000101396               0.999999984               0.000726880               0.000104562               0.999999984               0.000740035               0.000107067               0.999999984               0.000753607               0.000108807               0.999999984               0.000767343               0.000109471               0.999999984               0.000780838               0.000108584               0.999999984               0.000793800               0.000105702               0.999999984               0.000805903               0.000100264               0.999999984               0.000816619               0.000091190               0.999999984               0.000584483               0.000238562               0.999999984               0.000618083               0.000196570               0.999999984               0.000630560               0.000179908               0.999999984               0.000637109               0.000175786               0.999999984               0.000643040               0.000178286               0.999999984               0.000649999               0.000184050               0.999999984               0.000658282               0.000191048               0.999999984               0.000667722               0.000198293               0.999999984               0.000677998               0.000205431               0.999999984               0.000688670               0.000211754               0.999999984               0.000699570               0.000216951               0.999999984               0.000710418               0.000220693               0.999999984               0.000720900               0.000222333               0.999999984               0.000730775               0.000221390               0.999999984               0.000739807               0.000217200               0.999999984               0.000747916               0.000208960               0.999999984               0.000754977               0.000195154               0.999999984               0.000568303               0.000354992               0.999999984               0.000586578               0.000293413               0.999999984               0.000590562               0.000270731               0.999999984               0.000592597               0.000266441               0.999999984               0.000595926               0.000271377               0.999999984               0.000601055               0.000280836               0.999999984               0.000607777               0.000291944               0.999999984               0.000615570               0.000303286               0.999999984               0.000623820               0.000314156               0.999999984               0.000632092               0.000323776               0.999999984               0.000640106               0.000331667               0.999999984               0.000647483               0.000337366               0.999999984               0.000653964               0.000340300               0.999999984               0.000659416               0.000340060               0.999999984               0.000663774               0.000336265               0.999999984               0.000667100               0.000328277               0.999999984               0.000669416               0.000314992               0.999999984               0.000545960               0.000468001               0.999999984               0.000544679               0.000388878               0.999999984               0.000539410               0.000362448               0.999999984               0.000537036               0.000359548               0.999999984               0.000538122               0.000367913               0.999999984               0.000542023               0.000381623               0.999999984               0.000547510               0.000397156               0.999999984               0.000553721               0.000412720               0.999999984               0.000559878               0.000427184               0.999999984               0.000565461               0.000439895               0.999999984               0.000570070               0.000450320               0.999999984               0.000573500               0.000458102               0.999999984               0.000575620               0.000462633               0.999999984               0.000576470               0.000463772               0.999999984               0.000575923               0.000461387               0.999999984               0.000573910               0.000455036               0.999999984               0.000570535               0.000444387               0.999999984               0.000517977               0.000576442               0.999999984               0.000494634               0.000482873               0.999999984               0.000480801               0.000455047               0.999999984               0.000475476               0.000454808               0.999999984               0.000475795               0.000467176               0.999999984               0.000479187               0.000485382               0.999999984               0.000483828               0.000505289               0.999999984               0.000488540               0.000524721               0.999999984               0.000492449               0.000542463               0.999999984               0.000495072               0.000557675               0.999999984               0.000496004               0.000570197               0.999999984               0.000495200               0.000579777               0.999999984               0.000492580               0.000586113               0.999999984               0.000488119               0.000589071               0.999999984               0.000481706               0.000588428               0.999999984               0.000473434               0.000584203               0.999999984               0.000463668               0.000576843               0.999999984               0.000484806               0.000679328               0.999999984               0.000439020               0.000575334               0.999999984               0.000418893               0.000548045               0.999999984               0.000412685               0.000551329               0.999999984               0.000413416               0.000568045               0.999999984               0.000417116               0.000590410               0.999999984               0.000421350               0.000614062               0.999999984               0.000424680               0.000636617               0.999999984               0.000426271               0.000656864               0.999999984               0.000425542               0.000674049               0.999999984               0.000422359               0.000688195               0.999999984               0.000416586               0.000699358               0.999999984               0.000408251               0.000707365               0.999999984               0.000397452               0.000712042               0.999999984               0.000384364               0.000713264               0.999999984               0.000369398               0.000711680               0.999999984               0.000353205               0.000708160               0.999999984               0.000447201               0.000775523               0.999999984               0.000380672               0.000665989               0.999999984               0.000357236               0.000640757               0.999999984               0.000352248               0.000647750               0.999999984               0.000354519               0.000668346               0.999999984               0.000359062               0.000694317               0.999999984               0.000362939               0.000721007               0.999999984               0.000364677               0.000745953               0.999999984               0.000363348               0.000768046               0.999999984               0.000358566               0.000786761               0.999999984               0.000350281               0.000802200               0.999999984               0.000338641               0.000814608               0.999999984               0.000323878               0.000823842               0.999999984               0.000306184               0.000829872               0.999999984               0.000286144               0.000833116               0.999999984               0.000264569               0.000834509               0.999999984               0.000242157               0.000834849               0.999999984               0.000406593               0.000863229               0.999999984               0.000321590               0.000754803               0.999999984               0.000298996               0.000732001               0.999999984               0.000296784               0.000742149               0.999999984               0.000301238               0.000766109               0.999999984               0.000306662               0.000795083               0.999999984               0.000309908               0.000824083               0.999999984               0.000309273               0.000850883               0.999999984               0.000304085               0.000874341               0.999999984               0.000294242               0.000894195               0.999999984               0.000279978               0.000910642               0.999999984               0.000261682               0.000923927               0.999999984               0.000239657               0.000934049               0.999999984               0.000214539               0.000941474               0.999999984               0.000187710               0.000947108               0.999999984               0.000160122               0.000951819               0.999999984               0.000132273               0.000955979               0.999999984               0.000364918               0.000945788               0.999999984               0.000272731               0.000852349               0.999999984               0.000247129               0.000824833               0.999999984               0.000243695               0.000828994               0.999999984               0.000247693               0.000848122               0.999999984               0.000253428               0.000873926               0.999999984               0.000257556               0.000901861               0.999999984               0.000258345               0.000928953               0.999999984               0.000254903               0.000953968               0.999999984               0.000247094               0.000976255               0.999999984               0.000234914               0.000995712               0.999999984               0.000218634               0.001012475               0.999999984               0.000198408               0.001026650               0.999999984               0.000174198               0.001038460               0.999999984               0.000147231               0.001048401               0.999999984               0.000118917               0.001057228               0.999999984               0.000090213               0.001065415               0.999999984               0.000319283               0.001020606               0.999999984               0.000226843               0.000946227               0.999999984               0.000198258               0.000919481               0.999999984               0.000192785               0.000919688               0.999999984               0.000195627               0.000934958               0.999999984               0.000200881               0.000957993               0.999999984               0.000205322               0.000984750               0.999999984               0.000206997               0.001012180               0.999999984               0.000205048               0.001038681               0.999999984               0.000199081               0.001063366               0.999999984               0.000188917               0.001085866               0.999999984               0.000174536               0.001105964               0.999999984               0.000155978               0.001123824               0.999999984               0.000133040               0.001139525               0.999999984               0.000106186               0.001153399               0.999999984               0.000076501               0.001165998               0.999999984               0.000045525               0.001177990               0.999999984               0.000270662               0.001086069               0.999999984               0.000183811               0.001033679               0.999999984               0.000153749               0.001011725               0.999999984               0.000146058               0.001010944               0.999999984               0.000147256               0.001023679               0.999999984               0.000151397               0.001044703               0.999999984               0.000155425               0.001070479               0.999999984               0.000157472               0.001098342               0.999999984               0.000156606               0.001126456               0.999999984               0.000152255               0.001153649               0.999999984               0.000144083               0.001179372               0.999999984               0.000131725               0.001203161               0.999999984               0.000114899               0.001224980               0.999999984               0.000093405               0.001244782               0.999999984               0.000067138               0.001262747               0.999999984               0.000036433               0.001279178               0.999999984               0.000002311               0.001294746               0.999999984               0.000219614               0.001141049               0.999999984               0.000143580               0.001111152               0.999999984               0.000114372               0.001096964               0.999999984               0.000105123               0.001097870               0.999999984               0.000104453               0.001110046               0.999999984               0.000107197               0.001130085               0.999999984               0.000110396               0.001155233               0.999999984               0.000112289               0.001183480               0.999999984               0.000112098               0.001213178               0.999999984               0.000109086               0.001243010               0.999999984               0.000102755               0.001272190               0.999999984               0.000092562               0.001300125               0.999999984               0.000077948               0.001326454               0.999999984               0.000058409               0.001350943               0.999999984               0.000033496               0.001373704               0.999999984               0.000002993               0.001394773               0.999999984              -0.000033371               0.001414529               0.999999984               0.000166611               0.001184738               0.999999984               0.000105648               0.001175401               0.999999984               0.000080181               0.001170356               0.999999984               0.000070820               0.001174651               0.999999984               0.000068823               0.001187858               0.999999984               0.000070094               0.001208192               0.999999984               0.000072202               0.001233541               0.999999984               0.000073693               0.001262345               0.999999984               0.000073728               0.001293375               0.999999984               0.000071714               0.001325587               0.999999984               0.000067165               0.001358061               0.999999984               0.000059282               0.001390100               0.999999984               0.000047515               0.001421204               0.999999984               0.000031091               0.001450960               0.999999984               0.000009252               0.001479069               0.999999984              -0.000018691               0.001505447               0.999999984              -0.000054011               0.001530211               0.999999984               0.000112026               0.001216576               0.999999984               0.000069466               0.001223552               0.999999984               0.000050563               0.001226986               0.999999984               0.000042841               0.001235485               0.999999984               0.000040528               0.001250548               0.999999984               0.000040829               0.001271760               0.999999984               0.000041994               0.001297827               0.999999984               0.000042892               0.001327576               0.999999984               0.000042814               0.001359900               0.999999984               0.000041517               0.001394015               0.999999984               0.000038497               0.001429234               0.999999984               0.000033172               0.001464791               0.999999984               0.000024813               0.001500040               0.999999984               0.000012875               0.001534583               0.999999984              -0.000003356               0.001567923               0.999999984              -0.000024992               0.001599654               0.999999984              -0.000053753               0.001629503               0.999999984               0.000056312               0.001235939               0.999999984               0.000034461               0.001253450               0.999999984               0.000024339               0.001262795               0.999999984               0.000019987               0.001274592               0.999999984               0.000018506               0.001291436               0.999999984               0.000018423               0.001313653               0.999999984               0.000018872               0.001340481               0.999999984               0.000019292               0.001371058               0.999999984               0.000019219               0.001404455               0.999999984               0.000018472               0.001439882               0.999999984               0.000016929               0.001476767               0.999999984               0.000014260               0.001514594               0.999999984               0.000009897               0.001552701               0.999999984               0.000003574               0.001590553               0.999999984              -0.000004971               0.001627594               0.999999984              -0.000016784               0.001663387               0.999999984              -0.000033133               0.001697263               0.999999984               0.000000000               0.001242394               0.999999984              -0.000000000               0.001263624               0.999999984               0.000000000               0.001275158               0.999999984              -0.000000000               0.001288116               0.999999984               0.000000000               0.001305635               0.999999984              -0.000000000               0.001328316               0.999999984              -0.000000000               0.001355501               0.999999984               0.000000000               0.001386398               0.999999984               0.000000000               0.001420168               0.999999984              -0.000000000               0.001456140               0.999999984              -0.000000000               0.001493638               0.999999984              -0.000000000               0.001532221               0.999999984               0.000000000               0.001571279               0.999999984              -0.000000000               0.001610284               0.999999984              -0.000000000               0.001648703               0.999999984               0.000000000               0.001686010               0.999999984               0.000000000               0.001721440               0.999999984 </DataArray>
<DataArray type="Float64"                                    Name="defo"                                                      NumberOfComponents=" 3" format="ascii">
             -0.000597682               0.000000000               0.999999984              -0.000644192               0.000000000               0.999999984              -0.000664593               0.000000000               0.999999984              -0.000676032               0.000000000               0.999999984              -0.000685028              -0.000000000               0.999999984              -0.000694065              -0.000000000               0.999999984              -0.000704001               0.000000000               0.999999984              -0.000715036              -0.000000000               0.999999984              -0.000727148               0.000000000               0.999999984              -0.000740248               0.000000000               0.999999984              -0.000754231              -0.000000000               0.999999984              -0.000768781              -0.000000000               0.999999984              -0.000783709               0.000000000               0.999999984              -0.000798580               0.000000000               0.999999984              -0.000812961               0.000000000               0.999999984              -0.000826468              -0.000000000               0.999999984              -0.000838514               0.000000000               0.999999984              -0.000594319               0.000119860               0.999999984              -0.000637569               0.000098587               0.999999984              -0.000655973               0.000089778               0.999999984              -0.000666106               0.000087290               0.999999984              -0.000674161               0.000088218               0.999999984              -0.000682519               0.000090895               0.999999984              -0.000691981               0.000094222               0.999999984              -0.000702615               0.000097784               0.999999984              -0.000714326               0.000101396               0.999999984              -0.000726880               0.000104562               0.999999984              -0.000740035               0.000107067               0.999999984              -0.000753607               0.000108807               0.999999984              -0.000767343               0.000109471               0.999999984              -0.000780838               0.000108584               0.999999984              -0.000793800               0.000105702               0.999999984              -0.000805903               0.000100264               0.999999984              -0.000816619               0.000091190               0.999999984              -0.000584483               0.000238562               0.999999984              -0.000618083               0.000196570               0.999999984              -0.000630560               0.000179908               0.999999984              -0.000637109               0.000175786               0.999999984              -0.000643040               0.000178286               0.999999984              -0.000649999               0.000184050               0.999999984              -0.000658282               0.000191048               0.999999984              -0.000667722               0.000198293               0.999999984              -0.000677998               0.000205431               0.999999984              -0.000688670               0.000211754               0.999999984              -0.000699570               0.000216951               0.999999984              -0.000710418               0.000220693               0.999999984              -0.000720900               0.000222333               0.999999984              -0.000730775               0.000221390               0.999999984              -0.000739807               0.000217200               0.999999984              -0.000747916               0.000208960               0.999999984              -0.000754977               0.000195154               0.999999984              -0.000568303               0.000354992               0.999999984              -0.000586578               0.000293413               0.999999984              -0.000590562               0.000270731               0.999999984              -0.000592597               0.000266441               0.999999984              -0.000595926               0.000271377               0.999999984              -0.000601055               0.000280836               0.999999984              -0.000607777               0.000291944               0.999999984              -0.000615570               0.000303286               0.999999984              -0.000623820               0.000314156               0.999999984              -0.000632092               0.000323776               0.999999984              -0.000640106               0.000331667               0.999999984              -0.000647483               0.000337366               0.999999984              -0.000653964               0.000340300               0.999999984              -0.000659416               0.000340060               0.999999984              -0.000663774               0.000336265               0.999999984              -0.000667100               0.000328277               0.999999984              -0.000669416               0.000314992               0.999999984              -0.000545960               0.000468001               0.999999984              -0.000544679               0.000388878               0.999999984              -0.000539410               0.000362448               0.999999984              -0.000537036               0.000359548               0.999999984              -0.000538122               0.000367913               0.999999984              -0.000542023               0.000381623               0.999999984              -0.000547510               0.000397156               0.999999984              -0.000553721               0.000412720               0.999999984              -0.000559878               0.000427184               0.999999984              -0.000565461               0.000439895               0.999999984              -0.000570070               0.000450320               0.999999984              -0.000573500               0.000458102               0.999999984              -0.000575620               0.000462633               0.999999984              -0.000576470               0.000463772               0.999999984              -0.000575923               0.000461387               0.999999984              -0.000573910               0.000455036               0.999999984              -0.000570535               0.000444387               0.999999984              -0.000517977               0.000576442               0.999999984              -0.000494634               0.000482873               0.999999984              -0.000480801               0.000455047               0.999999984              -0.000475476               0.000454808               0.999999984              -0.000475795               0.000467176               0.999999984              -0.000479187               0.000485382               0.999999984              -0.000483828               0.000505289               0.999999984              -0.000488540               0.000524721               0.999999984              -0.000492449               0.000542463               0.999999984              -0.000495072               0.000557675               0.999999984              -0.000496004               0.000570197               0.999999984              -0.000495200               0.000579777               0.999999984              -0.000492580               0.000586113               0.999999984              -0.000488119               0.000589071               0.999999984              -0.000481706               0.000588428               0.999999984              -0.000473434               0.000584203               0.999999984              -0.000463668               0.000576843               0.999999984              -0.000484806               0.000679328               0.999999984              -0.000439020               0.000575334               0.999999984              -0.000418893               0.000548045               0.999999984              -0.000412685               0.000551329               0.999999984              -0.000413416               0.000568045               0.999999984              -0.000417116               0.000590410               0.999999984              -0.000421350               0.000614062               0.999999984              -0.000424680               0.000636617               0.999999984              -0.000426271               0.000656864               0.999999984              -0.000425542               0.000674049               0.999999984              -0.000422359               0.000688195               0.999999984              -0.000416586               0.000699358               0.999999984              -0.000408251               0.000707365               0.999999984              -0.000397452               0.000712042               0.999999984              -0.000384364               0.000713264               0.999999984              -0.000369398               0.000711680               0.999999984              -0.000353205               0.000708160               0.999999984              -0.000447201               0.000775523               0.999999984              -0.000380672               0.000665989               0.999999984              -0.000357236               0.000640757               0.999999984              -0.000352248               0.000647750               0.999999984              -0.000354519               0.000668346               0.999999984              -0.000359062               0.000694317               0.999999984              -0.000362939               0.000721007               0.999999984              -0.000364677               0.000745953               0.999999984              -0.000363348               0.000768046               0.999999984              -0.000358566               0.000786761               0.999999984              -0.000350281               0.000802200               0.999999984              -0.000338641               0.000814608               0.999999984              -0.000323878               0.000823842               0.999999984              -0.000306184               0.000829872               0.999999984              -0.000286144               0.000833116               0.999999984              -0.000264569               0.000834509               0.999999984              -0.000242157               0.000834849               0.999999984              -0.000406593               0.000863229               0.999999984              -0.000321590               0.000754803               0.999999984              -0.000298996               0.000732001               0.999999984              -0.000296784               0.000742149               0.999999984              -0.000301238               0.000766109               0.999999984              -0.000306662               0.000795083               0.999999984              -0.000309908               0.000824083               0.999999984              -0.000309273               0.000850883               0.999999984              -0.000304085               0.000874341               0.999999984              -0.000294242               0.000894195               0.999999984              -0.000279978               0.000910642               0.999999984              -0.000261682               0.000923927               0.999999984              -0.000239657               0.000934049               0.999999984              -0.000214539               0.000941474               0.999999984              -0.000187710               0.000947108               0.999999984              -0.000160122               0.000951819               0.999999984              -0.000132273               0.000955979               0.999999984              -0.000364918               0.000945788               0.999999984              -0.000272731               0.000852349               0.999999984              -0.000247129               0.000824833               0.999999984              -0.000243695               0.000828994               0.999999984              -0.000247693               0.000848122               0.999999984              -0.000253428               0.000873926               0.999999984              -0.000257556               0.000901861               0.999999984              -0.000258345               0.000928953               0.999999984              -0.000254903               0.000953968               0.999999984              -0.000247094               0.000976255               0.999999984              -0.000234914               0.000995712               0.999999984              -0.000218634               0.001012475               0.999999984              -0.000198408               0.001026650               0.999999984              -0.000174198               0.001038460               0.999999984              -0.000147231               0.001048401               0.999999984              -0.000118917               0.001057228               0.999999984              -0.000090213               0.001065415               0.999999984              -0.000319283               0.001020606               0.999999984              -0.000226843               0.000946227               0.999999984              -0.000198258               0.000919481               0.999999984              -0.000192785               0.000919688               0.999999984              -0.000195627               0.000934958               0.999999984              -0.000200881               0.000957993               0.999999984              -0.000205322               0.000984750               0.999999984              -0.000206997               0.001012180               0.999999984              -0.000205048               0.001038681               0.999999984              -0.000199081               0.001063366               0.999999984              -0.000188917               0.001085866               0.999999984              -0.000174536               0.001105964               0.999999984              -0.000155978               0.001123824               0.999999984              -0.000133040               0.001139525               0.999999984              -0.000106186               0.001153399               0.999999984              -0.000076501               0.001165998               0.999999984              -0.000045525               0.001177990               0.999999984              -0.000270662               0.001086069               0.999999984              -0.000183811               0.001033679               0.999999984              -0.000153749               0.001011725               0.999999984              -0.000146058               0.001010944               0.999999984              -0.000147256               0.001023679               0.999999984              -0.000151397               0.001044703               0.999999984              -0.000155425               0.001070479               0.999999984              -0.000157472               0.001098342               0.999999984              -0.000156606               0.001126456               0.999999984              -0.000152255               0.001153649               0.999999984              -0.000144083               0.001179372               0.999999984              -0.000131725               0.001203161               0.999999984              -0.000114899               0.001224980               0.999999984              -0.000093405               0.001244782               0.999999984              -0.000067138               0.001262747               0.999999984              -0.000036433               0.001279178               0.999999984              -0.000002311               0.001294746               0.999999984              -0.000219614               0.001141049               0.999999984              -0.000143580               0.001111152               0.999999984              -0.000114372               0.001096964               0.999999984              -0.000105123               0.001097870               0.999999984              -0.000104453               0.001110046               0.999999984              -0.000107197               0.001130085               0.999999984              -0.000110396               0.001155233               0.999999984              -0.000112289               0.001183480               0.999999984              -0.000112098               0.001213178               0.999999984              -0.000109086               0.001243010               0.999999984              -0.000102755               0.001272190               0.999999984              -0.000092562               0.001300125               0.999999984              -0.000077948               0.001326454               0.999999984              -0.000058409               0.001350943               0.999999984              -0.000033496               0.001373704               0.999999984              -0.000002993               0.001394773               0.999999984               0.000033371               0.001414529               0.999999984              -0.000166611               0.001184738               0.999999984              -0.000105648               0.001175401               0.999999984              -0.000080181               0.001170356               0.999999984              -0.000070820               0.001174651               0.999999984              -0.000068823               0.001187858               0.999999984              -0.000070094               0.001208192               0.999999984              -0.000072202               0.001233541               0.999999984              -0.000073693               0.001262345               0.999999984              -0.000073728               0.001293375               0.999999984              -0.000071714               0.001325587               0.999999984              -0.000067165               0.001358061               0.999999984              -0.000059282               0.001390100               0.999999984              -0.000047515               0.001421204               0.999999984              -0.000031091               0.001450960               0.999999984              -0.000009252               0.001479069               0.999999984               0.000018691               0.001505447               0.999999984               0.000054011               0.001530211               0.999999984              -0.000112026               0.001216576               0.999999984              -0.000069466               0.001223552               0.999999984              -0.000050563               0.001226986               0.999999984              -0.000042841               0.001235485               0.999999984              -0.000040528               0.001250548               0.999999984              -0.000040829               0.001271760               0.999999984              -0.000041994               0.001297827               0.999999984              -0.000042892               0.001327576               0.999999984              -0.000042814               0.001359900               0.999999984              -0.000041517               0.001394015               0.999999984              -0.000038497               0.001429234               0.999999984              -0.000033172               0.001464791               0.999999984              -0.000024813               0.001500040               0.999999984              -0.000012875               0.001534583               0.999999984               0.000003356               0.001567923               0.999999984               0.000024992               0.001599654               0.999999984               0.000053753               0.001629503               0.999999984              -0.000056312               0.001235939               0.999999984              -0.000034461               0.001253450               0.999999984              -0.000024339               0.001262795               0.999999984              -0.000019987               0.001274592               0.999999984              -0.000018506               0.001291436               0.999999984              -0.000018423               0.001313653               0.999999984              -0.000018872               0.001340481               0.999999984              -0.000019292               0.001371058               0.999999984              -0.000019219               0.001404455               0.999999984              -0.000018472               0.001439882               0.999999984              -0.000016929               0.001476767               0.999999984              -0.000014260               0.001514594               0.999999984              -0.000009897               0.001552701               0.999999984              -0.000003574               0.001590553               0.999999984               0.000004971               0.001627594               0.999999984               0.000016784               0.001663387               0.999999984               0.000033133               0.001697263               0.999999984               0.000000000               0.001242394               0.999999984              -0.000000000               0.001263624               0.999999984               0.000000000               0.001275158               0.999999984              -0.000000000               0.001288116               0.999999984               0.000000000               0.001305635               0.999999984              -0.000000000               0.001328316               0.999999984              -0.000000000               0.001355501               0.999999984               0.000000000               0.001386398               0.999999984               0.000000000               0.001420168               0.999999984              -0.000000000               0.001456140               0.999999984              -0.000000000               0.001493638               0.999999984              -0.000000000               0.001532221               0.999999984               0.000000000               0.001571279               0.999999984              -0.000000000               0.001610284               0.999999984              -0.000000000               0.001648703               0.999999984               0.000000000               0.001686010               0.999999984               0.000000000               0.001721440               0.999999984              -0.000597682               0.000000000               0.999999984              -0.000644192               0.000000000               0.999999984              -0.000664593               0.000000000               0.999999984              -0.000676032               0.000000000               0.999999984              -0.000685028              -0.000000000               0.999999984              -0.000694065              -0.000000000               0.999999984              -0.000704001               0.000000000               0.999999984              -0.000715036              -0.000000000               0.999999984              -0.000727148               0.000000000               0.999999984              -0.000740248               0.000000000               0.999999984              -0.000754231              -0.000000000               0.999999984              -0.000768781              -0.000000000               0.999999984              -0.000783709               0.000000000               0.999999984              -0.000798580               0.000000000               0.999999984              -0.000812961               0.000000000               0.999999984              -0.000826468              -0.000000000               0.999999984              -0.000838514               0.000000000               0.999999984              -0.000594319              -0.000119860               0.999999984              -0.000637569              -0.000098587               0.999999984              -0.000655973              -0.000089778               0.999999984              -0.000666106              -0.000087290               0.999999984              -0.000674161              -0.000088218               0.999999984              -0.000682519              -0.000090895               0.999999984              -0.000691981              -0.000094222               0.999999984              -0.000702615              -0.000097784               0.999999984              -0.000714326              -0.000101396               0.999999984              -0.000726880              -0.000104562               0.999999984              -0.000740035              -0.000107067               0.999999984              -0.000753607              -0.000108807               0.999999984              -0.000767343              -0.000109471               0.999999984              -0.000780838              -0.000108584               0.999999984              -0.000793800              -0.000105702               0.999999984              -0.000805903              -0.000100264               0.999999984              -0.000816619              -0.000091190               0.999999984              -0.000584483              -0.000238562               0.999999984              -0.000618083              -0.000196570               0.999999984              -0.000630560              -0.000179908               0.999999984              -0.000637109              -0.000175786               0.999999984              -0.000643040              -0.000178286               0.999999984              -0.000649999              -0.000184050               0.999999984              -0.000658282              -0.000191048               0.999999984              -0.000667722              -0.000198293               0.999999984              -0.000677998              -0.000205431               0.999999984              -0.000688670              -0.000211754               0.999999984              -0.000699570              -0.000216951               0.999999984              -0.000710418              -0.000220693               0.999999984              -0.000720900              -0.000222333               0.999999984              -0.000730775              -0.000221390               0.999999984              -0.000739807              -0.000217200               0.999999984              -0.000747916              -0.000208960               0.999999984              -0.000754977              -0.000195154               0.999999984              -0.000568303              -0.000354992               0.999999984              -0.000586578              -0.000293413               0.999999984              -0.000590562              -0.000270731               0.999999984              -0.000592597              -0.000266441               0.999999984              -0.000595926              -0.000271377               0.999999984              -0.000601055              -0.000280836               0.999999984              -0.000607777              -0.000291944               0.999999984              -0.000615570              -0.000303286               0.999999984              -0.000623820              -0.000314156               0.999999984              -0.000632092              -0.000323776               0.999999984              -0.000640106              -0.000331667               0.999999984              -0.000647483              -0.000337366               0.999999984              -0.000653964              -0.000340300               0.999999984              -0.000659416              -0.000340060               0.999999984              -0.000663774              -0.000336265               0.999999984              -0.000667100              -0.000328277               0.999999984              -0.000669416              -0.000314992               0.999999984              -0.000545960              -0.000468001               0.999999984              -0.000544679              -0.000388878               0.999999984              -0.000539410              -0.000362448               0.999999984              -0.000537036              -0.000359548               0.999999984              -0.000538122              -0.000367913               0.999999984              -0.000542023              -0.000381623               0.999999984              -0.000547510              -0.000397156               0.999999984              -0.000553721              -0.000412720               0.999999984              -0.000559878              -0.000427184               0.999999984              -0.000565461              -0.000439895               0.999999984              -0.000570070              -0.000450320               0.999999984              -0.000573500              -0.000458102               0.999999984              -0.000575620              -0.000462633               0.999999984              -0.000576470              -0.000463772               0.999999984              -0.000575923              -0.000461387               0.999999984              -0.000573910              -0.000455036               0.999999984              -0.000570535              -0.000444387               0.999999984              -0.000517977              -0.000576442               0.999999984              -0.000494634              -0.000482873               0.999999984              -0.000480801              -0.000455047               0.999999984              -0.000475476              -0.000454808               0.999999984              -0.000475795              -0.000467176               0.999999984              -0.000479187              -0.000485382               0.999999984              -0.000483828              -0.000505289               0.999999984              -0.000488540              -0.000524721               0.999999984              -0.000492449              -0.000542463               0.999999984              -0.000495072              -0.000557675               0.999999984              -0.000496004              -0.000570197               0.999999984              -0.000495200              -0.000579777               0.999999984              -0.000492580              -0.000586113               0.999999984              -0.000488119              -0.000589071               0.999999984              -0.000481706              -0.000588428               0.999999984              -0.000473434              -0.000584203               0.999999984              -0.000463668              -0.000576843               0.999999984              -0.000484806              -0.000679328               0.999999984              -0.000439020              -0.000575334               0.999999984              -0.000418893              -0.000548045               0.999999984              -0.000412685              -0.000551329               0.999999984              -0.000413416              -0.000568045               0.999999984              -0.000417116              -0.000590410               0.999999984              -0.000421350              -0.000614062               0.999999984              -0.000424680              -0.000636617               0.999999984              -0.000426271              -0.000656864               0.999999984              -0.000425542              -0.000674049               0.999999984              -0.000422359              -0.000688195               0.999999984              -0.000416586              -0.000699358               0.999999984              -0.000408251              -0.000707365               0.999999984              -0.000397452              -0.000712042               0.999999984              -0.000384364              -0.000713264               0.999999984              -0.000369398              -0.000711680               0.999999984              -0.000353205              -0.000708160               0.999999984              -0.000447201              -0.000775523               0.999999984              -0.000380672              -0.000665989               0.999999984              -0.000357236              -0.000640757               0.999999984              -0.000352248              -0.000647750               0.999999984              -0.000354519              -0.000668346               0.999999984              -0.000359062              -0.000694317               0.999999984              -0.000362939              -0.000721007               0.999999984              -0.000364677              -0.000745953               0.999999984              -0.000363348              -0.000768046               0.999999984              -0.000358566              -0.000786761               0.999999984              -0.000350281              -0.000802200               0.999999984              -0.000338641              -0.000814608               0.999999984              -0.000323878              -0.000823842               0.999999984              -0.000306184              -0.000829872               0.999999984              -0.000286144              -0.000833116               0.999999984              -0.000264569              -0.000834509               0.999999984              -0.000242157              -0.000834849               0.999999984              -0.000406593              -0.000863229               0.999999984              -0.000321590              -0.000754803               0.999999984              -0.000298996              -0.000732001               0.999999984              -0.000296784              -0.000742149               0.999999984              -0.000301238              -0.000766109               0.999999984              -0.000306662              -0.000795083               0.999999984              -0.000309908              -0.000824083               0.999999984              -0.000309273              -0.000850883               0.999999984              -0.000304085              -0.000874341               0.999999984              -0.000294242              -0.000894195               0.999999984              -0.000279978              -0.000910642               0.999999984              -0.000261682              -0.000923927               0.999999984              -0.000239657              -0.000934049               0.999999984              -0.000214539              -0.000941474               0.999999984              -0.000187710              -0.000947108               0.999999984              -0.000160122              -0.000951819               0.999999984              -0.000132273              -0.000955979               0.999999984              -0.000364918              -0.000945788               0.999999984              -0.000272731              -0.000852349               0.999999984              -0.000247129              -0.000824833               0.999999984              -0.000243695              -0.000828994               0.999999984              -0.000247693              -0.000848122               0.999999984              -0.000253428              -0.000873926               0.999999984              -0.000257556              -0.000901861               0.999999984              -0.000258345              -0.000928953               0.999999984              -0.000254903              -0.000953968               0.999999984              -0.000247094              -0.000976255               0.999999984              -0.000234914              -0.000995712               0.999999984              -0.000218634              -0.001012475               0.999999984              -0.000198408              -0.001026650               0.999999984              -0.000174198              -0.001038460               0.999999984              -0.000147231              -0.001048401               0.999999984              -0.000118917              -0.001057228               0.999999984              -0.000090213              -0.001065415               0.999999984              -0.000319283              -0.001020606               0.999999984              -0.000226843              -0.000946227               0.999999984              -0.000198258              -0.000919481               0.999999984              -0.000192785              -0.000919688               0.999999984              -0.000195627              -0.000934958               0.999999984              -0.000200881              -0.000957993               0.999999984              -0.000205322              -0.000984750               0.999999984              -0.000206997              -0.001012180               0.999999984              -0.000205048              -0.001038681               0.999999984              -0.000199081              -0.001063366               0.999999984              -0.000188917              -0.001085866               0.999999984              -0.000174536              -0.001105964               0.999999984              -0.000155978              -0.001123824               0.999999984              -0.000133040              -0.001139525               0.999999984              -0.000106186              -0.001153399               0.999999984              -0.000076501              -0.001165998               0.999999984              -0.000045525              -0.001177990               0.999999984              -0.000270662              -0.001086069               0.999999984              -0.000183811              -0.001033679               0.999999984              -0.000153749              -0.001011725               0.999999984              -0.000146058              -0.001010944               0.999999984              -0.000147256              -0.001023679               0.999999984              -0.000151397              -0.001044703               0.999999984              -0.000155425              -0.001070479               0.999999984              -0.000157472              -0.001098342               0.999999984              -0.000156606              -0.001126456               0.999999984              -0.000152255              -0.001153649               0.999999984              -0.000144083              -0.001179372               0.999999984              -0.000131725              -0.001203161               0.999999984              -0.000114899              -0.001224980               0.999999984              -0.000093405              -0.001244782               0.999999984              -0.000067138              -0.001262747               0.999999984              -0.000036433              -0.001279178               0.999999984              -0.000002311              -0.001294746               0.999999984              -0.000219614              -0.001141049               0.999999984              -0.000143580              -0.001111152               0.999999984              -0.000114372              -0.001096964               0.999999984              -0.000105123              -0.001097870               0.999999984              -0.000104453              -0.001110046               0.999999984              -0.000107197              -0.001130085               0.999999984              -0.000110396              -0.001155233               0.999999984              -0.000112289              -0.001183480               0.999999984              -0.000112098              -0.001213178               0.999999984              -0.000109086              -0.001243010               0.999999984              -0.000102755              -0.001272190               0.999999984              -0.000092562              -0.001300125               0.999999984              -0.000077948              -0.001326454               0.999999984              -0.000058409              -0.001350943               0.999999984              -0.000033496              -0.001373704               0.999999984              -0.000002993              -0.001394773               0.999999984               0.000033371              -0.001414529               0.999999984              -0.000166611              -0.001184738               0.999999984              -0.000105648              -0.001175401               0.999999984              -0.000080181              -0.001170356               0.999999984              -0.000070820              -0.001174651               0.999999984              -0.000068823              -0.001187858               0.999999984              -0.000070094              -0.001208192               0.999999984              -0.000072202              -0.001233541               0.999999984              -0.000073693              -0.001262345               0.999999984              -0.000073728              -0.001293375               0.999999984              -0.000071714              -0.001325587               0.999999984              -0.000067165              -0.001358061               0.999999984              -0.000059282              -0.001390100               0.999999984              -0.000047515              -0.001421204               0.999999984              -0.000031091              -0.001450960               0.999999984              -0.000009252              -0.001479069               0.999999984               0.000018691              -0.001505447               0.999999984               0.000054011              -0.001530211               0.999999984              -0.000112026              -0.001216576               0.999999984              -0.000069466              -0.001223552               0.999999984              -0.000050563              -0.001226986               0.999999984              -0.000042841              -0.001235485               0.999999984              -0.000040528              -0.001250548               0.999999984              -0.000040829              -0.001271760               0.999999984              -0.000041994              -0.001297827               0.999999984              -0.000042892              -0.001327576               0.999999984              -0.000042814              -0.001359900               0.999999984              -0.000041517              -0.001394015               0.999999984              -0.000038497              -0.001429234               0.999999984              -0.000033172              -0.001464791               0.999999984              -0.000024813              -0.001500040               0.999999984              -0.000012875              -0.001534583               0.999999984               0.000003356              -0.001567923               0.999999984               0.000024992              -0.001599654               0.999999984               0.000053753              -0.001629503               0.999999984              -0.000056312              -0.001235939               0.999999984              -0.000034461              -0.001253450               0.999999984              -0.000024339              -0.001262795               0.999999984              -0.000019987              -0.001274592               0.999999984              -0.000018506              -0.001291436               0.999999984              -0.000018423              -0.001313653               0.999999984              -0.000018872              -0.001340481               0.999999984              -0.000019292              -0.001371058               0.999999984              -0.000019219              -0.001404455               0.999999984              -0.000018472              -0.001439882               0.999999984              -0.000016929              -0.001476767               0.999999984              -0.000014260              -0.001514594               0.999999984              -0.000009897              -0.001552701               0.999999984              -0.000003574              -0.001590553               0.999999984               0.000004971              -0.001627594               0.999999984               0.000016784              -0.001663387               0.999999984               0.000033133              -0.001697263               0.999999984              -0.000000000              -0.001242394               0.999999984               0.000000000              -0.001263624               0.999999984              -0.000000000              -0.001275158               0.999999984               0.000000000              -0.001288116               0.999999984              -0.000000000              -0.001305635               0.999999984              -0.000000000              -0.001328316               0.999999984              -0.000000000              -0.001355501               0.999999984               0.000000000              -0.001386398               0.999999984              -0.000000000              -0.001420168               0.999999984              -0.000000000              -0.001456140               0.999999984               0.000000000              -0.001493638               0.999999984               0.000000000              -0.001532221               0.999999984               0.000000000              -0.001571279               0.999999984               0.000000000              -0.001610284               0.999999984               0.000000000              -0.001648703               0.999999984               0.000000000              -0.001686010               0.999999984              -0.000000000              -0.001721440               0.999999984               0.000597682               0.000000000               0.999999984               0.000644192               0.000000000               0.999999984               0.000664593              -0.000000000               0.999999984               0.000676032              -0.000000000               0.999999984               0.000685028              -0.000000000               0.999999984               0.000694065               0.000000000               0.999999984               0.000704001              -0.000000000               0.999999984               0.000715036              -0.000000000               0.999999984               0.000727148              -0.000000000               0.999999984               0.000740248              -0.000000000               0.999999984               0.000754231              -0.000000000               0.999999984               0.000768781               0.000000000               0.999999984               0.000783709               0.000000000               0.999999984               0.000798580              -0.000000000               0.999999984               0.000812961               0.000000000               0.999999984               0.000826468               0.000000000               0.999999984               0.000838514               0.000000000               0.999999984               0.000594319              -0.000119860               0.999999984               0.000637569              -0.000098587               0.999999984               0.000655973              -0.000089778               0.999999984               0.000666106              -0.000087290               0.999999984               0.000674161              -0.000088218               0.999999984               0.000682519              -0.000090895               0.999999984               0.000691981              -0.000094222               0.999999984               0.000702615              -0.000097784               0.999999984               0.000714326              -0.000101396               0.999999984               0.000726880              -0.000104562               0.999999984               0.000740035              -0.000107067               0.999999984               0.000753607              -0.000108807               0.999999984               0.000767343              -0.000109471               0.999999984               0.000780838              -0.000108584               0.999999984               0.000793800              -0.000105702               0.999999984               0.000805903              -0.000100264               0.999999984               0.000816619              -0.000091190               0.999999984               0.000584483              -0.000238562               0.999999984               0.000618083              -0.000196570               0.999999984               0.000630560              -0.000179908               0.999999984               0.000637109              -0.000175786               0.999999984               0.000643040              -0.000178286               0.999999984               0.000649999              -0.000184050               0.999999984               0.000658282              -0.000191048               0.999999984               0.000667722              -0.000198293               0.999999984               0.000677998              -0.000205431               0.999999984               0.000688670              -0.000211754               0.999999984               0.000699570              -0.000216951               0.999999984               0.000710418              -0.000220693               0.999999984               0.000720900              -0.000222333               0.999999984               0.000730775              -0.000221390               0.999999984               0.000739807              -0.000217200               0.999999984               0.000747916              -0.000208960               0.999999984               0.000754977              -0.000195154               0.999999984               0.000568303              -0.000354992               0.999999984               0.000586578              -0.000293413               0.999999984               0.000590562              -0.000270731               0.999999984               0.000592597              -0.000266441               0.999999984               0.000595926              -0.000271377               0.999999984               0.000601055              -0.000280836               0.999999984               0.000607777              -0.000291944               0.999999984               0.000615570              -0.000303286               0.999999984               0.000623820              -0.000314156               0.999999984               0.000632092              -0.000323776               0.999999984               0.000640106              -0.000331667               0.999999984               0.000647483              -0.000337366               0.999999984               0.000653964              -0.000340300               0.999999984               0.000659416              -0.000340060               0.999999984               0.000663774              -0.000336265               0.999999984               0.000667100              -0.000328277               0.999999984               0.000669416              -0.000314992               0.999999984               0.000545960              -0.000468001               0.999999984               0.000544679              -0.000388878               0.999999984               0.000539410              -0.000362448               0.999999984               0.000537036              -0.000359548               0.999999984               0.000538122              -0.000367913               0.999999984               0.000542023              -0.000381623               0.999999984               0.000547510              -0.000397156               0.999999984               0.000553721              -0.000412720               0.999999984               0.000559878              -0.000427184               0.999999984               0.000565461              -0.000439895               0.999999984               0.000570070              -0.000450320               0.999999984               0.000573500              -0.000458102               0.999999984               0.000575620              -0.000462633               0.999999984               0.000576470              -0.000463772               0.999999984               0.000575923              -0.000461387               0.999999984               0.000573910              -0.000455036               0.999999984               0.000570535              -0.000444387               0.999999984               0.000517977              -0.000576442               0.999999984               0.000494634              -0.000482873               0.999999984               0.000480801              -0.000455047               0.999999984               0.000475476              -0.000454808               0.999999984               0.000475795              -0.000467176               0.999999984               0.000479187              -0.000485382               0.999999984               0.000483828              -0.000505289               0.999999984               0.000488540              -0.000524721               0.999999984               0.000492449              -0.000542463               0.999999984               0.000495072              -0.000557675               0.999999984               0.000496004              -0.000570197               0.999999984               0.000495200              -0.000579777               0.999999984               0.000492580              -0.000586113               0.999999984               0.000488119              -0.000589071               0.999999984               0.000481706              -0.000588428               0.999999984               0.000473434              -0.000584203               0.999999984               0.000463668              -0.000576843               0.999999984               0.000484806              -0.000679328               0.999999984               0.000439020              -0.000575334               0.999999984               0.000418893              -0.000548045               0.999999984               0.000412685              -0.000551329               0.999999984               0.000413416              -0.000568045               0.999999984               0.000417116              -0.000590410               0.999999984               0.000421350              -0.000614062               0.999999984               0.000424680              -0.000636617               0.999999984               0.000426271              -0.000656864               0.999999984               0.000425542              -0.000674049               0.999999984               0.000422359              -0.000688195               0.999999984               0.000416586              -0.000699358               0.999999984               0.000408251              -0.000707365               0.999999984               0.000397452              -0.000712042               0.999999984               0.000384364              -0.000713264               0.999999984               0.000369398              -0.000711680               0.999999984               0.000353205              -0.000708160               0.999999984               0.000447201              -0.000775523               0.999999984               0.000380672              -0.000665989               0.999999984               0.000357236              -0.000640757               0.999999984               0.000352248              -0.000647750               0.999999984               0.000354519              -0.000668346               0.999999984               0.000359062              -0.000694317               0.999999984               0.000362939              -0.000721007               0.999999984               0.000364677              -0.000745953               0.999999984               0.000363348              -0.000768046               0.999999984               0.000358566              -0.000786761               0.999999984               0.000350281              -0.000802200               0.999999984               0.000338641              -0.000814608               0.999999984               0.000323878              -0.000823842               0.999999984               0.000306184              -0.000829872               0.999999984               0.000286144              -0.000833116               0.999999984               0.000264569              -0.000834509               0.999999984               0.000242157              -0.000834849               0.999999984               0.000406593              -0.000863229               0.999999984               0.000321590              -0.000754803               0.999999984               0.000298996              -0.000732001               0.999999984               0.000296784              -0.000742149               0.999999984               0.000301238              -0.000766109               0.999999984               0.000306662              -0.000795083               0.999999984               0.000309908              -0.000824083               0.999999984               0.000309273              -0.000850883               0.999999984               0.000304085              -0.000874341               0.999999984               0.000294242              -0.000894195               0.999999984               0.000279978              -0.000910642               0.999999984               0.000261682              -0.000923927               0.999999984               0.000239657              -0.000934049               0.999999984               0.000214539              -0.000941474               0.999999984               0.000187710              -0.000947108               0.999999984               0.000160122              -0.000951819               0.999999984               0.000132273              -0.000955979               0.999999984               0.000364918              -0.000945788               0.999999984               0.000272731              -0.000852349               0.999999984               0.000247129              -0.000824833               0.999999984               0.000243695              -0.000828994               0.999999984               0.000247693              -0.000848122               0.999999984               0.000253428              -0.000873926               0.999999984               0.000257556              -0.000901861               0.999999984               0.000258345              -0.000928953               0.999999984               0.000254903              -0.000953968               0.999999984               0.000247094              -0.000976255               0.999999984               0.000234914              -0.000995712               0.999999984               0.000218634              -0.001012475               0.999999984               0.000198408              -0.001026650               0.999999984               0.000174198              -0.001038460               0.999999984               0.000147231              -0.001048401               0.999999984               0.000118917              -0.001057228               0.999999984               0.000090213              -0.001065415               0.999999984               0.000319283              -0.001020606               0.999999984               0.000226843              -0.000946227               0.999999984               0.000198258              -0.000919481               0.999999984               0.000192785              -0.000919688               0.999999984               0.000195627              -0.000934958               0.999999984               0.000200881              -0.000957993               0.999999984               0.000205322              -0.000984750               0.999999984               0.000206997              -0.001012180               0.999999984               0.000205048              -0.001038681               0.999999984               0.000199081              -0.001063366               0.999999984               0.000188917              -0.001085866               0.999999984               0.000174536              -0.001105964               0.999999984               0.000155978              -0.001123824               0.999999984               0.000133040              -0.001139525               0.999999984               0.000106186              -0.001153399               0.999999984               0.000076501              -0.001165998               0.999999984               0.000045525              -0.001177990               0.999999984               0.000270662              -0.001086069               0.999999984               0.000183811              -0.001033679               0.999999984               0.000153749              -0.001011725               0.999999984               0.000146058              -0.001010944               0.999999984               0.000147256              -0.001023679               0.999999984               0.000151397              -0.001044703               0.999999984               0.000155425              -0.001070479               0.999999984               0.000157472              -0.001098342               0.999999984               0.000156606              -0.001126456               0.999999984               0.000152255              -0.001153649               0.999999984               0.000144083              -0.001179372               0.999999984               0.000131725              -0.001203161               0.999999984               0.000114899              -0.001224980               0.999999984               0.000093405              -0.001244782               0.999999984               0.000067138              -0.001262747               0.999999984               0.000036433              -0.001279178               0.999999984               0.000002311              -0.001294746               0.999999984               0.000219614              -0.001141049               0.999999984               0.000143580              -0.001111152               0.999999984               0.000114372              -0.001096964               0.999999984               0.000105123              -0.001097870               0.999999984               0.000104453              -0.001110046               0.999999984               0.000107197              -0.001130085               0.999999984               0.000110396              -0.001155233               0.999999984               0.000112289              -0.001183480               0.999999984               0.000112098              -0.001213178               0.999999984               0.000109086              -0.001243010               0.999999984               0.000102755              -0.001272190               0.999999984               0.000092562              -0.001300125               0.999999984               0.000077948              -0.001326454               0.999999984               0.000058409              -0.001350943               0.999999984               0.000033496              -0.001373704               0.999999984               0.000002993              -0.001394773               0.999999984              -0.000033371              -0.001414529               0.999999984               0.000166611              -0.001184738               0.999999984               0.000105648              -0.001175401               0.999999984               0.000080181              -0.001170356               0.999999984               0.000070820              -0.001174651               0.999999984               0.000068823              -0.001187858               0.999999984               0.000070094              -0.001208192               0.999999984               0.000072202              -0.001233541               0.999999984               0.000073693              -0.001262345               0.999999984               0.000073728              -0.001293375               0.999999984               0.000071714              -0.001325587               0.999999984               0.000067165              -0.001358061               0.999999984               0.000059282              -0.001390100               0.999999984               0.000047515              -0.001421204               0.999999984               0.000031091              -0.001450960               0.999999984               0.000009252              -0.001479069               0.999999984              -0.000018691              -0.001505447               0.999999984              -0.000054011              -0.001530211               0.999999984               0.000112026              -0.001216576               0.999999984               0.000069466              -0.001223552               0.999999984               0.000050563              -0.001226986               0.999999984               0.000042841              -0.001235485               0.999999984               0.000040528              -0.001250548               0.999999984               0.000040829              -0.001271760               0.999999984               0.000041994              -0.001297827               0.999999984               0.000042892              -0.001327576               0.999999984               0.000042814              -0.001359900               0.999999984               0.000041517              -0.001394015               0.999999984               0.000038497              -0.001429234               0.999999984               0.000033172              -0.001464791               0.999999984               0.000024813              -0.001500040               0.999999984               0.000012875              -0.001534583               0.999999984              -0.000003356              -0.001567923               0.999999984              -0.000024992              -0.001599654               0.999999984              -0.000053753              -0.001629503               0.999999984               0.000056312              -0.001235939               0.999999984               0.000034461              -0.001253450               0.999999984               0.000024339              -0.001262795               0.999999984               0.000019987              -0.001274592               0.999999984               0.000018506              -0.001291436               0.999999984               0.000018423              -0.001313653               0.999999984               0.000018872              -0.001340481               0.999999984               0.000019292              -0.001371058               0.999999984               0.000019219              -0.001404455               0.999999984               0.000018472              -0.001439882               0.999999984               0.000016929              -0.001476767               0.999999984               0.000014260              -0.001514594               0.999999984               0.000009897              -0.001552701               0.999999984               0.000003574              -0.001590553               0.999999984              -0.000004971              -0.001627594               0.999999984              -0.000016784              -0.001663387               0.999999984              -0.000033133              -0.001697263               0.999999984              -0.000000000              -0.001242394               0.999999984               0.000000000              -0.001263624               0.999999984              -0.000000000              -0.001275158               0.999999984               0.000000000              -0.001288116               0.999999984              -0.000000000              -0.001305635               0.999999984              -0.000000000              -0.001328316               0.999999984              -0.000000000              -0.001355501               0.999999984               0.000000000              -0.001386398               0.999999984              -0.000000000              -0.001420168               0.999999984              -0.000000000              -0.001456140               0.999999984               0.000000000              -0.001493638               0.999999984               0.000000000              -0.001532221               0.999999984               0.000000000              -0.001571279               0.999999984               0.000000000              -0.001610284               0.999999984               0.000000000              -0.001648703               0.999999984               0.000000000              -0.001686010               0.999999984              -0.000000000              -0.001721440               0.999999984               0.000597682               0.000000000               0.999999984               0.000644192               0.000000000               0.999999984               0.000664593              -0.000000000               0.999999984               0.000676032              -0.000000000               0.999999984               0.000685028              -0.000000000               0.999999984               0.000694065               0.000000000               0.999999984               0.000704001              -0.000000000               0.999999984               0.000715036              -0.000000000               0.999999984               0.000727148              -0.000000000               0.999999984               0.000740248              -0.000000000               0.999999984               0.000754231              -0.000000000               0.999999984               0.000768781               0.000000000               0.999999984               0.000783709               0.000000000               0.999999984               0.000798580              -0.000000000               0.999999984               0.000812961               0.000000000               0.999999984               0.000826468               0.000000000               0.999999984               0.000838514               0.000000000               0.999999984               0.000594319               0.000119860               0.999999984               0.000637569               0.000098587               0.999999984               0.000655973               0.000089778               0.999999984               0.000666106               0.000087290               0.999999984               0.000674161               0.000088218               0.999999984               0.000682519               0.000090895               0.999999984               0.000691981               0.000094222               0.999999984               0.000702615               0.000097784               0.999999984               0.000714326               0.000101396               0.999999984               0.000726880               0.000104562               0.999999984               0.000740035               0.000107067               0.999999984               0.000753607               0.000108807               0.999999984               0.000767343               0.000109471               0.999999984               0.000780838               0.000108584               0.999999984               0.000793800               0.000105702               0.999999984               0.000805903               0.000100264               0.999999984               0.000816619               0.000091190               0.999999984               0.000584483               0.000238562               0.999999984               0.000618083               0.000196570               0.999999984               0.000630560               0.000179908               0.999999984               0.000637109               0.000175786               0.999999984               0.000643040               0.000178286               0.999999984               0.000649999               0.000184050               0.999999984               0.000658282               0.000191048               0.999999984               0.000667722               0.000198293               0.999999984               0.000677998               0.000205431               0.999999984               0.000688670               0.000211754               0.999999984               0.000699570               0.000216951               0.999999984               0.000710418               0.000220693               0.999999984               0.000720900               0.000222333               0.999999984               0.000730775               0.000221390               0.999999984               0.000739807               0.000217200               0.999999984               0.000747916               0.000208960               0.999999984               0.000754977               0.000195154               0.999999984               0.000568303               0.000354992               0.999999984               0.000586578               0.000293413               0.999999984               0.000590562               0.000270731               0.999999984               0.000592597               0.000266441               0.999999984               0.000595926               0.000271377               0.999999984               0.000601055               0.000280836               0.999999984               0.000607777               0.000291944               0.999999984               0.000615570               0.000303286               0.999999984               0.000623820               0.000314156               0.999999984               0.000632092               0.000323776               0.999999984               0.000640106               0.000331667               0.999999984               0.000647483               0.000337366               0.999999984               0.000653964               0.000340300               0.999999984               0.000659416               0.000340060               0.999999984               0.000663774               0.000336265               0.999999984               0.000667100               0.000328277               0.999999984               0.000669416               0.000314992               0.999999984               0.000545960               0.000468001               0.999999984               0.000544679               0.000388878               0.999999984               0.000539410               0.000362448               0.999999984               0.000537036               0.000359548               0.999999984               0.000538122               0.000367913               0.999999984               0.000542023               0.000381623               0.999999984               0.000547510               0.000397156               0.999999984               0.000553721               0.000412720               0.999999984               0.000559878               0.000427184               0.999999984               0.000565461               0.000439895               0.999999984               0.000570070               0.000450320               0.999999984               0.000573500               0.000458102               0.999999984               0.000575620               0.000462633               0.999999984               0.000576470               0.000463772               0.999999984               0.000575923               0.000461387               0.999999984               0.000573910               0.000455036               0.999999984               0.000570535               0.000444387               0.999999984               0.000517977               0.000576442               0.999999984               0.000494634               0.000482873               0.999999984               0.000480801               0.000455047               0.999999984               0.000475476               0.000454808               0.999999984               0.000475795               0.000467176               0.999999984               0.000479187               0.000485382               0.999999984               0.000483828               0.000505289               0.999999984               0.000488540               0.000524721               0.999999984               0.000492449               0.000542463               0.999999984               0.000495072               0.000557675               0.999999984               0.000496004               0.000570197               0.999999984               0.000495200               0.000579777               0.999999984               0.000492580               0.000586113               0.999999984               0.000488119               0.000589071               0.999999984               0.000481706               0.000588428               0.999999984               0.000473434               0.000584203               0.999999984               0.000463668               0.000576843               0.999999984               0.000484806               0.000679328               0.999999984               0.000439020               0.000575334               0.999999984               0.000418893               0.000548045               0.999999984               0.000412685               0.000551329               0.999999984               0.000413416               0.000568045               0.999999984               0.000417116               0.000590410               0.999999984               0.000421350               0.000614062               0.999999984               0.000424680               0.000636617               0.999999984               0.000426271               0.000656864               0.999999984               0.000425542               0.000674049               0.999999984               0.000422359               0.000688195               0.999999984               0.000416586               0.000699358               0.999999984               0.000408251               0.000707365               0.999999984               0.000397452               0.000712042               0.999999984               0.000384364               0.000713264               0.999999984               0.000369398               0.000711680               0.999999984               0.000353205               0.000708160               0.999999984               0.000447201               0.000775523               0.999999984               0.000380672               0.000665989               0.999999984               0.000357236               0.000640757               0.999999984               0.000352248               0.000647750               0.999999984               0.000354519               0.000668346               0.999999984               0.000359062               0.000694317               0.999999984               0.000362939               0.000721007               0.999999984               0.000364677               0.000745953               0.999999984               0.000363348               0.000768046               0.999999984               0.000358566               0.000786761               0.999999984               0.000350281               0.000802200               0.999999984               0.000338641               0.000814608               0.999999984               0.000323878               0.000823842               0.999999984               0.000306184               0.000829872               0.999999984               0.000286144               0.000833116               0.999999984               0.000264569               0.000834509               0.999999984               0.000242157               0.000834849               0.999999984               0.000406593               0.000863229               0.999999984               0.000321590               0.000754803               0.999999984               0.000298996               0.000732001               0.999999984               0.000296784               0.000742149               0.999999984               0.000301238               0.000766109               0.999999984               0.000306662               0.000795083               0.999999984               0.000309908               0.000824083               0.999999984               0.000309273               0.000850883               0.999999984               0.000304085               0.000874341               0.999999984               0.000294242               0.000894195               0.999999984               0.000279978               0.000910642               0.999999984               0.000261682               0.000923927               0.999999984               0.000239657               0.000934049               0.999999984               0.000214539               0.000941474               0.999999984               0.000187710               0.000947108               0.999999984               0.000160122               0.000951819               0.999999984               0.000132273               0.000955979               0.999999984               0.000364918               0.000945788               0.999999984               0.000272731               0.000852349               0.999999984               0.000247129               0.000824833               0.999999984               0.000243695               0.000828994               0.999999984               0.000247693               0.000848122               0.999999984               0.000253428               0.000873926               0.999999984               0.000257556               0.000901861               0.999999984               0.000258345               0.000928953               0.999999984               0.000254903               0.000953968               0.999999984               0.000247094               0.000976255               0.999999984               0.000234914               0.000995712               0.999999984               0.000218634               0.001012475               0.999999984               0.000198408               0.001026650               0.999999984               0.000174198               0.001038460               0.999999984               0.000147231               0.001048401               0.999999984               0.000118917               0.001057228               0.999999984               0.000090213               0.001065415               0.999999984               0.000319283               0.001020606               0.999999984               0.000226843               0.000946227               0.999999984               0.000198258               0.000919481               0.999999984               0.000192785               0.000919688               0.999999984               0.000195627               0.000934958               0.999999984               0.000200881               0.000957993               0.999999984               0.000205322               0.000984750               0.999999984               0.000206997               0.001012180               0.999999984               0.000205048               0.001038681               0.999999984               0.000199081               0.001063366               0.999999984               0.000188917               0.001085866               0.999999984               0.000174536               0.001105964               0.999999984               0.000155978               0.001123824               0.999999984               0.000133040               0.001139525               0.999999984               0.000106186               0.001153399               0.999999984               0.000076501               0.001165998               0.999999984               0.000045525               0.001177990               0.999999984               0.000270662               0.001086069               0.999999984               0.000183811               0.001033679               0.999999984               0.000153749               0.001011725               0.999999984               0.000146058               0.001010944               0.999999984               0.000147256               0.001023679               0.999999984               0.000151397               0.001044703               0.999999984               0.000155425               0.001070479               0.999999984               0.000157472               0.001098342               0.999999984               0.000156606               0.001126456               0.999999984               0.000152255               0.001153649               0.999999984               0.000144083               0.001179372               0.999999984               0.000131725               0.001203161               0.999999984               0.000114899               0.001224980               0.999999984               0.000093405               0.001244782               0.999999984               0.000067138               0.001262747               0.999999984               0.000036433               0.001279178               0.999999984               0.000002311               0.001294746               0.999999984               0.000219614               0.001141049               0.999999984               0.000143580               0.001111152               0.999999984               0.000114372               0.001096964               0.999999984               0.000105123               0.001097870               0.999999984               0.000104453               0.001110046               0.999999984               0.000107197               0.001130085               0.999999984               0.000110396               0.001155233               0.999999984               0.000112289               0.001183480               0.999999984               0.000112098               0.001213178               0.999999984               0.000109086               0.001243010               0.999999984               0.000102755               0.001272190               0.999999984               0.000092562               0.001300125               0.999999984               0.000077948               0.001326454               0.999999984               0.000058409               0.001350943               0.999999984               0.000033496               0.001373704               0.999999984               0.000002993               0.001394773               0.999999984              -0.000033371               0.001414529               0.999999984               0.000166611               0.001184738               0.999999984               0.000105648               0.001175401               0.999999984               0.000080181               0.001170356               0.999999984               0.000070820               0.001174651               0.999999984               0.000068823               0.001187858               0.999999984               0.000070094               0.001208192               0.999999984               0.000072202               0.001233541               0.999999984               0.000073693               0.001262345               0.999999984               0.000073728               0.001293375               0.999999984               0.000071714               0.001325587               0.999999984               0.000067165               0.001358061               0.999999984               0.000059282               0.001390100               0.999999984               0.000047515               0.001421204               0.999999984               0.000031091               0.001450960               0.999999984               0.000009252               0.001479069               0.999999984              -0.000018691               0.001505447               0.999999984              -0.000054011               0.001530211               0.999999984               0.000112026               0.001216576               0.999999984               0.000069466               0.001223552               0.999999984               0.000050563               0.001226986               0.999999984               0.000042841               0.001235485               0.999999984               0.000040528               0.001250548               0.999999984               0.000040829               0.001271760               0.999999984               0.000041994               0.001297827               0.999999984               0.000042892               0.001327576               0.999999984               0.000042814               0.001359900               0.999999984               0.000041517               0.001394015               0.999999984               0.000038497               0.001429234               0.999999984               0.000033172               0.001464791               0.999999984               0.000024813               0.001500040               0.999999984               0.000012875               0.001534583               0.999999984              -0.000003356               0.001567923               0.999999984              -0.000024992               0.001599654               0.999999984              -0.000053753               0.001629503               0.999999984               0.000056312               0.001235939               0.999999984               0.000034461               0.001253450               0.999999984               0.000024339               0.001262795               0.999999984               0.000019987               0.001274592               0.999999984               0.000018506               0.001291436               0.999999984               0.000018423               0.001313653               0.999999984               0.000018872               0.001340481               0.999999984               0.000019292               0.001371058               0.999999984               0.000019219               0.001404455               0.999999984               0.000018472               0.001439882               0.999999984               0.000016929               0.001476767               0.999999984               0.000014260               0.001514594               0.999999984               0.000009897               0.001552701               0.999999984               0.000003574               0.001590553               0.999999984              -0.000004971               0.001627594               0.999999984              -0.000016784               0.001663387               0.999999984              -0.000033133               0.001697263               0.999999984               0.000000000               0.001242394               0.999999984              -0.000000000               0.001263624               0.999999984               0.000000000               0.001275158               0.999999984              -0.000000000               0.001288116               0.999999984               0.000000000               0.001305635               0.999999984              -0.000000000               0.001328316               0.999999984              -0.000000000               0.001355501               0.999999984               0.000000000               0.001386398               0.999999984               0.000000000               0.001420168               0.999999984              -0.000000000               0.001456140               0.999999984              -0.000000000               0.001493638               0.999999984              -0.000000000               0.001532221               0.999999984               0.000000000               0.001571279               0.999999984              -0.000000000               0.001610284               0.999999984              -0.000000000               0.001648703               0.999999984               0.000000000               0.001686010               0.999999984               0.000000000               0.001721440               0.999999984 </DataArray>
<DataArray type="Float64"                                    Name="stress"                                                      NumberOfComponents="10" format="ascii">
              0.002018885               0.021971640               0.000000000              -0.001989368               0.007986930               0.005997562               0.000000000               0.000000000               0.000000000               0.000000000               0.002025286               0.017270060              -0.000000000              -0.001399272               0.006223053               0.004823781               0.000000000               0.000000000               0.000000000               0.000000000               0.002682124               0.013474058              -0.000000000              -0.000678459               0.004717461               0.004039002               0.000000000               0.000000000               0.000000000               0.000000000               0.002595808               0.011354900              -0.000000000              -0.000445934               0.003933574               0.003487640               0.000000000               0.000000000               0.000000000               0.000000000               0.002281870               0.010045641              -0.000000000              -0.000400003               0.003481848               0.003081845               0.000000000               0.000000000               0.000000000               0.000000000               0.001921586               0.009153322               0.000000000              -0.000423570               0.003192267               0.002768697               0.000000000               0.000000000               0.000000000               0.000000000               0.001578955               0.008481798               0.000000000              -0.000468115               0.002983276               0.002515161               0.000000000               0.000000000               0.000000000               0.000000000               0.001274417               0.007943135              -0.000000000              -0.000514984               0.002819346               0.002304362               0.000000000               0.000000000               0.000000000               0.000000000               0.001008165               0.007488477              -0.000000000              -0.000557996               0.002682133               0.002124137               0.000000000               0.000000000               0.000000000               0.000000000               0.000770756               0.007072595              -0.000000000              -0.000595039               0.002555855               0.001960815               0.000000000               0.000000000               0.000000000               0.000000000               0.000563313               0.006675064              -0.000000000              -0.000623139               0.002432712               0.001809573               0.000000000               0.000000000               0.000000000               0.000000000               0.000385860               0.006285384               0.000000000              -0.000640974               0.002308765               0.001667791               0.000000000               0.000000000               0.000000000               0.000000000               0.000242883               0.005889273               0.000000000              -0.000645076               0.002178097               0.001533020               0.000000000               0.000000000               0.000000000               0.000000000               0.000138513               0.005469060               0.000000000              -0.000631689               0.002033565               0.001401876               0.000000000               0.000000000               0.000000000               0.000000000               0.000063299               0.005005528               0.000000000              -0.000601953               0.001869143               0.001267191               0.000000000               0.000000000               0.000000000               0.000000000               0.000021986               0.004480401               0.000000000              -0.000551804               0.001677387               0.001125583               0.000000000               0.000000000               0.000000000               0.000000000              -0.000030945               0.004076818               0.000000000              -0.000521205               0.001532661               0.001011455               0.000000000               0.000000000               0.000000000               0.000000000               0.002092645               0.021529108              -0.001510264              -0.001906392               0.007811761               0.005905369               0.000000000               0.000000000               0.000000000               0.000000000               0.001989430               0.016981834              -0.000769422              -0.001376690               0.006119451               0.004742762               0.000000000               0.000000000               0.000000000               0.000000000               0.002531149               0.013348079              -0.000028968              -0.000719327               0.004689091               0.003969764               0.000000000               0.000000000               0.000000000               0.000000000               0.002403525               0.011315768               0.000287846              -0.000513148               0.003942934               0.003429786               0.000000000               0.000000000               0.000000000               0.000000000               0.002080206               0.010051798               0.000417566              -0.000476396               0.003509365               0.003032968               0.000000000               0.000000000               0.000000000               0.000000000               0.001723262               0.009180910               0.000456197              -0.000501389               0.003227402               0.002726013               0.000000000               0.000000000               0.000000000               0.000000000               0.001391731               0.008520737               0.000454642              -0.000543192               0.003021281               0.002478090               0.000000000               0.000000000               0.000000000               0.000000000               0.001102471               0.007984514               0.000442022              -0.000584636               0.002856357               0.002271721               0.000000000               0.000000000               0.000000000               0.000000000               0.000856648               0.007527847               0.000422396              -0.000619736               0.002715836               0.002096100               0.000000000               0.000000000               0.000000000               0.000000000               0.000646595               0.007114676               0.000398669              -0.000646860               0.002587155               0.001940295               0.000000000               0.000000000               0.000000000               0.000000000               0.000465349               0.006725017               0.000377251              -0.000666120               0.002463690               0.001797570               0.000000000               0.000000000               0.000000000               0.000000000               0.000311547               0.006344995               0.000354182              -0.000676293               0.002340408               0.001664115               0.000000000               0.000000000               0.000000000               0.000000000               0.000190505               0.005961261               0.000323259              -0.000673717               0.002211639               0.001537923               0.000000000               0.000000000               0.000000000               0.000000000               0.000102709               0.005563210               0.000280345              -0.000656884               0.002073346               0.001416462               0.000000000               0.000000000               0.000000000               0.000000000               0.000039523               0.005136809               0.000220812              -0.000627278               0.001921345               0.001294067               0.000000000               0.000000000               0.000000000               0.000000000               0.000007903               0.004670117               0.000129877              -0.000580800               0.001750290               0.001169490               0.000000000               0.000000000               0.000000000               0.000000000              -0.000034347               0.004321105               0.000080252              -0.000553017               0.001624693               0.001071676               0.000000000               0.000000000               0.000000000               0.000000000               0.002283765               0.020263879              -0.002814695              -0.001676570               0.007313415               0.005636845               0.000000000               0.000000000               0.000000000               0.000000000               0.001879882               0.016163110              -0.001431049              -0.001315430               0.005826126               0.004510696               0.000000000               0.000000000               0.000000000               0.000000000               0.002101808               0.012995581              -0.000062025              -0.000836268               0.004610573               0.003774305               0.000000000               0.000000000               0.000000000               0.000000000               0.001855684               0.011199394               0.000499955              -0.000704041               0.003967774               0.003263733               0.000000000               0.000000000               0.000000000               0.000000000               0.001508252               0.010050316               0.000720072              -0.000690693               0.003580303               0.002889610               0.000000000               0.000000000               0.000000000               0.000000000               0.001176222               0.009238257               0.000782555              -0.000713697               0.003317287               0.002603590               0.000000000               0.000000000               0.000000000               0.000000000               0.000892459               0.008612664               0.000775962              -0.000741909               0.003118162               0.002376253               0.000000000               0.000000000               0.000000000               0.000000000               0.000661893               0.008096724               0.000749705              -0.000763879               0.002953507               0.002189628               0.000000000               0.000000000               0.000000000               0.000000000               0.000481852               0.007649332               0.000715098              -0.000775470               0.002808242               0.002032772               0.000000000               0.000000000               0.000000000               0.000000000               0.000337279               0.007244382               0.000673947              -0.000779066               0.002674459               0.001895392               0.000000000               0.000000000               0.000000000               0.000000000               0.000217720               0.006864567               0.000632528              -0.000776424               0.002546974               0.001770550               0.000000000               0.000000000               0.000000000               0.000000000               0.000125998               0.006498476               0.000584735              -0.000765058               0.002421156               0.001656098               0.000000000               0.000000000               0.000000000               0.000000000               0.000059905               0.006139006               0.000525248              -0.000744910               0.002294618               0.001549708               0.000000000               0.000000000               0.000000000               0.000000000               0.000018214               0.005786966               0.000449724              -0.000716539               0.002167816               0.001451277               0.000000000               0.000000000               0.000000000               0.000000000              -0.000005530               0.005441696               0.000348574              -0.000682284               0.002041309               0.001359025               0.000000000               0.000000000               0.000000000               0.000000000              -0.000011653               0.005102490               0.000200522              -0.000642180               0.001914873               0.001272693               0.000000000               0.000000000               0.000000000               0.000000000              -0.000031367               0.004873161               0.000119233              -0.000620906               0.001831340               0.001210433               0.000000000               0.000000000               0.000000000               0.000000000               0.002487737               0.018336689              -0.003748113              -0.001359184               0.006565229               0.005206045               0.000000000               0.000000000               0.000000000               0.000000000               0.001660034               0.014933934              -0.001912751              -0.001244227               0.005392670               0.004148443               0.000000000               0.000000000               0.000000000               0.000000000               0.001432399               0.012469022              -0.000125350              -0.001021475               0.004496791               0.003475315               0.000000000               0.000000000               0.000000000               0.000000000               0.001051216               0.011008126               0.000570469              -0.000981807               0.003996608               0.003014801               0.000000000               0.000000000               0.000000000               0.000000000               0.000708483               0.010021396               0.000832222              -0.000986991               0.003669429               0.002682438               0.000000000               0.000000000               0.000000000               0.000000000               0.000440533               0.009292088               0.000900960              -0.000996309               0.003429435               0.002433126               0.000000000               0.000000000               0.000000000               0.000000000               0.000240967               0.008711661               0.000886703              -0.000998593               0.003236722               0.002238129               0.000000000               0.000000000               0.000000000               0.000000000               0.000102766               0.008223119               0.000846928              -0.000989350               0.003070796               0.002081445               0.000000000               0.000000000               0.000000000               0.000000000               0.000010594               0.007786275               0.000798495              -0.000969309               0.002918502               0.001949193               0.000000000               0.000000000               0.000000000               0.000000000              -0.000053356               0.007385075               0.000743702              -0.000943141               0.002776047               0.001832907               0.000000000               0.000000000               0.000000000               0.000000000              -0.000095116               0.007009507               0.000687090              -0.000911855               0.002640431               0.001728576               0.000000000               0.000000000               0.000000000               0.000000000              -0.000112911               0.006655906               0.000621809              -0.000874328               0.002510056               0.001635728               0.000000000               0.000000000               0.000000000               0.000000000              -0.000114301               0.006322149               0.000544161              -0.000833130               0.002385072               0.001551942               0.000000000               0.000000000               0.000000000               0.000000000              -0.000100925               0.006014201               0.000453305              -0.000789620               0.002267920               0.001478300               0.000000000               0.000000000               0.000000000               0.000000000              -0.000076264               0.005739104               0.000340217              -0.000745985               0.002161677               0.001415692               0.000000000               0.000000000               0.000000000               0.000000000              -0.000043480               0.005503704               0.000188367              -0.000704266               0.002069305               0.001365039               0.000000000               0.000000000               0.000000000               0.000000000              -0.000037426               0.005367824               0.000107932              -0.000685011               0.002017594               0.001332583               0.000000000               0.000000000               0.000000000               0.000000000               0.002568569               0.015969815              -0.004237165              -0.001033014               0.005667556               0.004634541               0.000000000               0.000000000               0.000000000               0.000000000               0.001296413               0.013456066              -0.002197507              -0.001195852               0.004883927               0.003688076               0.000000000               0.000000000               0.000000000               0.000000000               0.000601355               0.011834927              -0.000240456              -0.001253854               0.004362888               0.003109033               0.000000000               0.000000000               0.000000000               0.000000000               0.000136611               0.010746268               0.000476032              -0.001292051               0.004012737               0.002720686               0.000000000               0.000000000               0.000000000               0.000000000              -0.000152352               0.009933821               0.000730927              -0.001298856               0.003744192               0.002445336               0.000000000               0.000000000               0.000000000               0.000000000              -0.000317532               0.009290205               0.000793503              -0.001280347               0.003523486               0.002243139               0.000000000               0.000000000               0.000000000               0.000000000              -0.000400471               0.008750368               0.000775824              -0.001243970               0.003331417               0.002087447               0.000000000               0.000000000               0.000000000               0.000000000              -0.000431702               0.008273957               0.000731712              -0.001196130               0.003156668               0.001960538               0.000000000               0.000000000               0.000000000               0.000000000              -0.000429260               0.007835843               0.000680054              -0.001140450               0.002992072               0.001851621               0.000000000               0.000000000               0.000000000               0.000000000              -0.000406594               0.007427519               0.000627016              -0.001080910               0.002836118               0.001755208               0.000000000               0.000000000               0.000000000               0.000000000              -0.000371141               0.007051224               0.000573004              -0.001020578               0.002690577               0.001669999               0.000000000               0.000000000               0.000000000               0.000000000              -0.000325930               0.006708202               0.000508512              -0.000960747               0.002556294               0.001595547               0.000000000               0.000000000               0.000000000               0.000000000              -0.000275611               0.006399662               0.000432037              -0.000903310               0.002434303               0.001530993               0.000000000               0.000000000               0.000000000               0.000000000              -0.000217016               0.006128578               0.000348200              -0.000847451               0.002325323               0.001477872               0.000000000               0.000000000               0.000000000               0.000000000              -0.000146974               0.005896873               0.000251155              -0.000792222               0.002229679               0.001437456               0.000000000               0.000000000               0.000000000               0.000000000              -0.000074096               0.005712971               0.000134090              -0.000741906               0.002151607               0.001409701               0.000000000               0.000000000               0.000000000               0.000000000              -0.000049648               0.005615557               0.000077597              -0.000720561               0.002112020               0.001391460               0.000000000               0.000000000               0.000000000               0.000000000               0.002415737               0.013412425              -0.004288660              -0.000770654               0.004727647               0.003956993               0.000000000               0.000000000               0.000000000               0.000000000               0.000793386               0.011890099              -0.002308415              -0.001188741               0.004359573               0.003170832               0.000000000               0.000000000               0.000000000               0.000000000              -0.000287558               0.011145486              -0.000429046              -0.001501016               0.004215464               0.002714447               0.000000000               0.000000000               0.000000000               0.000000000              -0.000755954               0.010414616               0.000219346              -0.001585306               0.003999939               0.002414633               0.000000000               0.000000000               0.000000000               0.000000000              -0.000930166               0.009765686               0.000447456              -0.001569519               0.003778369               0.002208850               0.000000000               0.000000000               0.000000000               0.000000000              -0.000958175               0.009189564               0.000511883              -0.001508007               0.003565826               0.002057819               0.000000000               0.000000000               0.000000000               0.000000000              -0.000914841               0.008667448               0.000504619              -0.001426493               0.003364618               0.001938125               0.000000000               0.000000000               0.000000000               0.000000000              -0.000837951               0.008185833               0.000473362              -0.001337458               0.003174403               0.001836945               0.000000000               0.000000000               0.000000000               0.000000000              -0.000744780               0.007738162               0.000433704              -0.001246560               0.002994881               0.001748322               0.000000000               0.000000000               0.000000000               0.000000000              -0.000646106               0.007321912               0.000396610              -0.001157526               0.002826455               0.001668929               0.000000000               0.000000000               0.000000000               0.000000000              -0.000547065               0.006945326               0.000362529              -0.001073312               0.002672856               0.001599544               0.000000000               0.000000000               0.000000000               0.000000000              -0.000452509               0.006612012               0.000321630              -0.000996190               0.002536045               0.001539855               0.000000000               0.000000000               0.000000000               0.000000000              -0.000359264               0.006325278               0.000271006              -0.000925381               0.002416865               0.001491484               0.000000000               0.000000000               0.000000000               0.000000000              -0.000263420               0.006080748               0.000211825              -0.000858874               0.002313187               0.001454313               0.000000000               0.000000000               0.000000000               0.000000000              -0.000165033               0.005876732               0.000144563              -0.000796477               0.002224384               0.001427907               0.000000000               0.000000000               0.000000000               0.000000000              -0.000076458               0.005724415               0.000073003              -0.000744222               0.002156193               0.001411972               0.000000000               0.000000000               0.000000000               0.000000000              -0.000047176               0.005647678               0.000043202              -0.000723649               0.002123757               0.001400108               0.000000000               0.000000000               0.000000000               0.000000000               0.001963979               0.010874035              -0.003975094              -0.000622765               0.003832229               0.003209464               0.000000000               0.000000000               0.000000000               0.000000000               0.000174969               0.010356960              -0.002296553              -0.001229005               0.003861953               0.002632948               0.000000000               0.000000000               0.000000000               0.000000000              -0.001129387               0.010435918              -0.000698545              -0.001728006               0.004054606               0.002326601               0.000000000               0.000000000               0.000000000               0.000000000              -0.001502902               0.010014303              -0.000154378              -0.001815371               0.003943191               0.002127820               0.000000000               0.000000000               0.000000000               0.000000000              -0.001528996               0.009490436               0.000054878              -0.001759674               0.003750005               0.001990331               0.000000000               0.000000000               0.000000000               0.000000000              -0.001417484               0.008957078               0.000132966              -0.001651187               0.003536059               0.001884871               0.000000000               0.000000000               0.000000000               0.000000000              -0.001254286               0.008440810               0.000152043              -0.001525455               0.003322060               0.001796605               0.000000000               0.000000000               0.000000000               0.000000000              -0.001079317               0.007952213               0.000149996              -0.001398767               0.003116967               0.001718200               0.000000000               0.000000000               0.000000000               0.000000000              -0.000905746               0.007499353               0.000141061              -0.001277071               0.002925450               0.001648379               0.000000000               0.000000000               0.000000000               0.000000000              -0.000744305               0.007088048               0.000135105              -0.001165118               0.002751032               0.001585914               0.000000000               0.000000000               0.000000000               0.000000000              -0.000597823               0.006721664               0.000136248              -0.001064389               0.002595328               0.001530940               0.000000000               0.000000000               0.000000000               0.000000000              -0.000463027               0.006402886               0.000133396              -0.000973994               0.002458939               0.001484945               0.000000000               0.000000000               0.000000000               0.000000000              -0.000339140               0.006128423               0.000118781              -0.000893228               0.002340530               0.001447302               0.000000000               0.000000000               0.000000000               0.000000000              -0.000226254               0.005896263               0.000091423              -0.000821876               0.002239360               0.001417484               0.000000000               0.000000000               0.000000000               0.000000000              -0.000127756               0.005713201               0.000058100              -0.000762057               0.002158400               0.001396344               0.000000000               0.000000000               0.000000000               0.000000000              -0.000054052               0.005584960               0.000028297              -0.000718388               0.002101097               0.001382710               0.000000000               0.000000000               0.000000000               0.000000000              -0.000033974               0.005521488               0.000020015              -0.000702924               0.002074786               0.001371861               0.000000000               0.000000000               0.000000000               0.000000000               0.001244328               0.008510553              -0.003391391              -0.000597198               0.003035887               0.002438690               0.000000000               0.000000000               0.000000000               0.000000000              -0.000516230               0.008950800              -0.002206545              -0.001312434               0.003421048               0.002108613               0.000000000               0.000000000               0.000000000               0.000000000              -0.001838345               0.009718233              -0.001034412              -0.001904154               0.003874096               0.001969943               0.000000000               0.000000000               0.000000000               0.000000000              -0.002039136               0.009526900              -0.000588842              -0.001955534               0.003827446               0.001871913               0.000000000               0.000000000               0.000000000               0.000000000              -0.001906623               0.009094531              -0.000376707              -0.001851796               0.003648745               0.001796950               0.000000000               0.000000000               0.000000000               0.000000000              -0.001669569               0.008598405              -0.000266689              -0.001700885               0.003433068               0.001732183               0.000000000               0.000000000               0.000000000               0.000000000              -0.001406034               0.008093927              -0.000205830              -0.001539000               0.003210949               0.001671949               0.000000000               0.000000000               0.000000000               0.000000000              -0.001153198               0.007612992              -0.000163576              -0.001384070               0.002998995               0.001614926               0.000000000               0.000000000               0.000000000               0.000000000              -0.000921545               0.007169589              -0.000127149              -0.001241775               0.002803764               0.001561989               0.000000000               0.000000000               0.000000000               0.000000000              -0.000716651               0.006773352              -0.000090968              -0.001115410               0.002629565               0.001514155               0.000000000               0.000000000               0.000000000               0.000000000              -0.000541149               0.006423212              -0.000050880              -0.001005830               0.002476326               0.001470496               0.000000000               0.000000000               0.000000000               0.000000000              -0.000390305               0.006114924              -0.000017410              -0.000910728               0.002341864               0.001431136               0.000000000               0.000000000               0.000000000               0.000000000              -0.000258884               0.005847957               0.000001862              -0.000828074               0.002225324               0.001397250               0.000000000               0.000000000               0.000000000               0.000000000              -0.000153777               0.005628984               0.000008550              -0.000761288               0.002130072               0.001368784               0.000000000               0.000000000               0.000000000               0.000000000              -0.000080187               0.005467458               0.000007980              -0.000713501               0.002060301               0.001346801               0.000000000               0.000000000               0.000000000               0.000000000              -0.000034810               0.005358465               0.000006455              -0.000682860               0.002013757               0.001330897               0.000000000               0.000000000               0.000000000               0.000000000              -0.000024136               0.005303259               0.000009738              -0.000671957               0.001991721               0.001319764               0.000000000               0.000000000               0.000000000               0.000000000               0.000373642               0.006506625              -0.002644723              -0.000673213               0.002393257               0.001720044               0.000000000               0.000000000               0.000000000               0.000000000              -0.001179426               0.007698168              -0.002086268              -0.001404554               0.003034214               0.001629661               0.000000000               0.000000000               0.000000000               0.000000000              -0.002371913               0.008999107              -0.001427603              -0.002014351               0.003671122               0.001656772               0.000000000               0.000000000               0.000000000               0.000000000              -0.002389419               0.009034009              -0.001046386              -0.002025278               0.003686399               0.001661121               0.000000000               0.000000000               0.000000000               0.000000000              -0.002128124               0.008718399              -0.000810941              -0.001887842               0.003535384               0.001647543               0.000000000               0.000000000               0.000000000               0.000000000              -0.001798838               0.008282968              -0.000657299              -0.001709931               0.003330939               0.001621008               0.000000000               0.000000000               0.000000000               0.000000000              -0.001461931               0.007819197              -0.000547053              -0.001525620               0.003114913               0.001589293               0.000000000               0.000000000               0.000000000               0.000000000              -0.001151223               0.007365459              -0.000455043              -0.001352388               0.002905924               0.001553537               0.000000000               0.000000000               0.000000000               0.000000000              -0.000878488               0.006942639              -0.000373496              -0.001197260               0.002713276               0.001516017               0.000000000               0.000000000               0.000000000               0.000000000              -0.000643553               0.006564022              -0.000298088              -0.001061833               0.002541930               0.001480097               0.000000000               0.000000000               0.000000000               0.000000000              -0.000447761               0.006228276              -0.000226009              -0.000946442               0.002391552               0.001445110               0.000000000               0.000000000               0.000000000               0.000000000              -0.000289387               0.005924008              -0.000160048              -0.000849019               0.002257656               0.001408637               0.000000000               0.000000000               0.000000000               0.000000000              -0.000168686               0.005654791              -0.000101071              -0.000770104               0.002141613               0.001371509               0.000000000               0.000000000               0.000000000               0.000000000              -0.000100747               0.005435295              -0.000053068              -0.000717190               0.002050810               0.001333620               0.000000000               0.000000000               0.000000000               0.000000000              -0.000077855               0.005276265              -0.000021166              -0.000688727               0.001988313               0.001299586               0.000000000               0.000000000               0.000000000               0.000000000              -0.000074330               0.005168338              -0.000003087              -0.000673914               0.001947400               0.001273486               0.000000000               0.000000000               0.000000000               0.000000000              -0.000075309               0.005116491               0.000004722              -0.000667801               0.001928080               0.001260280               0.000000000               0.000000000               0.000000000               0.000000000              -0.000662218               0.004639813              -0.001843941              -0.000828308               0.001822691               0.000994383               0.000000000               0.000000000               0.000000000               0.000000000              -0.001716659               0.006238601              -0.001948450              -0.001423570               0.002554036               0.001130466               0.000000000               0.000000000               0.000000000               0.000000000              -0.002659590               0.007910020              -0.001846240              -0.001986094               0.003298678               0.001312584               0.000000000               0.000000000               0.000000000               0.000000000              -0.002583705               0.008280135              -0.001536817              -0.002003902               0.003427984               0.001424083               0.000000000               0.000000000               0.000000000               0.000000000              -0.002272543               0.008192745              -0.001274559              -0.001876293               0.003356319               0.001480026               0.000000000               0.000000000               0.000000000               0.000000000              -0.001915586               0.007927053              -0.001070480              -0.001709222               0.003212065               0.001502843               0.000000000               0.000000000               0.000000000               0.000000000              -0.001562657               0.007588492              -0.000907841              -0.001534554               0.003040990               0.001506436               0.000000000               0.000000000               0.000000000               0.000000000              -0.001239870               0.007219008              -0.000770310              -0.001367324               0.002862086               0.001494762               0.000000000               0.000000000               0.000000000               0.000000000              -0.000951212               0.006858543              -0.000651294              -0.001214020               0.002690831               0.001476812               0.000000000               0.000000000               0.000000000               0.000000000              -0.000699948               0.006520644              -0.000544836              -0.001077558               0.002532712               0.001455154               0.000000000               0.000000000               0.000000000               0.000000000              -0.000489220               0.006210824              -0.000444352              -0.000959808               0.002390190               0.001430382               0.000000000               0.000000000               0.000000000               0.000000000              -0.000323595               0.005921155              -0.000345034              -0.000861490               0.002260862               0.001399371               0.000000000               0.000000000               0.000000000               0.000000000              -0.000202342               0.005654984              -0.000240777              -0.000782749               0.002145892               0.001363143               0.000000000               0.000000000               0.000000000               0.000000000              -0.000133452               0.005422789              -0.000143161              -0.000727891               0.002050209               0.001322317               0.000000000               0.000000000               0.000000000               0.000000000              -0.000119238               0.005239179              -0.000069682              -0.000699610               0.001979579               0.001279969               0.000000000               0.000000000               0.000000000               0.000000000              -0.000144102               0.005103122              -0.000021307              -0.000691927               0.001931666               0.001239739               0.000000000               0.000000000               0.000000000               0.000000000              -0.000167706               0.005038665              -0.000000375              -0.000692721               0.001910445               0.001217724               0.000000000               0.000000000               0.000000000               0.000000000              -0.002014181               0.002948428              -0.001044802              -0.001123869               0.001357422               0.000233553               0.000000000               0.000000000               0.000000000               0.000000000              -0.002325038               0.004766491              -0.001738997              -0.001467698               0.002078046               0.000610349               0.000000000               0.000000000               0.000000000               0.000000000              -0.002856786               0.006635522              -0.002172594              -0.001900731               0.002845395               0.000944664               0.000000000               0.000000000               0.000000000               0.000000000              -0.002698316               0.007324084              -0.002000678              -0.001927375               0.003083795               0.001156420               0.000000000               0.000000000               0.000000000               0.000000000              -0.002362633               0.007501921              -0.001740405              -0.001823723               0.003108523               0.001284799               0.000000000               0.000000000               0.000000000               0.000000000              -0.002001258               0.007448987              -0.001501091              -0.001681591               0.003043501               0.001361910               0.000000000               0.000000000               0.000000000               0.000000000              -0.001647853               0.007276624              -0.001294645              -0.001527519               0.002934690               0.001407171               0.000000000               0.000000000               0.000000000               0.000000000              -0.001319560               0.007035844              -0.001121296              -0.001374313               0.002803362               0.001429049               0.000000000               0.000000000               0.000000000               0.000000000              -0.001018243               0.006770948              -0.000974584              -0.001228207               0.002666362               0.001438155               0.000000000               0.000000000               0.000000000               0.000000000              -0.000749418               0.006502406              -0.000843670              -0.001093830               0.002532057               0.001438227               0.000000000               0.000000000               0.000000000               0.000000000              -0.000518722               0.006237057              -0.000719501              -0.000974151               0.002403715               0.001429565               0.000000000               0.000000000               0.000000000               0.000000000              -0.000334207               0.005977888              -0.000593215              -0.000872562               0.002283463               0.001410902               0.000000000               0.000000000               0.000000000               0.000000000              -0.000196825               0.005730003              -0.000456308              -0.000790058               0.002173335               0.001383277               0.000000000               0.000000000               0.000000000               0.000000000              -0.000107814               0.005497476              -0.000314814              -0.000727613               0.002075011               0.001347398               0.000000000               0.000000000               0.000000000               0.000000000              -0.000080875               0.005293847              -0.000184255              -0.000692057               0.001995284               0.001303227               0.000000000               0.000000000               0.000000000               0.000000000              -0.000121575               0.005128770              -0.000077394              -0.000686685               0.001938468               0.001251783               0.000000000               0.000000000               0.000000000               0.000000000              -0.000175732               0.005044566              -0.000024668              -0.000696469               0.001913661               0.001217193               0.000000000               0.000000000               0.000000000               0.000000000              -0.003587949               0.001551928              -0.000313083              -0.001539469               0.001030459              -0.000509010               0.000000000               0.000000000               0.000000000               0.000000000              -0.003057304               0.003371789              -0.001436529              -0.001567960               0.001646571               0.000078611               0.000000000               0.000000000               0.000000000               0.000000000              -0.002998277               0.005202362              -0.002299807              -0.001774646               0.002325651               0.000551005               0.000000000               0.000000000               0.000000000               0.000000000              -0.002690909               0.006108526              -0.002306503              -0.001772653               0.002627038               0.000854385               0.000000000               0.000000000               0.000000000               0.000000000              -0.002322586               0.006532716              -0.002096271              -0.001687556               0.002740068               0.001052512               0.000000000               0.000000000               0.000000000               0.000000000              -0.001955492               0.006703723              -0.001854095              -0.001571272               0.002758309               0.001187037               0.000000000               0.000000000               0.000000000               0.000000000              -0.001608715               0.006719834              -0.001625548              -0.001443244               0.002721003               0.001277759               0.000000000               0.000000000               0.000000000               0.000000000              -0.001284742               0.006637318              -0.001428923              -0.001311440               0.002649564               0.001338123               0.000000000               0.000000000               0.000000000               0.000000000              -0.000982120               0.006495620              -0.001264018              -0.001180245               0.002558600               0.001378355               0.000000000               0.000000000               0.000000000               0.000000000              -0.000703447               0.006324436              -0.001118535              -0.001054345               0.002459572               0.001405227               0.000000000               0.000000000               0.000000000               0.000000000              -0.000454791               0.006135004              -0.000980330              -0.000937420               0.002357454               0.001420034               0.000000000               0.000000000               0.000000000               0.000000000              -0.000244163               0.005935120              -0.000837885              -0.000833449               0.002256170               0.001422721               0.000000000               0.000000000               0.000000000               0.000000000              -0.000079001               0.005729458              -0.000682748              -0.000745806               0.002158402               0.001412596               0.000000000               0.000000000               0.000000000               0.000000000               0.000037374               0.005522896              -0.000513463              -0.000676345               0.002066395               0.001390050               0.000000000               0.000000000               0.000000000               0.000000000               0.000094637               0.005326081              -0.000336372              -0.000630270               0.001985432               0.001355163               0.000000000               0.000000000               0.000000000               0.000000000               0.000076601               0.005151494              -0.000162939              -0.000615210               0.001922218               0.001307008               0.000000000               0.000000000               0.000000000               0.000000000               0.000021985               0.005057783              -0.000070689              -0.000623977               0.001893903               0.001269926               0.000000000               0.000000000               0.000000000               0.000000000              -0.005262494               0.000520368               0.000253869              -0.002038479               0.000852943              -0.001185536               0.000000000               0.000000000               0.000000000               0.000000000              -0.003867794               0.002135045              -0.001083564              -0.001717301               0.001284106              -0.000433195               0.000000000               0.000000000               0.000000000               0.000000000              -0.003111041               0.003734576              -0.002203742              -0.001633459               0.001789331               0.000155872               0.000000000               0.000000000               0.000000000               0.000000000              -0.002580844               0.004740604              -0.002370527              -0.001560389               0.002100314               0.000539925               0.000000000               0.000000000               0.000000000               0.000000000              -0.002153394               0.005359690              -0.002243159              -0.001477481               0.002279038               0.000801557               0.000000000               0.000000000               0.000000000               0.000000000              -0.001780550               0.005730672              -0.002037279              -0.001384038               0.002371550               0.000987512               0.000000000               0.000000000               0.000000000               0.000000000              -0.001442776               0.005933288              -0.001818275              -0.001282699               0.002405309               0.001122609               0.000000000               0.000000000               0.000000000               0.000000000              -0.001128439               0.006022556              -0.001618631              -0.001175982               0.002399492               0.001223510               0.000000000               0.000000000               0.000000000               0.000000000              -0.000834172               0.006027652              -0.001447316              -0.001066269               0.002364620               0.001298351               0.000000000               0.000000000               0.000000000               0.000000000              -0.000555651               0.005977947              -0.001297031              -0.000955611               0.002311166               0.001355555               0.000000000               0.000000000               0.000000000               0.000000000              -0.000294788               0.005890224              -0.001155313              -0.000846822               0.002245662               0.001398840               0.000000000               0.000000000               0.000000000               0.000000000              -0.000058978               0.005772822              -0.001009432              -0.000743718               0.002172160               0.001428442               0.000000000               0.000000000               0.000000000               0.000000000               0.000146125               0.005631729              -0.000850570              -0.000649168               0.002093613               0.001444445               0.000000000               0.000000000               0.000000000               0.000000000               0.000313568               0.005477801              -0.000671825              -0.000567136               0.002014961               0.001447825               0.000000000               0.000000000               0.000000000               0.000000000               0.000432962               0.005316795              -0.000471960              -0.000502237               0.001939660               0.001437422               0.000000000               0.000000000               0.000000000               0.000000000               0.000486793               0.005156344              -0.000247695              -0.000461995               0.001872762               0.001410768               0.000000000               0.000000000               0.000000000               0.000000000               0.000484066               0.005072663              -0.000125586              -0.000452557               0.001841723               0.001389166               0.000000000               0.000000000               0.000000000               0.000000000              -0.006878945              -0.000152812               0.000569049              -0.002560501               0.000802557              -0.001757943               0.000000000               0.000000000               0.000000000               0.000000000              -0.004682719               0.001131644              -0.000734983              -0.001897473               0.001009698              -0.000887774               0.000000000               0.000000000               0.000000000               0.000000000              -0.003217162               0.002373510              -0.001886183              -0.001503122               0.001292201              -0.000210921               0.000000000               0.000000000               0.000000000               0.000000000              -0.002416543               0.003375082              -0.002150001              -0.001328087               0.001567711               0.000239624               0.000000000               0.000000000               0.000000000               0.000000000              -0.001891711               0.004124462              -0.002102822              -0.001224948               0.001783122               0.000558174               0.000000000               0.000000000               0.000000000               0.000000000              -0.001498722               0.004655338              -0.001954272              -0.001143936               0.001933075               0.000789139               0.000000000               0.000000000               0.000000000               0.000000000              -0.001170130               0.005016377              -0.001776965              -0.001065844               0.002027390               0.000961546               0.000000000               0.000000000               0.000000000               0.000000000              -0.000872892               0.005259280              -0.001603060              -0.000984743               0.002081323               0.001096580               0.000000000               0.000000000               0.000000000               0.000000000              -0.000596903               0.005410862              -0.001445477              -0.000900195               0.002103667               0.001203472               0.000000000               0.000000000               0.000000000               0.000000000              -0.000327763               0.005493746              -0.001306470              -0.000809628               0.002101106               0.001291478               0.000000000               0.000000000               0.000000000               0.000000000              -0.000063180               0.005520439              -0.001174658              -0.000713746               0.002078043               0.001364297               0.000000000               0.000000000               0.000000000               0.000000000               0.000195274               0.005501876              -0.001039136              -0.000614506               0.002038775               0.001424270               0.000000000               0.000000000               0.000000000               0.000000000               0.000444529               0.005447011              -0.000892497              -0.000514177               0.001987044               0.001472867               0.000000000               0.000000000               0.000000000               0.000000000               0.000683081               0.005362915              -0.000726075              -0.000414208               0.001925690               0.001511481               0.000000000               0.000000000               0.000000000               0.000000000               0.000904117               0.005255455              -0.000532293              -0.000317887               0.001857763               0.001539876               0.000000000               0.000000000               0.000000000               0.000000000               0.001091840               0.005134758              -0.000292807              -0.000232404               0.001789037               0.001556633               0.000000000               0.000000000               0.000000000               0.000000000               0.001200804               0.005082136              -0.000163298              -0.000184965               0.001755683               0.001570718               0.000000000               0.000000000               0.000000000               0.000000000              -0.008248346              -0.000544590               0.000595953              -0.003025054               0.000826816              -0.002198238               0.000000000               0.000000000               0.000000000               0.000000000              -0.005391396               0.000397723              -0.000435366              -0.002071487               0.000823064              -0.001248423               0.000000000               0.000000000               0.000000000               0.000000000              -0.003310642               0.001273399              -0.001374416              -0.001400664               0.000891347              -0.000509316               0.000000000               0.000000000               0.000000000               0.000000000              -0.002244923               0.002206581              -0.001639161              -0.001117667               0.001108074              -0.000009593               0.000000000               0.000000000               0.000000000               0.000000000              -0.001611249               0.003011585              -0.001646089              -0.000980665               0.001330739               0.000350074               0.000000000               0.000000000               0.000000000               0.000000000              -0.001183422               0.003651035              -0.001557098              -0.000900161               0.001517053               0.000616891               0.000000000               0.000000000               0.000000000               0.000000000              -0.000855090               0.004136778              -0.001435510              -0.000837755               0.001658163               0.000820408               0.000000000               0.000000000               0.000000000               0.000000000              -0.000572681               0.004500946              -0.001308445              -0.000777372               0.001759424               0.000982052               0.000000000               0.000000000               0.000000000               0.000000000              -0.000313020               0.004768716              -0.001190324              -0.000713471               0.001827379               0.001113909               0.000000000               0.000000000               0.000000000               0.000000000              -0.000057844               0.004965680              -0.001083488              -0.000642400               0.001869343               0.001226943               0.000000000               0.000000000               0.000000000               0.000000000               0.000203238               0.005100027              -0.000980194              -0.000561288               0.001887088               0.001325800               0.000000000               0.000000000               0.000000000               0.000000000               0.000476500               0.005176063              -0.000872622              -0.000468320               0.001881444               0.001413124               0.000000000               0.000000000               0.000000000               0.000000000               0.000763980               0.005207395              -0.000756502              -0.000364431               0.001857258               0.001492827               0.000000000               0.000000000               0.000000000               0.000000000               0.001073041               0.005201825              -0.000628475              -0.000247837               0.001816537               0.001568699               0.000000000               0.000000000               0.000000000               0.000000000               0.001406773               0.005161394              -0.000473784              -0.000117634               0.001759659               0.001642024               0.000000000               0.000000000               0.000000000               0.000000000               0.001757153               0.005091318              -0.000266695               0.000022517               0.001689583               0.001712100               0.000000000               0.000000000               0.000000000               0.000000000               0.002009783               0.005076599              -0.000156396               0.000119092               0.001652485               0.001771578               0.000000000               0.000000000               0.000000000               0.000000000              -0.009172663              -0.000733184               0.000372138              -0.003348098               0.000871632              -0.002476466               0.000000000               0.000000000               0.000000000               0.000000000              -0.005878315              -0.000046445              -0.000198239              -0.002198561               0.000717367              -0.001481194               0.000000000               0.000000000               0.000000000               0.000000000              -0.003374121               0.000555783              -0.000725363              -0.001334767               0.000630179              -0.000704588               0.000000000               0.000000000               0.000000000               0.000000000              -0.002112596               0.001413850              -0.000888063              -0.000968953               0.000794262              -0.000174691               0.000000000               0.000000000               0.000000000               0.000000000              -0.001393806               0.002233107              -0.000906309              -0.000801814               0.001011633               0.000209819               0.000000000               0.000000000               0.000000000               0.000000000              -0.000935224               0.002930965              -0.000867698              -0.000717078               0.001216004               0.000498926               0.000000000               0.000000000               0.000000000               0.000000000              -0.000603878               0.003491917              -0.000807754              -0.000662943               0.001384941               0.000721999               0.000000000               0.000000000               0.000000000               0.000000000              -0.000328676               0.003934118              -0.000741091              -0.000615017               0.001516365               0.000901348               0.000000000               0.000000000               0.000000000               0.000000000              -0.000075409               0.004276464              -0.000677140              -0.000562835               0.001613085               0.001050250               0.000000000               0.000000000               0.000000000               0.000000000               0.000172686               0.004542792              -0.000619663              -0.000503091               0.001681946               0.001178855               0.000000000               0.000000000               0.000000000               0.000000000               0.000431540               0.004750581              -0.000563822              -0.000431994               0.001727509               0.001295515               0.000000000               0.000000000               0.000000000               0.000000000               0.000712433               0.004901036              -0.000503003              -0.000345467               0.001748818               0.001403351               0.000000000               0.000000000               0.000000000               0.000000000               0.001027167               0.004999470              -0.000437315              -0.000239746               0.001746389               0.001506643               0.000000000               0.000000000               0.000000000               0.000000000               0.001384269               0.005053651              -0.000368842              -0.000112606               0.001722069               0.001609463               0.000000000               0.000000000               0.000000000               0.000000000               0.001794340               0.005070270              -0.000282649               0.000039093               0.001677042               0.001716135               0.000000000               0.000000000               0.000000000               0.000000000               0.002272462               0.005048686              -0.000158940               0.000221085               0.001609184               0.001830269               0.000000000               0.000000000               0.000000000               0.000000000               0.002648025               0.005068272              -0.000094173               0.000359472               0.001569583               0.001929055               0.000000000               0.000000000               0.000000000               0.000000000              -0.009499186              -0.000782949               0.000000000              -0.003464324               0.000893786              -0.002570538               0.000000000               0.000000000               0.000000000               0.000000000              -0.006051928              -0.000191770              -0.000000000              -0.002245500               0.000684572              -0.001560928               0.000000000               0.000000000               0.000000000               0.000000000              -0.003395768               0.000305631              -0.000000000              -0.001311615               0.000539078              -0.000772537               0.000000000               0.000000000               0.000000000               0.000000000              -0.002064324               0.001129810               0.000000000              -0.000915346               0.000681714              -0.000233632               0.000000000               0.000000000               0.000000000               0.000000000              -0.001314121               0.001952422               0.000000000              -0.000736846               0.000896416               0.000159570               0.000000000               0.000000000               0.000000000               0.000000000              -0.000841498               0.002669625              -0.000000000              -0.000649263               0.001106287               0.000457024               0.000000000               0.000000000               0.000000000               0.000000000              -0.000507561               0.003254059               0.000000000              -0.000597091               0.001283706               0.000686614               0.000000000               0.000000000               0.000000000               0.000000000              -0.000236400               0.003720827               0.000000000              -0.000553752               0.001424847               0.000871095               0.000000000               0.000000000               0.000000000               0.000000000               0.000015142               0.004090724              -0.000000000              -0.000505661               0.001532115               0.001026454               0.000000000               0.000000000               0.000000000               0.000000000               0.000264634               0.004382609              -0.000000000              -0.000448587               0.001610384               0.001161797               0.000000000               0.000000000               0.000000000               0.000000000               0.000522961               0.004614107              -0.000000000              -0.000380652               0.001664904               0.001284252               0.000000000               0.000000000               0.000000000               0.000000000               0.000805244               0.004790602               0.000000000              -0.000296858               0.001695804               0.001398946               0.000000000               0.000000000               0.000000000               0.000000000               0.001129902               0.004914693               0.000000000              -0.000190623               0.001701756               0.001511133               0.000000000               0.000000000               0.000000000               0.000000000               0.001504745               0.004993846              -0.000000000              -0.000059951               0.001684582               0.001624631               0.000000000               0.000000000               0.000000000               0.000000000               0.001939444               0.005033250               0.000000000               0.000098134               0.001645022               0.001743156               0.000000000               0.000000000               0.000000000               0.000000000               0.002464794               0.005031437               0.000000000               0.000295365               0.001578674               0.001874039               0.000000000               0.000000000               0.000000000               0.000000000               0.002889649               0.005065696              -0.000000000               0.000450402               0.001538415               0.001988816               0.000000000               0.000000000               0.000000000               0.000000000               0.000000000               0.000000000               0.000000000               0.000000000               0.000000000               0.000000000               0.000000000               0.000000000               0.000000000               0.000000000               0.000000000               0.000000000               0.000000000               0.000000000               0.000000000               0.000000000               0.000000000               0.000000000               0.000000000               0.000000000               0.000000000               0.000000000               0.000000000               0.000000000               0.000000000               0.000000000               0.000000000               0.000000000               0.000000000               0.000000000               0.000000000               0.000000000               0.000000000               0.000000000               0.000000000               0.000000000               0.000000000               0.000000000               0.000000000               0.000000000               0.000000000               0.000000000               0.000000000               0.000000000               0.000000000               0.000000000               0.000000000               0.000000000               0.000000000               0.000000000               0.000000000               0.000000000               0.000000000               0.000000000               0.000000000               0.000000000               0.000000000               0.000000000               0.000000000               0.000000000               0.000000000               0.000000000               0.000000000               0.000000000               0.000000000               0.000000000               0.000000000               0.000000000               0.000000000               0.000000000               0.000000000               0.000000000               0.000000000               0.000000000               0.000000000               0.000000000               0.000000000               0.000000000               0.000000000               0.000000000               0.000000000               0.000000000               0.000000000               0.000000000               0.000000000               0.000000000               0.000000000               0.000000000               0.000000000               0.000000000               0.000000000               0.000000000               0.000000000               0.000000000               0.000000000               0.000000000               0.000000000               0.000000000               0.000000000               0.000000000               0.000000000               0.000000000               0.000000000               0.000000000               0.000000000               0.000000000               0.000000000               0.000000000               0.000000000               0.000000000               0.000000000               0.000000000               0.000000000               0.000000000               0.000000000               0.000000000               0.000000000               0.000000000               0.000000000               0.000000000               0.000000000               0.000000000               0.000000000               0.000000000               0.000000000               0.000000000               0.000000000               0.000000000               0.000000000               0.000000000               0.000000000               0.000000000               0.000000000               0.000000000               0.000000000               0.000000000               0.000000000               0.000000000               0.000000000               0.000000000               0.000000000               0.000000000               0.000000000               0.000000000               0.000000000               0.000000000               0.000000000               0.000000000               0.000000000               0.000000000               0.000000000               0.000000000               0.000000000               0.000000000               0.000000000               0.000000000               0.000000000               0.000000000               0.000000000               0.000000000               0.000000000               0.000000000               0.000000000               0.000000000               0.000000000               0.000000000               0.000000000               0.000000000               0.000000000               0.000000000               0.002092645               0.021529108               0.001510264              -0.001906392               0.007811761               0.005905369               0.000000000               0.000000000               0.000000000               0.000000000               0.001989430               0.016981834               0.000769422              -0.001376690               0.006119451               0.004742762               0.000000000               0.000000000               0.000000000               0.000000000               0.002531149               0.013348079               0.000028968              -0.000719327               0.004689091               0.003969764               0.000000000               0.000000000               0.000000000               0.000000000               0.002403525               0.011315768              -0.000287846              -0.000513148               0.003942934               0.003429786               0.000000000               0.000000000               0.000000000               0.000000000               0.002080206               0.010051798              -0.000417566              -0.000476396               0.003509365               0.003032968               0.000000000               0.000000000               0.000000000               0.000000000               0.001723262               0.009180910              -0.000456197              -0.000501389               0.003227402               0.002726013               0.000000000               0.000000000               0.000000000               0.000000000               0.001391731               0.008520737              -0.000454642              -0.000543192               0.003021281               0.002478090               0.000000000               0.000000000               0.000000000               0.000000000               0.001102471               0.007984514              -0.000442022              -0.000584636               0.002856357               0.002271721               0.000000000               0.000000000               0.000000000               0.000000000               0.000856648               0.007527847              -0.000422396              -0.000619736               0.002715836               0.002096100               0.000000000               0.000000000               0.000000000               0.000000000               0.000646595               0.007114676              -0.000398669              -0.000646860               0.002587155               0.001940295               0.000000000               0.000000000               0.000000000               0.000000000               0.000465349               0.006725017              -0.000377251              -0.000666120               0.002463690               0.001797570               0.000000000               0.000000000               0.000000000               0.000000000               0.000311547               0.006344995              -0.000354182              -0.000676293               0.002340408               0.001664115               0.000000000               0.000000000               0.000000000               0.000000000               0.000190505               0.005961261              -0.000323259              -0.000673717               0.002211639               0.001537923               0.000000000               0.000000000               0.000000000               0.000000000               0.000102709               0.005563210              -0.000280345              -0.000656884               0.002073346               0.001416462               0.000000000               0.000000000               0.000000000               0.000000000               0.000039523               0.005136809              -0.000220812              -0.000627278               0.001921345               0.001294067               0.000000000               0.000000000               0.000000000               0.000000000               0.000007903               0.004670117              -0.000129877              -0.000580800               0.001750290               0.001169490               0.000000000               0.000000000               0.000000000               0.000000000              -0.000034347               0.004321105              -0.000080252              -0.000553017               0.001624693               0.001071676               0.000000000               0.000000000               0.000000000               0.000000000               0.002283765               0.020263879               0.002814695              -0.001676570               0.007313415               0.005636845               0.000000000               0.000000000               0.000000000               0.000000000               0.001879882               0.016163110               0.001431049              -0.001315430               0.005826126               0.004510696               0.000000000               0.000000000               0.000000000               0.000000000               0.002101808               0.012995581               0.000062025              -0.000836268               0.004610573               0.003774305               0.000000000               0.000000000               0.000000000               0.000000000               0.001855684               0.011199394              -0.000499955              -0.000704041               0.003967774               0.003263733               0.000000000               0.000000000               0.000000000               0.000000000               0.001508252               0.010050316              -0.000720072              -0.000690693               0.003580303               0.002889610               0.000000000               0.000000000               0.000000000               0.000000000               0.001176222               0.009238257              -0.000782555              -0.000713697               0.003317287               0.002603590               0.000000000               0.000000000               0.000000000               0.000000000               0.000892459               0.008612664              -0.000775962              -0.000741909               0.003118162               0.002376253               0.000000000               0.000000000               0.000000000               0.000000000               0.000661893               0.008096724              -0.000749705              -0.000763879               0.002953507               0.002189628               0.000000000               0.000000000               0.000000000               0.000000000               0.000481852               0.007649332              -0.000715098              -0.000775470               0.002808242               0.002032772               0.000000000               0.000000000               0.000000000               0.000000000               0.000337279               0.007244382              -0.000673947              -0.000779066               0.002674459               0.001895392               0.000000000               0.000000000               0.000000000               0.000000000               0.000217720               0.006864567              -0.000632528              -0.000776424               0.002546974               0.001770550               0.000000000               0.000000000               0.000000000               0.000000000               0.000125998               0.006498476              -0.000584735              -0.000765058               0.002421156               0.001656098               0.000000000               0.000000000               0.000000000               0.000000000               0.000059905               0.006139006              -0.000525248              -0.000744910               0.002294618               0.001549708               0.000000000               0.000000000               0.000000000               0.000000000               0.000018214               0.005786966              -0.000449724              -0.000716539               0.002167816               0.001451277               0.000000000               0.000000000               0.000000000               0.000000000              -0.000005530               0.005441696              -0.000348574              -0.000682284               0.002041309               0.001359025               0.000000000               0.000000000               0.000000000               0.000000000              -0.000011653               0.005102490              -0.000200522              -0.000642180               0.001914873               0.001272693               0.000000000               0.000000000               0.000000000               0.000000000              -0.000031367               0.004873161              -0.000119233              -0.000620906               0.001831340               0.001210433               0.000000000               0.000000000               0.000000000               0.000000000               0.002487737               0.018336689               0.003748113              -0.001359184               0.006565229               0.005206045               0.000000000               0.000000000               0.000000000               0.000000000               0.001660034               0.014933934               0.001912751              -0.001244227               0.005392670               0.004148443               0.000000000               0.000000000               0.000000000               0.000000000               0.001432399               0.012469022               0.000125350              -0.001021475               0.004496791               0.003475315               0.000000000               0.000000000               0.000000000               0.000000000               0.001051216               0.011008126              -0.000570469              -0.000981807               0.003996608               0.003014801               0.000000000               0.000000000               0.000000000               0.000000000               0.000708483               0.010021396              -0.000832222              -0.000986991               0.003669429               0.002682438               0.000000000               0.000000000               0.000000000               0.000000000               0.000440533               0.009292088              -0.000900960              -0.000996309               0.003429435               0.002433126               0.000000000               0.000000000               0.000000000               0.000000000               0.000240967               0.008711661              -0.000886703              -0.000998593               0.003236722               0.002238129               0.000000000               0.000000000               0.000000000               0.000000000               0.000102766               0.008223119              -0.000846928              -0.000989350               0.003070796               0.002081445               0.000000000               0.000000000               0.000000000               0.000000000               0.000010594               0.007786275              -0.000798495              -0.000969309               0.002918502               0.001949193               0.000000000               0.000000000               0.000000000               0.000000000              -0.000053356               0.007385075              -0.000743702              -0.000943141               0.002776047               0.001832907               0.000000000               0.000000000               0.000000000               0.000000000              -0.000095116               0.007009507              -0.000687090              -0.000911855               0.002640431               0.001728576               0.000000000               0.000000000               0.000000000               0.000000000              -0.000112911               0.006655906              -0.000621809              -0.000874328               0.002510056               0.001635728               0.000000000               0.000000000               0.000000000               0.000000000              -0.000114301               0.006322149              -0.000544161              -0.000833130               0.002385072               0.001551942               0.000000000               0.000000000               0.000000000               0.000000000              -0.000100925               0.006014201              -0.000453305              -0.000789620               0.002267920               0.001478300               0.000000000               0.000000000               0.000000000               0.000000000              -0.000076264               0.005739104              -0.000340217              -0.000745985               0.002161677               0.001415692               0.000000000               0.000000000               0.000000000               0.000000000              -0.000043480               0.005503704              -0.000188367              -0.000704266               0.002069305               0.001365039               0.000000000               0.000000000               0.000000000               0.000000000              -0.000037426               0.005367824              -0.000107932              -0.000685011               0.002017594               0.001332583               0.000000000               0.000000000               0.000000000               0.000000000               0.002568569               0.015969815               0.004237165              -0.001033014               0.005667556               0.004634541               0.000000000               0.000000000               0.000000000               0.000000000               0.001296413               0.013456066               0.002197507              -0.001195852               0.004883927               0.003688076               0.000000000               0.000000000               0.000000000               0.000000000               0.000601355               0.011834927               0.000240456              -0.001253854               0.004362888               0.003109033               0.000000000               0.000000000               0.000000000               0.000000000               0.000136611               0.010746268              -0.000476032              -0.001292051               0.004012737               0.002720686               0.000000000               0.000000000               0.000000000               0.000000000              -0.000152352               0.009933821              -0.000730927              -0.001298856               0.003744192               0.002445336               0.000000000               0.000000000               0.000000000               0.000000000              -0.000317532               0.009290205              -0.000793503              -0.001280347               0.003523486               0.002243139               0.000000000               0.000000000               0.000000000               0.000000000              -0.000400471               0.008750368              -0.000775824              -0.001243970               0.003331417               0.002087447               0.000000000               0.000000000               0.000000000               0.000000000              -0.000431702               0.008273957              -0.000731712              -0.001196130               0.003156668               0.001960538               0.000000000               0.000000000               0.000000000               0.000000000              -0.000429260               0.007835843              -0.000680054              -0.001140450               0.002992072               0.001851621               0.000000000               0.000000000               0.000000000               0.000000000              -0.000406594               0.007427519              -0.000627016              -0.001080910               0.002836118               0.001755208               0.000000000               0.000000000               0.000000000               0.000000000              -0.000371141               0.007051224              -0.000573004              -0.001020578               0.002690577               0.001669999               0.000000000               0.000000000               0.000000000               0.000000000              -0.000325930               0.006708202              -0.000508512              -0.000960747               0.002556294               0.001595547               0.000000000               0.000000000               0.000000000               0.000000000              -0.000275611               0.006399662              -0.000432037              -0.000903310               0.002434303               0.001530993               0.000000000               0.000000000               0.000000000               0.000000000              -0.000217016               0.006128578              -0.000348200              -0.000847451               0.002325323               0.001477872               0.000000000               0.000000000               0.000000000               0.000000000              -0.000146974               0.005896873              -0.000251155              -0.000792222               0.002229679               0.001437456               0.000000000               0.000000000               0.000000000               0.000000000              -0.000074096               0.005712971              -0.000134090              -0.000741906               0.002151607               0.001409701               0.000000000               0.000000000               0.000000000               0.000000000              -0.000049648               0.005615557              -0.000077597              -0.000720561               0.002112020               0.001391460               0.000000000               0.000000000               0.000000000               0.000000000               0.002415737               0.013412425               0.004288660              -0.000770654               0.004727647               0.003956993               0.000000000               0.000000000               0.000000000               0.000000000               0.000793386               0.011890099               0.002308415              -0.001188741               0.004359573               0.003170832               0.000000000               0.000000000               0.000000000               0.000000000              -0.000287558               0.011145486               0.000429046              -0.001501016               0.004215464               0.002714447               0.000000000               0.000000000               0.000000000               0.000000000              -0.000755954               0.010414616              -0.000219346              -0.001585306               0.003999939               0.002414633               0.000000000               0.000000000               0.000000000               0.000000000              -0.000930166               0.009765686              -0.000447456              -0.001569519               0.003778369               0.002208850               0.000000000               0.000000000               0.000000000               0.000000000              -0.000958175               0.009189564              -0.000511883              -0.001508007               0.003565826               0.002057819               0.000000000               0.000000000               0.000000000               0.000000000              -0.000914841               0.008667448              -0.000504619              -0.001426493               0.003364618               0.001938125               0.000000000               0.000000000               0.000000000               0.000000000              -0.000837951               0.008185833              -0.000473362              -0.001337458               0.003174403               0.001836945               0.000000000               0.000000000               0.000000000               0.000000000              -0.000744780               0.007738162              -0.000433704              -0.001246560               0.002994881               0.001748322               0.000000000               0.000000000               0.000000000               0.000000000              -0.000646106               0.007321912              -0.000396610              -0.001157526               0.002826455               0.001668929               0.000000000               0.000000000               0.000000000               0.000000000              -0.000547065               0.006945326              -0.000362529              -0.001073312               0.002672856               0.001599544               0.000000000               0.000000000               0.000000000               0.000000000              -0.000452509               0.006612012              -0.000321630              -0.000996190               0.002536045               0.001539855               0.000000000               0.000000000               0.000000000               0.000000000              -0.000359264               0.006325278              -0.000271006              -0.000925381               0.002416865               0.001491484               0.000000000               0.000000000               0.000000000               0.000000000              -0.000263420               0.006080748              -0.000211825              -0.000858874               0.002313187               0.001454313               0.000000000               0.000000000               0.000000000               0.000000000              -0.000165033               0.005876732              -0.000144563              -0.000796477               0.002224384               0.001427907               0.000000000               0.000000000               0.000000000               0.000000000              -0.000076458               0.005724415              -0.000073003              -0.000744222               0.002156193               0.001411972               0.000000000               0.000000000               0.000000000               0.000000000              -0.000047176               0.005647678              -0.000043202              -0.000723649               0.002123757               0.001400108               0.000000000               0.000000000               0.000000000               0.000000000               0.001963979               0.010874035               0.003975094              -0.000622765               0.003832229               0.003209464               0.000000000               0.000000000               0.000000000               0.000000000               0.000174969               0.010356960               0.002296553              -0.001229005               0.003861953               0.002632948               0.000000000               0.000000000               0.000000000               0.000000000              -0.001129387               0.010435918               0.000698545              -0.001728006               0.004054606               0.002326601               0.000000000               0.000000000               0.000000000               0.000000000              -0.001502902               0.010014303               0.000154378              -0.001815371               0.003943191               0.002127820               0.000000000               0.000000000               0.000000000               0.000000000              -0.001528996               0.009490436              -0.000054878              -0.001759674               0.003750005               0.001990331               0.000000000               0.000000000               0.000000000               0.000000000              -0.001417484               0.008957078              -0.000132966              -0.001651187               0.003536059               0.001884871               0.000000000               0.000000000               0.000000000               0.000000000              -0.001254286               0.008440810              -0.000152043              -0.001525455               0.003322060               0.001796605               0.000000000               0.000000000               0.000000000               0.000000000              -0.001079317               0.007952213              -0.000149996              -0.001398767               0.003116967               0.001718200               0.000000000               0.000000000               0.000000000               0.000000000              -0.000905746               0.007499353              -0.000141061              -0.001277071               0.002925450               0.001648379               0.000000000               0.000000000               0.000000000               0.000000000              -0.000744305               0.007088048              -0.000135105              -0.001165118               0.002751032               0.001585914               0.000000000               0.000000000               0.000000000               0.000000000              -0.000597823               0.006721664              -0.000136248              -0.001064389               0.002595328               0.001530940               0.000000000               0.000000000               0.000000000               0.000000000              -0.000463027               0.006402886              -0.000133396              -0.000973994               0.002458939               0.001484945               0.000000000               0.000000000               0.000000000               0.000000000              -0.000339140               0.006128423              -0.000118781              -0.000893228               0.002340530               0.001447302               0.000000000               0.000000000               0.000000000               0.000000000              -0.000226254               0.005896263              -0.000091423              -0.000821876               0.002239360               0.001417484               0.000000000               0.000000000               0.000000000               0.000000000              -0.000127756               0.005713201              -0.000058100              -0.000762057               0.002158400               0.001396344               0.000000000               0.000000000               0.000000000               0.000000000              -0.000054052               0.005584960              -0.000028297              -0.000718388               0.002101097               0.001382710               0.000000000               0.000000000               0.000000000               0.000000000              -0.000033974               0.005521488              -0.000020015              -0.000702924               0.002074786               0.001371861               0.000000000               0.000000000               0.000000000               0.000000000               0.001244328               0.008510553               0.003391391              -0.000597198               0.003035887               0.002438690               0.000000000               0.000000000               0.000000000               0.000000000              -0.000516230               0.008950800               0.002206545              -0.001312434               0.003421048               0.002108613               0.000000000               0.000000000               0.000000000               0.000000000              -0.001838345               0.009718233               0.001034412              -0.001904154               0.003874096               0.001969943               0.000000000               0.000000000               0.000000000               0.000000000              -0.002039136               0.009526900               0.000588842              -0.001955534               0.003827446               0.001871913               0.000000000               0.000000000               0.000000000               0.000000000              -0.001906623               0.009094531               0.000376707              -0.001851796               0.003648745               0.001796950               0.000000000               0.000000000               0.000000000               0.000000000              -0.001669569               0.008598405               0.000266689              -0.001700885               0.003433068               0.001732183               0.000000000               0.000000000               0.000000000               0.000000000              -0.001406034               0.008093927               0.000205830              -0.001539000               0.003210949               0.001671949               0.000000000               0.000000000               0.000000000               0.000000000              -0.001153198               0.007612992               0.000163576              -0.001384070               0.002998995               0.001614926               0.000000000               0.000000000               0.000000000               0.000000000              -0.000921545               0.007169589               0.000127149              -0.001241775               0.002803764               0.001561989               0.000000000               0.000000000               0.000000000               0.000000000              -0.000716651               0.006773352               0.000090968              -0.001115410               0.002629565               0.001514155               0.000000000               0.000000000               0.000000000               0.000000000              -0.000541149               0.006423212               0.000050880              -0.001005830               0.002476326               0.001470496               0.000000000               0.000000000               0.000000000               0.000000000              -0.000390305               0.006114924               0.000017410              -0.000910728               0.002341864               0.001431136               0.000000000               0.000000000               0.000000000               0.000000000              -0.000258884               0.005847957              -0.000001862              -0.000828074               0.002225324               0.001397250               0.000000000               0.000000000               0.000000000               0.000000000              -0.000153777               0.005628984              -0.000008550              -0.000761288               0.002130072               0.001368784               0.000000000               0.000000000               0.000000000               0.000000000              -0.000080187               0.005467458              -0.000007980              -0.000713501               0.002060301               0.001346801               0.000000000               0.000000000               0.000000000               0.000000000              -0.000034810               0.005358465              -0.000006455              -0.000682860               0.002013757               0.001330897               0.000000000               0.000000000               0.000000000               0.000000000              -0.000024136               0.005303259              -0.000009738              -0.000671957               0.001991721               0.001319764               0.000000000               0.000000000               0.000000000               0.000000000               0.000373642               0.006506625               0.002644723              -0.000673213               0.002393257               0.001720044               0.000000000               0.000000000               0.000000000               0.000000000              -0.001179426               0.007698168               0.002086268              -0.001404554               0.003034214               0.001629661               0.000000000               0.000000000               0.000000000               0.000000000              -0.002371913               0.008999107               0.001427603              -0.002014351               0.003671122               0.001656772               0.000000000               0.000000000               0.000000000               0.000000000              -0.002389419               0.009034009               0.001046386              -0.002025278               0.003686399               0.001661121               0.000000000               0.000000000               0.000000000               0.000000000              -0.002128124               0.008718399               0.000810941              -0.001887842               0.003535384               0.001647543               0.000000000               0.000000000               0.000000000               0.000000000              -0.001798838               0.008282968               0.000657299              -0.001709931               0.003330939               0.001621008               0.000000000               0.000000000               0.000000000               0.000000000              -0.001461931               0.007819197               0.000547053              -0.001525620               0.003114913               0.001589293               0.000000000               0.000000000               0.000000000               0.000000000              -0.001151223               0.007365459               0.000455043              -0.001352388               0.002905924               0.001553537               0.000000000               0.000000000               0.000000000               0.000000000              -0.000878488               0.006942639               0.000373496              -0.001197260               0.002713276               0.001516017               0.000000000               0.000000000               0.000000000               0.000000000              -0.000643553               0.006564022               0.000298088              -0.001061833               0.002541930               0.001480097               0.000000000               0.000000000               0.000000000               0.000000000              -0.000447761               0.006228276               0.000226009              -0.000946442               0.002391552               0.001445110               0.000000000               0.000000000               0.000000000               0.000000000              -0.000289387               0.005924008               0.000160048              -0.000849019               0.002257656               0.001408637               0.000000000               0.000000000               0.000000000               0.000000000              -0.000168686               0.005654791               0.000101071              -0.000770104               0.002141613               0.001371509               0.000000000               0.000000000               0.000000000               0.000000000              -0.000100747               0.005435295               0.000053068              -0.000717190               0.002050810               0.001333620               0.000000000               0.000000000               0.000000000               0.000000000              -0.000077855               0.005276265               0.000021166              -0.000688727               0.001988313               0.001299586               0.000000000               0.000000000               0.000000000               0.000000000              -0.000074330               0.005168338               0.000003087              -0.000673914               0.001947400               0.001273486               0.000000000               0.000000000               0.000000000               0.000000000              -0.000075309               0.005116491              -0.000004722              -0.000667801               0.001928080               0.001260280               0.000000000               0.000000000               0.000000000               0.000000000              -0.000662218               0.004639813               0.001843941              -0.000828308               0.001822691               0.000994383               0.000000000               0.000000000               0.000000000               0.000000000              -0.001716659               0.006238601               0.001948450              -0.001423570               0.002554036               0.001130466               0.000000000               0.000000000               0.000000000               0.000000000              -0.002659590               0.007910020               0.001846240              -0.001986094               0.003298678               0.001312584               0.000000000               0.000000000               0.000000000               0.000000000              -0.002583705               0.008280135               0.001536817              -0.002003902               0.003427984               0.001424083               0.000000000               0.000000000               0.000000000               0.000000000              -0.002272543               0.008192745               0.001274559              -0.001876293               0.003356319               0.001480026               0.000000000               0.000000000               0.000000000               0.000000000              -0.001915586               0.007927053               0.001070480              -0.001709222               0.003212065               0.001502843               0.000000000               0.000000000               0.000000000               0.000000000              -0.001562657               0.007588492               0.000907841              -0.001534554               0.003040990               0.001506436               0.000000000               0.000000000               0.000000000               0.000000000              -0.001239870               0.007219008               0.000770310              -0.001367324               0.002862086               0.001494762               0.000000000               0.000000000               0.000000000               0.000000000              -0.000951212               0.006858543               0.000651294              -0.001214020               0.002690831               0.001476812               0.000000000               0.000000000               0.000000000               0.000000000              -0.000699948               0.006520644               0.000544836              -0.001077558               0.002532712               0.001455154               0.000000000               0.000000000               0.000000000               0.000000000              -0.000489220               0.006210824               0.000444352              -0.000959808               0.002390190               0.001430382               0.000000000               0.000000000               0.000000000               0.000000000              -0.000323595               0.005921155               0.000345034              -0.000861490               0.002260862               0.001399371               0.000000000               0.000000000               0.000000000               0.000000000              -0.000202342               0.005654984               0.000240777              -0.000782749               0.002145892               0.001363143               0.000000000               0.000000000               0.000000000               0.000000000              -0.000133452               0.005422789               0.000143161              -0.000727891               0.002050209               0.001322317               0.000000000               0.000000000               0.000000000               0.000000000              -0.000119238               0.005239179               0.000069682              -0.000699610               0.001979579               0.001279969               0.000000000               0.000000000               0.000000000               0.000000000              -0.000144102               0.005103122               0.000021307              -0.000691927               0.001931666               0.001239739               0.000000000               0.000000000               0.000000000               0.000000000              -0.000167706               0.005038665               0.000000375              -0.000692721               0.001910445               0.001217724               0.000000000               0.000000000               0.000000000               0.000000000              -0.002014181               0.002948428               0.001044802              -0.001123869               0.001357422               0.000233553               0.000000000               0.000000000               0.000000000               0.000000000              -0.002325038               0.004766491               0.001738997              -0.001467698               0.002078046               0.000610349               0.000000000               0.000000000               0.000000000               0.000000000              -0.002856786               0.006635522               0.002172594              -0.001900731               0.002845395               0.000944664               0.000000000               0.000000000               0.000000000               0.000000000              -0.002698316               0.007324084               0.002000678              -0.001927375               0.003083795               0.001156420               0.000000000               0.000000000               0.000000000               0.000000000              -0.002362633               0.007501921               0.001740405              -0.001823723               0.003108523               0.001284799               0.000000000               0.000000000               0.000000000               0.000000000              -0.002001258               0.007448987               0.001501091              -0.001681591               0.003043501               0.001361910               0.000000000               0.000000000               0.000000000               0.000000000              -0.001647853               0.007276624               0.001294645              -0.001527519               0.002934690               0.001407171               0.000000000               0.000000000               0.000000000               0.000000000              -0.001319560               0.007035844               0.001121296              -0.001374313               0.002803362               0.001429049               0.000000000               0.000000000               0.000000000               0.000000000              -0.001018243               0.006770948               0.000974584              -0.001228207               0.002666362               0.001438155               0.000000000               0.000000000               0.000000000               0.000000000              -0.000749418               0.006502406               0.000843670              -0.001093830               0.002532057               0.001438227               0.000000000               0.000000000               0.000000000               0.000000000              -0.000518722               0.006237057               0.000719501              -0.000974151               0.002403715               0.001429565               0.000000000               0.000000000               0.000000000               0.000000000              -0.000334207               0.005977888               0.000593215              -0.000872562               0.002283463               0.001410902               0.000000000               0.000000000               0.000000000               0.000000000              -0.000196825               0.005730003               0.000456308              -0.000790058               0.002173335               0.001383277               0.000000000               0.000000000               0.000000000               0.000000000              -0.000107814               0.005497476               0.000314814              -0.000727613               0.002075011               0.001347398               0.000000000               0.000000000               0.000000000               0.000000000              -0.000080875               0.005293847               0.000184255              -0.000692057               0.001995284               0.001303227               0.000000000               0.000000000               0.000000000               0.000000000              -0.000121575               0.005128770               0.000077394              -0.000686685               0.001938468               0.001251783               0.000000000               0.000000000               0.000000000               0.000000000              -0.000175732               0.005044566               0.000024668              -0.000696469               0.001913661               0.001217193               0.000000000               0.000000000               0.000000000               0.000000000              -0.003587949               0.001551928               0.000313083              -0.001539469               0.001030459              -0.000509010               0.000000000               0.000000000               0.000000000               0.000000000              -0.003057304               0.003371789               0.001436529              -0.001567960               0.001646571               0.000078611               0.000000000               0.000000000               0.000000000               0.000000000              -0.002998277               0.005202362               0.002299807              -0.001774646               0.002325651               0.000551005               0.000000000               0.000000000               0.000000000               0.000000000              -0.002690909               0.006108526               0.002306503              -0.001772653               0.002627038               0.000854385               0.000000000               0.000000000               0.000000000               0.000000000              -0.002322586               0.006532716               0.002096271              -0.001687556               0.002740068               0.001052512               0.000000000               0.000000000               0.000000000               0.000000000              -0.001955492               0.006703723               0.001854095              -0.001571272               0.002758309               0.001187037               0.000000000               0.000000000               0.000000000               0.000000000              -0.001608715               0.006719834               0.001625548              -0.001443244               0.002721003               0.001277759               0.000000000               0.000000000               0.000000000               0.000000000              -0.001284742               0.006637318               0.001428923              -0.001311440               0.002649564               0.001338123               0.000000000               0.000000000               0.000000000               0.000000000              -0.000982120               0.006495620               0.001264018              -0.001180245               0.002558600               0.001378355               0.000000000               0.000000000               0.000000000               0.000000000              -0.000703447               0.006324436               0.001118535              -0.001054345               0.002459572               0.001405227               0.000000000               0.000000000               0.000000000               0.000000000              -0.000454791               0.006135004               0.000980330              -0.000937420               0.002357454               0.001420034               0.000000000               0.000000000               0.000000000               0.000000000              -0.000244163               0.005935120               0.000837885              -0.000833449               0.002256170               0.001422721               0.000000000               0.000000000               0.000000000               0.000000000              -0.000079001               0.005729458               0.000682748              -0.000745806               0.002158402               0.001412596               0.000000000               0.000000000               0.000000000               0.000000000               0.000037374               0.005522896               0.000513463              -0.000676345               0.002066395               0.001390050               0.000000000               0.000000000               0.000000000               0.000000000               0.000094637               0.005326081               0.000336372              -0.000630270               0.001985432               0.001355163               0.000000000               0.000000000               0.000000000               0.000000000               0.000076601               0.005151494               0.000162939              -0.000615210               0.001922218               0.001307008               0.000000000               0.000000000               0.000000000               0.000000000               0.000021985               0.005057783               0.000070689              -0.000623977               0.001893903               0.001269926               0.000000000               0.000000000               0.000000000               0.000000000              -0.005262494               0.000520368              -0.000253869              -0.002038479               0.000852943              -0.001185536               0.000000000               0.000000000               0.000000000               0.000000000              -0.003867794               0.002135045               0.001083564              -0.001717301               0.001284106              -0.000433195               0.000000000               0.000000000               0.000000000               0.000000000              -0.003111041               0.003734576               0.002203742              -0.001633459               0.001789331               0.000155872               0.000000000               0.000000000               0.000000000               0.000000000              -0.002580844               0.004740604               0.002370527              -0.001560389               0.002100314               0.000539925               0.000000000               0.000000000               0.000000000               0.000000000              -0.002153394               0.005359690               0.002243159              -0.001477481               0.002279038               0.000801557               0.000000000               0.000000000               0.000000000               0.000000000              -0.001780550               0.005730672               0.002037279              -0.001384038               0.002371550               0.000987512               0.000000000               0.000000000               0.000000000               0.000000000              -0.001442776               0.005933288               0.001818275              -0.001282699               0.002405309               0.001122609               0.000000000               0.000000000               0.000000000               0.000000000              -0.001128439               0.006022556               0.001618631              -0.001175982               0.002399492               0.001223510               0.000000000               0.000000000               0.000000000               0.000000000              -0.000834172               0.006027652               0.001447316              -0.001066269               0.002364620               0.001298351               0.000000000               0.000000000               0.000000000               0.000000000              -0.000555651               0.005977947               0.001297031              -0.000955611               0.002311166               0.001355555               0.000000000               0.000000000               0.000000000               0.000000000              -0.000294788               0.005890224               0.001155313              -0.000846822               0.002245662               0.001398840               0.000000000               0.000000000               0.000000000               0.000000000              -0.000058978               0.005772822               0.001009432              -0.000743718               0.002172160               0.001428442               0.000000000               0.000000000               0.000000000               0.000000000               0.000146125               0.005631729               0.000850570              -0.000649168               0.002093613               0.001444445               0.000000000               0.000000000               0.000000000               0.000000000               0.000313568               0.005477801               0.000671825              -0.000567136               0.002014961               0.001447825               0.000000000               0.000000000               0.000000000               0.000000000               0.000432962               0.005316795               0.000471960              -0.000502237               0.001939660               0.001437422               0.000000000               0.000000000               0.000000000               0.000000000               0.000486793               0.005156344               0.000247695              -0.000461995               0.001872762               0.001410768               0.000000000               0.000000000               0.000000000               0.000000000               0.000484066               0.005072663               0.000125586              -0.000452557               0.001841723               0.001389166               0.000000000               0.000000000               0.000000000               0.000000000              -0.006878945              -0.000152812              -0.000569049              -0.002560501               0.000802557              -0.001757943               0.000000000               0.000000000               0.000000000               0.000000000              -0.004682719               0.001131644               0.000734983              -0.001897473               0.001009698              -0.000887774               0.000000000               0.000000000               0.000000000               0.000000000              -0.003217162               0.002373510               0.001886183              -0.001503122               0.001292201              -0.000210921               0.000000000               0.000000000               0.000000000               0.000000000              -0.002416543               0.003375082               0.002150001              -0.001328087               0.001567711               0.000239624               0.000000000               0.000000000               0.000000000               0.000000000              -0.001891711               0.004124462               0.002102822              -0.001224948               0.001783122               0.000558174               0.000000000               0.000000000               0.000000000               0.000000000              -0.001498722               0.004655338               0.001954272              -0.001143936               0.001933075               0.000789139               0.000000000               0.000000000               0.000000000               0.000000000              -0.001170130               0.005016377               0.001776965              -0.001065844               0.002027390               0.000961546               0.000000000               0.000000000               0.000000000               0.000000000              -0.000872892               0.005259280               0.001603060              -0.000984743               0.002081323               0.001096580               0.000000000               0.000000000               0.000000000               0.000000000              -0.000596903               0.005410862               0.001445477              -0.000900195               0.002103667               0.001203472               0.000000000               0.000000000               0.000000000               0.000000000              -0.000327763               0.005493746               0.001306470              -0.000809628               0.002101106               0.001291478               0.000000000               0.000000000               0.000000000               0.000000000              -0.000063180               0.005520439               0.001174658              -0.000713746               0.002078043               0.001364297               0.000000000               0.000000000               0.000000000               0.000000000               0.000195274               0.005501876               0.001039136              -0.000614506               0.002038775               0.001424270               0.000000000               0.000000000               0.000000000               0.000000000               0.000444529               0.005447011               0.000892497              -0.000514177               0.001987044               0.001472867               0.000000000               0.000000000               0.000000000               0.000000000               0.000683081               0.005362915               0.000726075              -0.000414208               0.001925690               0.001511481               0.000000000               0.000000000               0.000000000               0.000000000               0.000904117               0.005255455               0.000532293              -0.000317887               0.001857763               0.001539876               0.000000000               0.000000000               0.000000000               0.000000000               0.001091840               0.005134758               0.000292807              -0.000232404               0.001789037               0.001556633               0.000000000               0.000000000               0.000000000               0.000000000               0.001200804               0.005082136               0.000163298              -0.000184965               0.001755683               0.001570718               0.000000000               0.000000000               0.000000000               0.000000000              -0.008248346              -0.000544590              -0.000595953              -0.003025054               0.000826816              -0.002198238               0.000000000               0.000000000               0.000000000               0.000000000              -0.005391396               0.000397723               0.000435366              -0.002071487               0.000823064              -0.001248423               0.000000000               0.000000000               0.000000000               0.000000000              -0.003310642               0.001273399               0.001374416              -0.001400664               0.000891347              -0.000509316               0.000000000               0.000000000               0.000000000               0.000000000              -0.002244923               0.002206581               0.001639161              -0.001117667               0.001108074              -0.000009593               0.000000000               0.000000000               0.000000000               0.000000000              -0.001611249               0.003011585               0.001646089              -0.000980665               0.001330739               0.000350074               0.000000000               0.000000000               0.000000000               0.000000000              -0.001183422               0.003651035               0.001557098              -0.000900161               0.001517053               0.000616891               0.000000000               0.000000000               0.000000000               0.000000000              -0.000855090               0.004136778               0.001435510              -0.000837755               0.001658163               0.000820408               0.000000000               0.000000000               0.000000000               0.000000000              -0.000572681               0.004500946               0.001308445              -0.000777372               0.001759424               0.000982052               0.000000000               0.000000000               0.000000000               0.000000000              -0.000313020               0.004768716               0.001190324              -0.000713471               0.001827379               0.001113909               0.000000000               0.000000000               0.000000000               0.000000000              -0.000057844               0.004965680               0.001083488              -0.000642400               0.001869343               0.001226943               0.000000000               0.000000000               0.000000000               0.000000000               0.000203238               0.005100027               0.000980194              -0.000561288               0.001887088               0.001325800               0.000000000               0.000000000               0.000000000               0.000000000               0.000476500               0.005176063               0.000872622              -0.000468320               0.001881444               0.001413124               0.000000000               0.000000000               0.000000000               0.000000000               0.000763980               0.005207395               0.000756502              -0.000364431               0.001857258               0.001492827               0.000000000               0.000000000               0.000000000               0.000000000               0.001073041               0.005201825               0.000628475              -0.000247837               0.001816537               0.001568699               0.000000000               0.000000000               0.000000000               0.000000000               0.001406773               0.005161394               0.000473784              -0.000117634               0.001759659               0.001642024               0.000000000               0.000000000               0.000000000               0.000000000               0.001757153               0.005091318               0.000266695               0.000022517               0.001689583               0.001712100               0.000000000               0.000000000               0.000000000               0.000000000               0.002009783               0.005076599               0.000156396               0.000119092               0.001652485               0.001771578               0.000000000               0.000000000               0.000000000               0.000000000              -0.009172663              -0.000733184              -0.000372138              -0.003348098               0.000871632              -0.002476466               0.000000000               0.000000000               0.000000000               0.000000000              -0.005878315              -0.000046445               0.000198239              -0.002198561               0.000717367              -0.001481194               0.000000000               0.000000000               0.000000000               0.000000000              -0.003374121               0.000555783               0.000725363              -0.001334767               0.000630179              -0.000704588               0.000000000               0.000000000               0.000000000               0.000000000              -0.002112596               0.001413850               0.000888063              -0.000968953               0.000794262              -0.000174691               0.000000000               0.000000000               0.000000000               0.000000000              -0.001393806               0.002233107               0.000906309              -0.000801814               0.001011633               0.000209819               0.000000000               0.000000000               0.000000000               0.000000000              -0.000935224               0.002930965               0.000867698              -0.000717078               0.001216004               0.000498926               0.000000000               0.000000000               0.000000000               0.000000000              -0.000603878               0.003491917               0.000807754              -0.000662943               0.001384941               0.000721999               0.000000000               0.000000000               0.000000000               0.000000000              -0.000328676               0.003934118               0.000741091              -0.000615017               0.001516365               0.000901348               0.000000000               0.000000000               0.000000000               0.000000000              -0.000075409               0.004276464               0.000677140              -0.000562835               0.001613085               0.001050250               0.000000000               0.000000000               0.000000000               0.000000000               0.000172686               0.004542792               0.000619663              -0.000503091               0.001681946               0.001178855               0.000000000               0.000000000               0.000000000               0.000000000               0.000431540               0.004750581               0.000563822              -0.000431994               0.001727509               0.001295515               0.000000000               0.000000000               0.000000000               0.000000000               0.000712433               0.004901036               0.000503003              -0.000345467               0.001748818               0.001403351               0.000000000               0.000000000               0.000000000               0.000000000               0.001027167               0.004999470               0.000437315              -0.000239746               0.001746389               0.001506643               0.000000000               0.000000000               0.000000000               0.000000000               0.001384269               0.005053651               0.000368842              -0.000112606               0.001722069               0.001609463               0.000000000               0.000000000               0.000000000               0.000000000               0.001794340               0.005070270               0.000282649               0.000039093               0.001677042               0.001716135               0.000000000               0.000000000               0.000000000               0.000000000               0.002272462               0.005048686               0.000158940               0.000221085               0.001609184               0.001830269               0.000000000               0.000000000               0.000000000               0.000000000               0.002648025               0.005068272               0.000094173               0.000359472               0.001569583               0.001929055               0.000000000               0.000000000               0.000000000               0.000000000              -0.009499186              -0.000782949              -0.000000000              -0.003464324               0.000893786              -0.002570538               0.000000000               0.000000000               0.000000000               0.000000000              -0.006051928              -0.000191770              -0.000000000              -0.002245500               0.000684572              -0.001560928               0.000000000               0.000000000               0.000000000               0.000000000              -0.003395768               0.000305631              -0.000000000              -0.001311615               0.000539078              -0.000772537               0.000000000               0.000000000               0.000000000               0.000000000              -0.002064324               0.001129810              -0.000000000              -0.000915346               0.000681714              -0.000233632               0.000000000               0.000000000               0.000000000               0.000000000              -0.001314121               0.001952422               0.000000000              -0.000736846               0.000896416               0.000159570               0.000000000               0.000000000               0.000000000               0.000000000              -0.000841498               0.002669625               0.000000000              -0.000649263               0.001106287               0.000457024               0.000000000               0.000000000               0.000000000               0.000000000              -0.000507561               0.003254059               0.000000000              -0.000597091               0.001283706               0.000686614               0.000000000               0.000000000               0.000000000               0.000000000              -0.000236400               0.003720827              -0.000000000              -0.000553752               0.001424847               0.000871095               0.000000000               0.000000000               0.000000000               0.000000000               0.000015142               0.004090724              -0.000000000              -0.000505661               0.001532115               0.001026454               0.000000000               0.000000000               0.000000000               0.000000000               0.000264634               0.004382609              -0.000000000              -0.000448587               0.001610384               0.001161797               0.000000000               0.000000000               0.000000000               0.000000000               0.000522961               0.004614107              -0.000000000              -0.000380652               0.001664904               0.001284252               0.000000000               0.000000000               0.000000000               0.000000000               0.000805244               0.004790602               0.000000000              -0.000296858               0.001695804               0.001398946               0.000000000               0.000000000               0.000000000               0.000000000               0.001129902               0.004914693               0.000000000              -0.000190623               0.001701756               0.001511133               0.000000000               0.000000000               0.000000000               0.000000000               0.001504745               0.004993846              -0.000000000              -0.000059951               0.001684582               0.001624631               0.000000000               0.000000000               0.000000000               0.000000000               0.001939444               0.005033250              -0.000000000               0.000098134               0.001645022               0.001743156               0.000000000               0.000000000               0.000000000               0.000000000               0.002464794               0.005031437              -0.000000000               0.000295365               0.001578674               0.001874039               0.000000000               0.000000000               0.000000000               0.000000000               0.002889649               0.005065696               0.000000000               0.000450402               0.001538415               0.001988816               0.000000000               0.000000000               0.000000000               0.000000000               0.002018885               0.021971640               0.000000000              -0.001989368               0.007986930               0.005997562               0.000000000               0.000000000               0.000000000               0.000000000               0.002025286               0.017270060               0.000000000              -0.001399272               0.006223053               0.004823781               0.000000000               0.000000000               0.000000000               0.000000000               0.002682124               0.013474058               0.000000000              -0.000678459               0.004717461               0.004039002               0.000000000               0.000000000               0.000000000               0.000000000               0.002595808               0.011354900               0.000000000              -0.000445934               0.003933574               0.003487640               0.000000000               0.000000000               0.000000000               0.000000000               0.002281870               0.010045641              -0.000000000              -0.000400003               0.003481848               0.003081845               0.000000000               0.000000000               0.000000000               0.000000000               0.001921586               0.009153322               0.000000000              -0.000423570               0.003192267               0.002768697               0.000000000               0.000000000               0.000000000               0.000000000               0.001578955               0.008481798               0.000000000              -0.000468115               0.002983276               0.002515161               0.000000000               0.000000000               0.000000000               0.000000000               0.001274417               0.007943135              -0.000000000              -0.000514984               0.002819346               0.002304362               0.000000000               0.000000000               0.000000000               0.000000000               0.001008165               0.007488477              -0.000000000              -0.000557996               0.002682133               0.002124137               0.000000000               0.000000000               0.000000000               0.000000000               0.000770756               0.007072595              -0.000000000              -0.000595039               0.002555855               0.001960815               0.000000000               0.000000000               0.000000000               0.000000000               0.000563313               0.006675064              -0.000000000              -0.000623139               0.002432712               0.001809573               0.000000000               0.000000000               0.000000000               0.000000000               0.000385860               0.006285384              -0.000000000              -0.000640974               0.002308765               0.001667791               0.000000000               0.000000000               0.000000000               0.000000000               0.000242883               0.005889273               0.000000000              -0.000645076               0.002178097               0.001533020               0.000000000               0.000000000               0.000000000               0.000000000               0.000138513               0.005469060               0.000000000              -0.000631689               0.002033565               0.001401876               0.000000000               0.000000000               0.000000000               0.000000000               0.000063299               0.005005528              -0.000000000              -0.000601953               0.001869143               0.001267191               0.000000000               0.000000000               0.000000000               0.000000000               0.000021986               0.004480401               0.000000000              -0.000551804               0.001677387               0.001125583               0.000000000               0.000000000               0.000000000               0.000000000              -0.000030945               0.004076818               0.000000000              -0.000521205               0.001532661               0.001011455               0.000000000               0.000000000               0.000000000               0.000000000               0.002092645               0.021529108              -0.001510264              -0.001906392               0.007811761               0.005905369               0.000000000               0.000000000               0.000000000               0.000000000               0.001989430               0.016981834              -0.000769422              -0.001376690               0.006119451               0.004742762               0.000000000               0.000000000               0.000000000               0.000000000               0.002531149               0.013348079              -0.000028968              -0.000719327               0.004689091               0.003969764               0.000000000               0.000000000               0.000000000               0.000000000               0.002403525               0.011315768               0.000287846              -0.000513148               0.003942934               0.003429786               0.000000000               0.000000000               0.000000000               0.000000000               0.002080206               0.010051798               0.000417566              -0.000476396               0.003509365               0.003032968               0.000000000               0.000000000               0.000000000               0.000000000               0.001723262               0.009180910               0.000456197              -0.000501389               0.003227402               0.002726013               0.000000000               0.000000000               0.000000000               0.000000000               0.001391731               0.008520737               0.000454642              -0.000543192               0.003021281               0.002478090               0.000000000               0.000000000               0.000000000               0.000000000               0.001102471               0.007984514               0.000442022              -0.000584636               0.002856357               0.002271721               0.000000000               0.000000000               0.000000000               0.000000000               0.000856648               0.007527847               0.000422396              -0.000619736               0.002715836               0.002096100               0.000000000               0.000000000               0.000000000               0.000000000               0.000646595               0.007114676               0.000398669              -0.000646860               0.002587155               0.001940295               0.000000000               0.000000000               0.000000000               0.000000000               0.000465349               0.006725017               0.000377251              -0.000666120               0.002463690               0.001797570               0.000000000               0.000000000               0.000000000               0.000000000               0.000311547               0.006344995               0.000354182              -0.000676293               0.002340408               0.001664115               0.000000000               0.000000000               0.000000000               0.000000000               0.000190505               0.005961261               0.000323259              -0.000673717               0.002211639               0.001537923               0.000000000               0.000000000               0.000000000               0.000000000               0.000102709               0.005563210               0.000280345              -0.000656884               0.002073346               0.001416462               0.000000000               0.000000000               0.000000000               0.000000000               0.000039523               0.005136809               0.000220812              -0.000627278               0.001921345               0.001294067               0.000000000               0.000000000               0.000000000               0.000000000               0.000007903               0.004670117               0.000129877              -0.000580800               0.001750290               0.001169490               0.000000000               0.000000000               0.000000000               0.000000000              -0.000034347               0.004321105               0.000080252              -0.000553017               0.001624693               0.001071676               0.000000000               0.000000000               0.000000000               0.000000000               0.002283765               0.020263879              -0.002814695              -0.001676570               0.007313415               0.005636845               0.000000000               0.000000000               0.000000000               0.000000000               0.001879882               0.016163110              -0.001431049              -0.001315430               0.005826126               0.004510696               0.000000000               0.000000000               0.000000000               0.000000000               0.002101808               0.012995581              -0.000062025              -0.000836268               0.004610573               0.003774305               0.000000000               0.000000000               0.000000000               0.000000000               0.001855684               0.011199394               0.000499955              -0.000704041               0.003967774               0.003263733               0.000000000               0.000000000               0.000000000               0.000000000               0.001508252               0.010050316               0.000720072              -0.000690693               0.003580303               0.002889610               0.000000000               0.000000000               0.000000000               0.000000000               0.001176222               0.009238257               0.000782555              -0.000713697               0.003317287               0.002603590               0.000000000               0.000000000               0.000000000               0.000000000               0.000892459               0.008612664               0.000775962              -0.000741909               0.003118162               0.002376253               0.000000000               0.000000000               0.000000000               0.000000000               0.000661893               0.008096724               0.000749705              -0.000763879               0.002953507               0.002189628               0.000000000               0.000000000               0.000000000               0.000000000               0.000481852               0.007649332               0.000715098              -0.000775470               0.002808242               0.002032772               0.000000000               0.000000000               0.000000000               0.000000000               0.000337279               0.007244382               0.000673947              -0.000779066               0.002674459               0.001895392               0.000000000               0.000000000               0.000000000               0.000000000               0.000217720               0.006864567               0.000632528              -0.000776424               0.002546974               0.001770550               0.000000000               0.000000000               0.000000000               0.000000000               0.000125998               0.006498476               0.000584735              -0.000765058               0.002421156               0.001656098               0.000000000               0.000000000               0.000000000               0.000000000               0.000059905               0.006139006               0.000525248              -0.000744910               0.002294618               0.001549708               0.000000000               0.000000000               0.000000000               0.000000000               0.000018214               0.005786966               0.000449724              -0.000716539               0.002167816               0.001451277               0.000000000               0.000000000               0.000000000               0.000000000              -0.000005530               0.005441696               0.000348574              -0.000682284               0.002041309               0.001359025               0.000000000               0.000000000               0.000000000               0.000000000              -0.000011653               0.005102490               0.000200522              -0.000642180               0.001914873               0.001272693               0.000000000               0.000000000               0.000000000               0.000000000              -0.000031367               0.004873161               0.000119233              -0.000620906               0.001831340               0.001210433               0.000000000               0.000000000               0.000000000               0.000000000               0.002487737               0.018336689              -0.003748113              -0.001359184               0.006565229               0.005206045               0.000000000               0.000000000               0.000000000               0.000000000               0.001660034               0.014933934              -0.001912751              -0.001244227               0.005392670               0.004148443               0.000000000               0.000000000               0.000000000               0.000000000               0.001432399               0.012469022              -0.000125350              -0.001021475               0.004496791               0.003475315               0.000000000               0.000000000               0.000000000               0.000000000               0.001051216               0.011008126               0.000570469              -0.000981807               0.003996608               0.003014801               0.000000000               0.000000000               0.000000000               0.000000000               0.000708483               0.010021396               0.000832222              -0.000986991               0.003669429               0.002682438               0.000000000               0.000000000               0.000000000               0.000000000               0.000440533               0.009292088               0.000900960              -0.000996309               0.003429435               0.002433126               0.000000000               0.000000000               0.000000000               0.000000000               0.000240967               0.008711661               0.000886703              -0.000998593               0.003236722               0.002238129               0.000000000               0.000000000               0.000000000               0.000000000               0.000102766               0.008223119               0.000846928              -0.000989350               0.003070796               0.002081445               0.000000000               0.000000000               0.000000000               0.000000000               0.000010594               0.007786275               0.000798495              -0.000969309               0.002918502               0.001949193               0.000000000               0.000000000               0.000000000               0.000000000              -0.000053356               0.007385075               0.000743702              -0.000943141               0.002776047               0.001832907               0.000000000               0.000000000               0.000000000               0.000000000              -0.000095116               0.007009507               0.000687090              -0.000911855               0.002640431               0.001728576               0.000000000               0.000000000               0.000000000               0.000000000              -0.000112911               0.006655906               0.000621809              -0.000874328               0.002510056               0.001635728               0.000000000               0.000000000               0.000000000               0.000000000              -0.000114301               0.006322149               0.000544161              -0.000833130               0.002385072               0.001551942               0.000000000               0.000000000               0.000000000               0.000000000              -0.000100925               0.006014201               0.000453305              -0.000789620               0.002267920               0.001478300               0.000000000               0.000000000               0.000000000               0.000000000              -0.000076264               0.005739104               0.000340217              -0.000745985               0.002161677               0.001415692               0.000000000               0.000000000               0.000000000               0.000000000              -0.000043480               0.005503704               0.000188367              -0.000704266               0.002069305               0.001365039               0.000000000               0.000000000               0.000000000               0.000000000              -0.000037426               0.005367824               0.000107932              -0.000685011               0.002017594               0.001332583               0.000000000               0.000000000               0.000000000               0.000000000               0.002568569               0.015969815              -0.004237165              -0.001033014               0.005667556               0.004634541               0.000000000               0.000000000               0.000000000               0.000000000               0.001296413               0.013456066              -0.002197507              -0.001195852               0.004883927               0.003688076               0.000000000               0.000000000               0.000000000               0.000000000               0.000601355               0.011834927              -0.000240456              -0.001253854               0.004362888               0.003109033               0.000000000               0.000000000               0.000000000               0.000000000               0.000136611               0.010746268               0.000476032              -0.001292051               0.004012737               0.002720686               0.000000000               0.000000000               0.000000000               0.000000000              -0.000152352               0.009933821               0.000730927              -0.001298856               0.003744192               0.002445336               0.000000000               0.000000000               0.000000000               0.000000000              -0.000317532               0.009290205               0.000793503              -0.001280347               0.003523486               0.002243139               0.000000000               0.000000000               0.000000000               0.000000000              -0.000400471               0.008750368               0.000775824              -0.001243970               0.003331417               0.002087447               0.000000000               0.000000000               0.000000000               0.000000000              -0.000431702               0.008273957               0.000731712              -0.001196130               0.003156668               0.001960538               0.000000000               0.000000000               0.000000000               0.000000000              -0.000429260               0.007835843               0.000680054              -0.001140450               0.002992072               0.001851621               0.000000000               0.000000000               0.000000000               0.000000000              -0.000406594               0.007427519               0.000627016              -0.001080910               0.002836118               0.001755208               0.000000000               0.000000000               0.000000000               0.000000000              -0.000371141               0.007051224               0.000573004              -0.001020578               0.002690577               0.001669999               0.000000000               0.000000000               0.000000000               0.000000000              -0.000325930               0.006708202               0.000508512              -0.000960747               0.002556294               0.001595547               0.000000000               0.000000000               0.000000000               0.000000000              -0.000275611               0.006399662               0.000432037              -0.000903310               0.002434303               0.001530993               0.000000000               0.000000000               0.000000000               0.000000000              -0.000217016               0.006128578               0.000348200              -0.000847451               0.002325323               0.001477872               0.000000000               0.000000000               0.000000000               0.000000000              -0.000146974               0.005896873               0.000251155              -0.000792222               0.002229679               0.001437456               0.000000000               0.000000000               0.000000000               0.000000000              -0.000074096               0.005712971               0.000134090              -0.000741906               0.002151607               0.001409701               0.000000000               0.000000000               0.000000000               0.000000000              -0.000049648               0.005615557               0.000077597              -0.000720561               0.002112020               0.001391460               0.000000000               0.000000000               0.000000000               0.000000000               0.002415737               0.013412425              -0.004288660              -0.000770654               0.004727647               0.003956993               0.000000000               0.000000000               0.000000000               0.000000000               0.000793386               0.011890099              -0.002308415              -0.001188741               0.004359573               0.003170832               0.000000000               0.000000000               0.000000000               0.000000000              -0.000287558               0.011145486              -0.000429046              -0.001501016               0.004215464               0.002714447               0.000000000               0.000000000               0.000000000               0.000000000              -0.000755954               0.010414616               0.000219346              -0.001585306               0.003999939               0.002414633               0.000000000               0.000000000               0.000000000               0.000000000              -0.000930166               0.009765686               0.000447456              -0.001569519               0.003778369               0.002208850               0.000000000               0.000000000               0.000000000               0.000000000              -0.000958175               0.009189564               0.000511883              -0.001508007               0.003565826               0.002057819               0.000000000               0.000000000               0.000000000               0.000000000              -0.000914841               0.008667448               0.000504619              -0.001426493               0.003364618               0.001938125               0.000000000               0.000000000               0.000000000               0.000000000              -0.000837951               0.008185833               0.000473362              -0.001337458               0.003174403               0.001836945               0.000000000               0.000000000               0.000000000               0.000000000              -0.000744780               0.007738162               0.000433704              -0.001246560               0.002994881               0.001748322               0.000000000               0.000000000               0.000000000               0.000000000              -0.000646106               0.007321912               0.000396610              -0.001157526               0.002826455               0.001668929               0.000000000               0.000000000               0.000000000               0.000000000              -0.000547065               0.006945326               0.000362529              -0.001073312               0.002672856               0.001599544               0.000000000               0.000000000               0.000000000               0.000000000              -0.000452509               0.006612012               0.000321630              -0.000996190               0.002536045               0.001539855               0.000000000               0.000000000               0.000000000               0.000000000              -0.000359264               0.006325278               0.000271006              -0.000925381               0.002416865               0.001491484               0.000000000               0.000000000               0.000000000               0.000000000              -0.000263420               0.006080748               0.000211825              -0.000858874               0.002313187               0.001454313               0.000000000               0.000000000               0.000000000               0.000000000              -0.000165033               0.005876732               0.000144563              -0.000796477               0.002224384               0.001427907               0.000000000               0.000000000               0.000000000               0.000000000              -0.000076458               0.005724415               0.000073003              -0.000744222               0.002156193               0.001411972               0.000000000               0.000000000               0.000000000               0.000000000              -0.000047176               0.005647678               0.000043202              -0.000723649               0.002123757               0.001400108               0.000000000               0.000000000               0.000000000               0.000000000               0.001963979               0.010874035              -0.003975094              -0.000622765               0.003832229               0.003209464               0.000000000               0.000000000               0.000000000               0.000000000               0.000174969               0.010356960              -0.002296553              -0.001229005               0.003861953               0.002632948               0.000000000               0.000000000               0.000000000               0.000000000              -0.001129387               0.010435918              -0.000698545              -0.001728006               0.004054606               0.002326601               0.000000000               0.000000000               0.000000000               0.000000000              -0.001502902               0.010014303              -0.000154378              -0.001815371               0.003943191               0.002127820               0.000000000               0.000000000               0.000000000               0.000000000              -0.001528996               0.009490436               0.000054878              -0.001759674               0.003750005               0.001990331               0.000000000               0.000000000               0.000000000               0.000000000              -0.001417484               0.008957078               0.000132966              -0.001651187               0.003536059               0.001884871               0.000000000               0.000000000               0.000000000               0.000000000              -0.001254286               0.008440810               0.000152043              -0.001525455               0.003322060               0.001796605               0.000000000               0.000000000               0.000000000               0.000000000              -0.001079317               0.007952213               0.000149996              -0.001398767               0.003116967               0.001718200               0.000000000               0.000000000               0.000000000               0.000000000              -0.000905746               0.007499353               0.000141061              -0.001277071               0.002925450               0.001648379               0.000000000               0.000000000               0.000000000               0.000000000              -0.000744305               0.007088048               0.000135105              -0.001165118               0.002751032               0.001585914               0.000000000               0.000000000               0.000000000               0.000000000              -0.000597823               0.006721664               0.000136248              -0.001064389               0.002595328               0.001530940               0.000000000               0.000000000               0.000000000               0.000000000              -0.000463027               0.006402886               0.000133396              -0.000973994               0.002458939               0.001484945               0.000000000               0.000000000               0.000000000               0.000000000              -0.000339140               0.006128423               0.000118781              -0.000893228               0.002340530               0.001447302               0.000000000               0.000000000               0.000000000               0.000000000              -0.000226254               0.005896263               0.000091423              -0.000821876               0.002239360               0.001417484               0.000000000               0.000000000               0.000000000               0.000000000              -0.000127756               0.005713201               0.000058100              -0.000762057               0.002158400               0.001396344               0.000000000               0.000000000               0.000000000               0.000000000              -0.000054052               0.005584960               0.000028297              -0.000718388               0.002101097               0.001382710               0.000000000               0.000000000               0.000000000               0.000000000              -0.000033974               0.005521488               0.000020015              -0.000702924               0.002074786               0.001371861               0.000000000               0.000000000               0.000000000               0.000000000               0.001244328               0.008510553              -0.003391391              -0.000597198               0.003035887               0.002438690               0.000000000               0.000000000               0.000000000               0.000000000              -0.000516230               0.008950800              -0.002206545              -0.001312434               0.003421048               0.002108613               0.000000000               0.000000000               0.000000000               0.000000000              -0.001838345               0.009718233              -0.001034412              -0.001904154               0.003874096               0.001969943               0.000000000               0.000000000               0.000000000               0.000000000              -0.002039136               0.009526900              -0.000588842              -0.001955534               0.003827446               0.001871913               0.000000000               0.000000000               0.000000000               0.000000000              -0.001906623               0.009094531              -0.000376707              -0.001851796               0.003648745               0.001796950               0.000000000               0.000000000               0.000000000               0.000000000              -0.001669569               0.008598405              -0.000266689              -0.001700885               0.003433068               0.001732183               0.000000000               0.000000000               0.000000000               0.000000000              -0.001406034               0.008093927              -0.000205830              -0.001539000               0.003210949               0.001671949               0.000000000               0.000000000               0.000000000               0.000000000              -0.001153198               0.007612992              -0.000163576              -0.001384070               0.002998995               0.001614926               0.000000000               0.000000000               0.000000000               0.000000000              -0.000921545               0.007169589              -0.000127149              -0.001241775               0.002803764               0.001561989               0.000000000               0.000000000               0.000000000               0.000000000              -0.000716651               0.006773352              -0.000090968              -0.001115410               0.002629565               0.001514155               0.000000000               0.000000000               0.000000000               0.000000000              -0.000541149               0.006423212              -0.000050880              -0.001005830               0.002476326               0.001470496               0.000000000               0.000000000               0.000000000               0.000000000              -0.000390305               0.006114924              -0.000017410              -0.000910728               0.002341864               0.001431136               0.000000000               0.000000000               0.000000000               0.000000000              -0.000258884               0.005847957               0.000001862              -0.000828074               0.002225324               0.001397250               0.000000000               0.000000000               0.000000000               0.000000000              -0.000153777               0.005628984               0.000008550              -0.000761288               0.002130072               0.001368784               0.000000000               0.000000000               0.000000000               0.000000000              -0.000080187               0.005467458               0.000007980              -0.000713501               0.002060301               0.001346801               0.000000000               0.000000000               0.000000000               0.000000000              -0.000034810               0.005358465               0.000006455              -0.000682860               0.002013757               0.001330897               0.000000000               0.000000000               0.000000000               0.000000000              -0.000024136               0.005303259               0.000009738              -0.000671957               0.001991721               0.001319764               0.000000000               0.000000000               0.000000000               0.000000000               0.000373642               0.006506625              -0.002644723              -0.000673213               0.002393257               0.001720044               0.000000000               0.000000000               0.000000000               0.000000000              -0.001179426               0.007698168              -0.002086268              -0.001404554               0.003034214               0.001629661               0.000000000               0.000000000               0.000000000               0.000000000              -0.002371913               0.008999107              -0.001427603              -0.002014351               0.003671122               0.001656772               0.000000000               0.000000000               0.000000000               0.000000000              -0.002389419               0.009034009              -0.001046386              -0.002025278               0.003686399               0.001661121               0.000000000               0.000000000               0.000000000               0.000000000              -0.002128124               0.008718399              -0.000810941              -0.001887842               0.003535384               0.001647543               0.000000000               0.000000000               0.000000000               0.000000000              -0.001798838               0.008282968              -0.000657299              -0.001709931               0.003330939               0.001621008               0.000000000               0.000000000               0.000000000               0.000000000              -0.001461931               0.007819197              -0.000547053              -0.001525620               0.003114913               0.001589293               0.000000000               0.000000000               0.000000000               0.000000000              -0.001151223               0.007365459              -0.000455043              -0.001352388               0.002905924               0.001553537               0.000000000               0.000000000               0.000000000               0.000000000              -0.000878488               0.006942639              -0.000373496              -0.001197260               0.002713276               0.001516017               0.000000000               0.000000000               0.000000000               0.000000000              -0.000643553               0.006564022              -0.000298088              -0.001061833               0.002541930               0.001480097               0.000000000               0.000000000               0.000000000               0.000000000              -0.000447761               0.006228276              -0.000226009              -0.000946442               0.002391552               0.001445110               0.000000000               0.000000000               0.000000000               0.000000000              -0.000289387               0.005924008              -0.000160048              -0.000849019               0.002257656               0.001408637               0.000000000               0.000000000               0.000000000               0.000000000              -0.000168686               0.005654791              -0.000101071              -0.000770104               0.002141613               0.001371509               0.000000000               0.000000000               0.000000000               0.000000000              -0.000100747               0.005435295              -0.000053068              -0.000717190               0.002050810               0.001333620               0.000000000               0.000000000               0.000000000               0.000000000              -0.000077855               0.005276265              -0.000021166              -0.000688727               0.001988313               0.001299586               0.000000000               0.000000000               0.000000000               0.000000000              -0.000074330               0.005168338              -0.000003087              -0.000673914               0.001947400               0.001273486               0.000000000               0.000000000               0.000000000               0.000000000              -0.000075309               0.005116491               0.000004722              -0.000667801               0.001928080               0.001260280               0.000000000               0.000000000               0.000000000               0.000000000              -0.000662218               0.004639813              -0.001843941              -0.000828308               0.001822691               0.000994383               0.000000000               0.000000000               0.000000000               0.000000000              -0.001716659               0.006238601              -0.001948450              -0.001423570               0.002554036               0.001130466               0.000000000               0.000000000               0.000000000               0.000000000              -0.002659590               0.007910020              -0.001846240              -0.001986094               0.003298678               0.001312584               0.000000000               0.000000000               0.000000000               0.000000000              -0.002583705               0.008280135              -0.001536817              -0.002003902               0.003427984               0.001424083               0.000000000               0.000000000               0.000000000               0.000000000              -0.002272543               0.008192745              -0.001274559              -0.001876293               0.003356319               0.001480026               0.000000000               0.000000000               0.000000000               0.000000000              -0.001915586               0.007927053              -0.001070480              -0.001709222               0.003212065               0.001502843               0.000000000               0.000000000               0.000000000               0.000000000              -0.001562657               0.007588492              -0.000907841              -0.001534554               0.003040990               0.001506436               0.000000000               0.000000000               0.000000000               0.000000000              -0.001239870               0.007219008              -0.000770310              -0.001367324               0.002862086               0.001494762               0.000000000               0.000000000               0.000000000               0.000000000              -0.000951212               0.006858543              -0.000651294              -0.001214020               0.002690831               0.001476812               0.000000000               0.000000000               0.000000000               0.000000000              -0.000699948               0.006520644              -0.000544836              -0.001077558               0.002532712               0.001455154               0.000000000               0.000000000               0.000000000               0.000000000              -0.000489220               0.006210824              -0.000444352              -0.000959808               0.002390190               0.001430382               0.000000000               0.000000000               0.000000000               0.000000000              -0.000323595               0.005921155              -0.000345034              -0.000861490               0.002260862               0.001399371               0.000000000               0.000000000               0.000000000               0.000000000              -0.000202342               0.005654984              -0.000240777              -0.000782749               0.002145892               0.001363143               0.000000000               0.000000000               0.000000000               0.000000000              -0.000133452               0.005422789              -0.000143161              -0.000727891               0.002050209               0.001322317               0.000000000               0.000000000               0.000000000               0.000000000              -0.000119238               0.005239179              -0.000069682              -0.000699610               0.001979579               0.001279969               0.000000000               0.000000000               0.000000000               0.000000000              -0.000144102               0.005103122              -0.000021307              -0.000691927               0.001931666               0.001239739               0.000000000               0.000000000               0.000000000               0.000000000              -0.000167706               0.005038665              -0.000000375              -0.000692721               0.001910445               0.001217724               0.000000000               0.000000000               0.000000000               0.000000000              -0.002014181               0.002948428              -0.001044802              -0.001123869               0.001357422               0.000233553               0.000000000               0.000000000               0.000000000               0.000000000              -0.002325038               0.004766491              -0.001738997              -0.001467698               0.002078046               0.000610349               0.000000000               0.000000000               0.000000000               0.000000000              -0.002856786               0.006635522              -0.002172594              -0.001900731               0.002845395               0.000944664               0.000000000               0.000000000               0.000000000               0.000000000              -0.002698316               0.007324084              -0.002000678              -0.001927375               0.003083795               0.001156420               0.000000000               0.000000000               0.000000000               0.000000000              -0.002362633               0.007501921              -0.001740405              -0.001823723               0.003108523               0.001284799               0.000000000               0.000000000               0.000000000               0.000000000              -0.002001258               0.007448987              -0.001501091              -0.001681591               0.003043501               0.001361910               0.000000000               0.000000000               0.000000000               0.000000000              -0.001647853               0.007276624              -0.001294645              -0.001527519               0.002934690               0.001407171               0.000000000               0.000000000               0.000000000               0.000000000              -0.001319560               0.007035844              -0.001121296              -0.001374313               0.002803362               0.001429049               0.000000000               0.000000000               0.000000000               0.000000000              -0.001018243               0.006770948              -0.000974584              -0.001228207               0.002666362               0.001438155               0.000000000               0.000000000               0.000000000               0.000000000              -0.000749418               0.006502406              -0.000843670              -0.001093830               0.002532057               0.001438227               0.000000000               0.000000000               0.000000000               0.000000000              -0.000518722               0.006237057              -0.000719501              -0.000974151               0.002403715               0.001429565               0.000000000               0.000000000               0.000000000               0.000000000              -0.000334207               0.005977888              -0.000593215              -0.000872562               0.002283463               0.001410902               0.000000000               0.000000000               0.000000000               0.000000000              -0.000196825               0.005730003              -0.000456308              -0.000790058               0.002173335               0.001383277               0.000000000               0.000000000               0.000000000               0.000000000              -0.000107814               0.005497476              -0.000314814              -0.000727613               0.002075011               0.001347398               0.000000000               0.000000000               0.000000000               0.000000000              -0.000080875               0.005293847              -0.000184255              -0.000692057               0.001995284               0.001303227               0.000000000               0.000000000               0.000000000               0.000000000              -0.000121575               0.005128770              -0.000077394              -0.000686685               0.001938468               0.001251783               0.000000000               0.000000000               0.000000000               0.000000000              -0.000175732               0.005044566              -0.000024668              -0.000696469               0.001913661               0.001217193               0.000000000               0.000000000               0.000000000               0.000000000              -0.003587949               0.001551928              -0.000313083              -0.001539469               0.001030459              -0.000509010               0.000000000               0.000000000               0.000000000               0.000000000              -0.003057304               0.003371789              -0.001436529              -0.001567960               0.001646571               0.000078611               0.000000000               0.000000000               0.000000000               0.000000000              -0.002998277               0.005202362              -0.002299807              -0.001774646               0.002325651               0.000551005               0.000000000               0.000000000               0.000000000               0.000000000              -0.002690909               0.006108526              -0.002306503              -0.001772653               0.002627038               0.000854385               0.000000000               0.000000000               0.000000000               0.000000000              -0.002322586               0.006532716              -0.002096271              -0.001687556               0.002740068               0.001052512               0.000000000               0.000000000               0.000000000               0.000000000              -0.001955492               0.006703723              -0.001854095              -0.001571272               0.002758309               0.001187037               0.000000000               0.000000000               0.000000000               0.000000000              -0.001608715               0.006719834              -0.001625548              -0.001443244               0.002721003               0.001277759               0.000000000               0.000000000               0.000000000               0.000000000              -0.001284742               0.006637318              -0.001428923              -0.001311440               0.002649564               0.001338123               0.000000000               0.000000000               0.000000000               0.000000000              -0.000982120               0.006495620              -0.001264018              -0.001180245               0.002558600               0.001378355               0.000000000               0.000000000               0.000000000               0.000000000              -0.000703447               0.006324436              -0.001118535              -0.001054345               0.002459572               0.001405227               0.000000000               0.000000000               0.000000000               0.000000000              -0.000454791               0.006135004              -0.000980330              -0.000937420               0.002357454               0.001420034               0.000000000               0.000000000               0.000000000               0.000000000              -0.000244163               0.005935120              -0.000837885              -0.000833449               0.002256170               0.001422721               0.000000000               0.000000000               0.000000000               0.000000000              -0.000079001               0.005729458              -0.000682748              -0.000745806               0.002158402               0.001412596               0.000000000               0.000000000               0.000000000               0.000000000               0.000037374               0.005522896              -0.000513463              -0.000676345               0.002066395               0.001390050               0.000000000               0.000000000               0.000000000               0.000000000               0.000094637               0.005326081              -0.000336372              -0.000630270               0.001985432               0.001355163               0.000000000               0.000000000               0.000000000               0.000000000               0.000076601               0.005151494              -0.000162939              -0.000615210               0.001922218               0.001307008               0.000000000               0.000000000               0.000000000               0.000000000               0.000021985               0.005057783              -0.000070689              -0.000623977               0.001893903               0.001269926               0.000000000               0.000000000               0.000000000               0.000000000              -0.005262494               0.000520368               0.000253869              -0.002038479               0.000852943              -0.001185536               0.000000000               0.000000000               0.000000000               0.000000000              -0.003867794               0.002135045              -0.001083564              -0.001717301               0.001284106              -0.000433195               0.000000000               0.000000000               0.000000000               0.000000000              -0.003111041               0.003734576              -0.002203742              -0.001633459               0.001789331               0.000155872               0.000000000               0.000000000               0.000000000               0.000000000              -0.002580844               0.004740604              -0.002370527              -0.001560389               0.002100314               0.000539925               0.000000000               0.000000000               0.000000000               0.000000000              -0.002153394               0.005359690              -0.002243159              -0.001477481               0.002279038               0.000801557               0.000000000               0.000000000               0.000000000               0.000000000              -0.001780550               0.005730672              -0.002037279              -0.001384038               0.002371550               0.000987512               0.000000000               0.000000000               0.000000000               0.000000000              -0.001442776               0.005933288              -0.001818275              -0.001282699               0.002405309               0.001122609               0.000000000               0.000000000               0.000000000               0.000000000              -0.001128439               0.006022556              -0.001618631              -0.001175982               0.002399492               0.001223510               0.000000000               0.000000000               0.000000000               0.000000000              -0.000834172               0.006027652              -0.001447316              -0.001066269               0.002364620               0.001298351               0.000000000               0.000000000               0.000000000               0.000000000              -0.000555651               0.005977947              -0.001297031              -0.000955611               0.002311166               0.001355555               0.000000000               0.000000000               0.000000000               0.000000000              -0.000294788               0.005890224              -0.001155313              -0.000846822               0.002245662               0.001398840               0.000000000               0.000000000               0.000000000               0.000000000              -0.000058978               0.005772822              -0.001009432              -0.000743718               0.002172160               0.001428442               0.000000000               0.000000000               0.000000000               0.000000000               0.000146125               0.005631729              -0.000850570              -0.000649168               0.002093613               0.001444445               0.000000000               0.000000000               0.000000000               0.000000000               0.000313568               0.005477801              -0.000671825              -0.000567136               0.002014961               0.001447825               0.000000000               0.000000000               0.000000000               0.000000000               0.000432962               0.005316795              -0.000471960              -0.000502237               0.001939660               0.001437422               0.000000000               0.000000000               0.000000000               0.000000000               0.000486793               0.005156344              -0.000247695              -0.000461995               0.001872762               0.001410768               0.000000000               0.000000000               0.000000000               0.000000000               0.000484066               0.005072663              -0.000125586              -0.000452557               0.001841723               0.001389166               0.000000000               0.000000000               0.000000000               0.000000000              -0.006878945              -0.000152812               0.000569049              -0.002560501               0.000802557              -0.001757943               0.000000000               0.000000000               0.000000000               0.000000000              -0.004682719               0.001131644              -0.000734983              -0.001897473               0.001009698              -0.000887774               0.000000000               0.000000000               0.000000000               0.000000000              -0.003217162               0.002373510              -0.001886183              -0.001503122               0.001292201              -0.000210921               0.000000000               0.000000000               0.000000000               0.000000000              -0.002416543               0.003375082              -0.002150001              -0.001328087               0.001567711               0.000239624               0.000000000               0.000000000               0.000000000               0.000000000              -0.001891711               0.004124462              -0.002102822              -0.001224948               0.001783122               0.000558174               0.000000000               0.000000000               0.000000000               0.000000000              -0.001498722               0.004655338              -0.001954272              -0.001143936               0.001933075               0.000789139               0.000000000               0.000000000               0.000000000               0.000000000              -0.001170130               0.005016377              -0.001776965              -0.001065844               0.002027390               0.000961546               0.000000000               0.000000000               0.000000000               0.000000000              -0.000872892               0.005259280              -0.001603060              -0.000984743               0.002081323               0.001096580               0.000000000               0.000000000               0.000000000               0.000000000              -0.000596903               0.005410862              -0.001445477              -0.000900195               0.002103667               0.001203472               0.000000000               0.000000000               0.000000000               0.000000000              -0.000327763               0.005493746              -0.001306470              -0.000809628               0.002101106               0.001291478               0.000000000               0.000000000               0.000000000               0.000000000              -0.000063180               0.005520439              -0.001174658              -0.000713746               0.002078043               0.001364297               0.000000000               0.000000000               0.000000000               0.000000000               0.000195274               0.005501876              -0.001039136              -0.000614506               0.002038775               0.001424270               0.000000000               0.000000000               0.000000000               0.000000000               0.000444529               0.005447011              -0.000892497              -0.000514177               0.001987044               0.001472867               0.000000000               0.000000000               0.000000000               0.000000000               0.000683081               0.005362915              -0.000726075              -0.000414208               0.001925690               0.001511481               0.000000000               0.000000000               0.000000000               0.000000000               0.000904117               0.005255455              -0.000532293              -0.000317887               0.001857763               0.001539876               0.000000000               0.000000000               0.000000000               0.000000000               0.001091840               0.005134758              -0.000292807              -0.000232404               0.001789037               0.001556633               0.000000000               0.000000000               0.000000000               0.000000000               0.001200804               0.005082136              -0.000163298              -0.000184965               0.001755683               0.001570718               0.000000000               0.000000000               0.000000000               0.000000000              -0.008248346              -0.000544590               0.000595953              -0.003025054               0.000826816              -0.002198238               0.000000000               0.000000000               0.000000000               0.000000000              -0.005391396               0.000397723              -0.000435366              -0.002071487               0.000823064              -0.001248423               0.000000000               0.000000000               0.000000000               0.000000000              -0.003310642               0.001273399              -0.001374416              -0.001400664               0.000891347              -0.000509316               0.000000000               0.000000000               0.000000000               0.000000000              -0.002244923               0.002206581              -0.001639161              -0.001117667               0.001108074              -0.000009593               0.000000000               0.000000000               0.000000000               0.000000000              -0.001611249               0.003011585              -0.001646089              -0.000980665               0.001330739               0.000350074               0.000000000               0.000000000               0.000000000               0.000000000              -0.001183422               0.003651035              -0.001557098              -0.000900161               0.001517053               0.000616891               0.000000000               0.000000000               0.000000000               0.000000000              -0.000855090               0.004136778              -0.001435510              -0.000837755               0.001658163               0.000820408               0.000000000               0.000000000               0.000000000               0.000000000              -0.000572681               0.004500946              -0.001308445              -0.000777372               0.001759424               0.000982052               0.000000000               0.000000000               0.000000000               0.000000000              -0.000313020               0.004768716              -0.001190324              -0.000713471               0.001827379               0.001113909               0.000000000               0.000000000               0.000000000               0.000000000              -0.000057844               0.004965680              -0.001083488              -0.000642400               0.001869343               0.001226943               0.000000000               0.000000000               0.000000000               0.000000000               0.000203238               0.005100027              -0.000980194              -0.000561288               0.001887088               0.001325800               0.000000000               0.000000000               0.000000000               0.000000000               0.000476500               0.005176063              -0.000872622              -0.000468320               0.001881444               0.001413124               0.000000000               0.000000000               0.000000000               0.000000000               0.000763980               0.005207395              -0.000756502              -0.000364431               0.001857258               0.001492827               0.000000000               0.000000000               0.000000000               0.000000000               0.001073041               0.005201825              -0.000628475              -0.000247837               0.001816537               0.001568699               0.000000000               0.000000000               0.000000000               0.000000000               0.001406773               0.005161394              -0.000473784              -0.000117634               0.001759659               0.001642024               0.000000000               0.000000000               0.000000000               0.000000000               0.001757153               0.005091318              -0.000266695               0.000022517               0.001689583               0.001712100               0.000000000               0.000000000               0.000000000               0.000000000               0.002009783               0.005076599              -0.000156396               0.000119092               0.001652485               0.001771578               0.000000000               0.000000000               0.000000000               0.000000000              -0.009172663              -0.000733184               0.000372138              -0.003348098               0.000871632              -0.002476466               0.000000000               0.000000000               0.000000000               0.000000000              -0.005878315              -0.000046445              -0.000198239              -0.002198561               0.000717367              -0.001481194               0.000000000               0.000000000               0.000000000               0.000000000              -0.003374121               0.000555783              -0.000725363              -0.001334767               0.000630179              -0.000704588               0.000000000               0.000000000               0.000000000               0.000000000              -0.002112596               0.001413850              -0.000888063              -0.000968953               0.000794262              -0.000174691               0.000000000               0.000000000               0.000000000               0.000000000              -0.001393806               0.002233107              -0.000906309              -0.000801814               0.001011633               0.000209819               0.000000000               0.000000000               0.000000000               0.000000000              -0.000935224               0.002930965              -0.000867698              -0.000717078               0.001216004               0.000498926               0.000000000               0.000000000               0.000000000               0.000000000              -0.000603878               0.003491917              -0.000807754              -0.000662943               0.001384941               0.000721999               0.000000000               0.000000000               0.000000000               0.000000000              -0.000328676               0.003934118              -0.000741091              -0.000615017               0.001516365               0.000901348               0.000000000               0.000000000               0.000000000               0.000000000              -0.000075409               0.004276464              -0.000677140              -0.000562835               0.001613085               0.001050250               0.000000000               0.000000000               0.000000000               0.000000000               0.000172686               0.004542792              -0.000619663              -0.000503091               0.001681946               0.001178855               0.000000000               0.000000000               0.000000000               0.000000000               0.000431540               0.004750581              -0.000563822              -0.000431994               0.001727509               0.001295515               0.000000000               0.000000000               0.000000000               0.000000000               0.000712433               0.004901036              -0.000503003              -0.000345467               0.001748818               0.001403351               0.000000000               0.000000000               0.000000000               0.000000000               0.001027167               0.004999470              -0.000437315              -0.000239746               0.001746389               0.001506643               0.000000000               0.000000000               0.000000000               0.000000000               0.001384269               0.005053651              -0.000368842              -0.000112606               0.001722069               0.001609463               0.000000000               0.000000000               0.000000000               0.000000000               0.001794340               0.005070270              -0.000282649               0.000039093               0.001677042               0.001716135               0.000000000               0.000000000               0.000000000               0.000000000               0.002272462               0.005048686              -0.000158940               0.000221085               0.001609184               0.001830269               0.000000000               0.000000000               0.000000000               0.000000000               0.002648025               0.005068272              -0.000094173               0.000359472               0.001569583               0.001929055               0.000000000               0.000000000               0.000000000               0.000000000               0.000000000               0.000000000               0.000000000               0.000000000               0.000000000               0.000000000               0.000000000               0.000000000               0.000000000               0.000000000               0.000000000               0.000000000               0.000000000               0.000000000               0.000000000               0.000000000               0.000000000               0.000000000               0.000000000               0.000000000               0.000000000               0.000000000               0.000000000               0.000000000               0.000000000               0.000000000               0.000000000               0.000000000               0.000000000               0.000000000               0.000000000               0.000000000               0.000000000               0.000000000               0.000000000               0.000000000               0.000000000               0.000000000               0.000000000               0.000000000               0.000000000               0.000000000               0.000000000               0.000000000               0.000000000               0.000000000               0.000000000               0.000000000               0.000000000               0.000000000               0.000000000               0.000000000               0.000000000               0.000000000               0.000000000               0.000000000               0.000000000               0.000000000               0.000000000               0.000000000               0.000000000               0.000000000               0.000000000               0.000000000               0.000000000               0.000000000               0.000000000               0.000000000               0.000000000               0.000000000               0.000000000               0.000000000               0.000000000               0.000000000               0.000000000               0.000000000               0.000000000               0.000000000               0.000000000               0.000000000               0.000000000               0.000000000               0.000000000               0.000000000               0.000000000               0.000000000               0.000000000               0.000000000               0.000000000               0.000000000               0.000000000               0.000000000               0.000000000               0.000000000               0.000000000               0.000000000               0.000000000               0.000000000               0.000000000               0.000000000               0.000000000               0.000000000               0.000000000               0.000000000               0.000000000               0.000000000               0.000000000               0.000000000               0.000000000               0.000000000               0.000000000               0.000000000               0.000000000               0.000000000               0.000000000               0.000000000               0.000000000               0.000000000               0.000000000               0.000000000               0.000000000               0.000000000               0.000000000               0.000000000               0.000000000               0.000000000               0.000000000               0.000000000               0.000000000               0.000000000               0.000000000               0.000000000               0.000000000               0.000000000               0.000000000               0.000000000               0.000000000               0.000000000               0.000000000               0.000000000               0.000000000               0.000000000               0.000000000               0.000000000               0.000000000               0.000000000               0.000000000               0.000000000               0.000000000               0.000000000               0.000000000               0.000000000               0.000000000               0.000000000               0.000000000               0.000000000               0.000000000               0.000000000               0.000000000               0.000000000               0.000000000               0.000000000               0.000000000               0.000000000               0.000000000               0.000000000               0.000000000               0.000000000               0.000000000               0.000000000               0.000000000               0.000000000               0.000000000               0.000000000               0.000000000               0.000000000               0.000000000               0.000000000               0.000000000               0.000000000               0.000000000               0.000000000               0.000000000               0.000000000               0.000000000               0.000000000               0.000000000               0.000000000               0.000000000               0.000000000               0.000000000               0.000000000               0.000000000               0.000000000               0.000000000               0.000000000               0.000000000               0.000000000               0.000000000               0.000000000               0.000000000               0.000000000               0.000000000               0.000000000               0.000000000               0.000000000               0.000000000               0.000000000               0.000000000               0.000000000               0.000000000               0.000000000               0.000000000               0.000000000               0.000000000               0.000000000               0.000000000               0.000000000               0.000000000               0.000000000               0.000000000               0.000000000               0.000000000               0.000000000               0.000000000               0.000000000               0.000000000               0.000000000               0.000000000               0.000000000               0.000000000               0.000000000               0.000000000               0.000000000               0.000000000               0.000000000               0.000000000               0.000000000               0.000000000               0.000000000               0.000000000               0.000000000               0.000000000               0.000000000               0.000000000               0.000000000               0.000000000               0.000000000               0.000000000               0.000000000               0.000000000               0.000000000               0.000000000               0.000000000               0.000000000               0.000000000               0.000000000               0.000000000               0.000000000               0.000000000               0.000000000               0.000000000               0.000000000               0.000000000               0.000000000               0.000000000               0.000000000               0.000000000               0.000000000               0.000000000               0.000000000               0.000000000               0.000000000               0.000000000               0.000000000               0.000000000               0.000000000               0.000000000               0.000000000               0.000000000               0.000000000               0.000000000               0.000000000               0.000000000               0.000000000               0.000000000               0.000000000               0.000000000               0.000000000               0.000000000               0.000000000               0.000000000               0.000000000               0.000000000               0.000000000               0.000000000               0.000000000               0.000000000               0.000000000               0.000000000               0.000000000               0.000000000               0.000000000               0.000000000               0.000000000               0.000000000               0.000000000               0.000000000               0.000000000               0.000000000               0.000000000               0.000000000               0.000000000               0.000000000               0.000000000               0.000000000               0.000000000               0.000000000               0.000000000               0.000000000               0.000000000               0.000000000               0.000000000               0.000000000               0.000000000               0.000000000               0.000000000               0.000000000               0.000000000               0.000000000               0.000000000               0.000000000               0.000000000               0.000000000               0.000000000               0.000000000               0.000000000               0.000000000               0.000000000               0.000000000               0.002092645               0.021529108               0.001510264              -0.001906392               0.007811761               0.005905369               0.000000000               0.000000000               0.000000000               0.000000000               0.001989430               0.016981834               0.000769422              -0.001376690               0.006119451               0.004742762               0.000000000               0.000000000               0.000000000               0.000000000               0.002531149               0.013348079               0.000028968              -0.000719327               0.004689091               0.003969764               0.000000000               0.000000000               0.000000000               0.000000000               0.002403525               0.011315768              -0.000287846              -0.000513148               0.003942934               0.003429786               0.000000000               0.000000000               0.000000000               0.000000000               0.002080206               0.010051798              -0.000417566              -0.000476396               0.003509365               0.003032968               0.000000000               0.000000000               0.000000000               0.000000000               0.001723262               0.009180910              -0.000456197              -0.000501389               0.003227402               0.002726013               0.000000000               0.000000000               0.000000000               0.000000000               0.001391731               0.008520737              -0.000454642              -0.000543192               0.003021281               0.002478090               0.000000000               0.000000000               0.000000000               0.000000000               0.001102471               0.007984514              -0.000442022              -0.000584636               0.002856357               0.002271721               0.000000000               0.000000000               0.000000000               0.000000000               0.000856648               0.007527847              -0.000422396              -0.000619736               0.002715836               0.002096100               0.000000000               0.000000000               0.000000000               0.000000000               0.000646595               0.007114676              -0.000398669              -0.000646860               0.002587155               0.001940295               0.000000000               0.000000000               0.000000000               0.000000000               0.000465349               0.006725017              -0.000377251              -0.000666120               0.002463690               0.001797570               0.000000000               0.000000000               0.000000000               0.000000000               0.000311547               0.006344995              -0.000354182              -0.000676293               0.002340408               0.001664115               0.000000000               0.000000000               0.000000000               0.000000000               0.000190505               0.005961261              -0.000323259              -0.000673717               0.002211639               0.001537923               0.000000000               0.000000000               0.000000000               0.000000000               0.000102709               0.005563210              -0.000280345              -0.000656884               0.002073346               0.001416462               0.000000000               0.000000000               0.000000000               0.000000000               0.000039523               0.005136809              -0.000220812              -0.000627278               0.001921345               0.001294067               0.000000000               0.000000000               0.000000000               0.000000000               0.000007903               0.004670117              -0.000129877              -0.000580800               0.001750290               0.001169490               0.000000000               0.000000000               0.000000000               0.000000000              -0.000034347               0.004321105              -0.000080252              -0.000553017               0.001624693               0.001071676               0.000000000               0.000000000               0.000000000               0.000000000               0.002283765               0.020263879               0.002814695              -0.001676570               0.007313415               0.005636845               0.000000000               0.000000000               0.000000000               0.000000000               0.001879882               0.016163110               0.001431049              -0.001315430               0.005826126               0.004510696               0.000000000               0.000000000               0.000000000               0.000000000               0.002101808               0.012995581               0.000062025              -0.000836268               0.004610573               0.003774305               0.000000000               0.000000000               0.000000000               0.000000000               0.001855684               0.011199394              -0.000499955              -0.000704041               0.003967774               0.003263733               0.000000000               0.000000000               0.000000000               0.000000000               0.001508252               0.010050316              -0.000720072              -0.000690693               0.003580303               0.002889610               0.000000000               0.000000000               0.000000000               0.000000000               0.001176222               0.009238257              -0.000782555              -0.000713697               0.003317287               0.002603590               0.000000000               0.000000000               0.000000000               0.000000000               0.000892459               0.008612664              -0.000775962              -0.000741909               0.003118162               0.002376253               0.000000000               0.000000000               0.000000000               0.000000000               0.000661893               0.008096724              -0.000749705              -0.000763879               0.002953507               0.002189628               0.000000000               0.000000000               0.000000000               0.000000000               0.000481852               0.007649332              -0.000715098              -0.000775470               0.002808242               0.002032772               0.000000000               0.000000000               0.000000000               0.000000000               0.000337279               0.007244382              -0.000673947              -0.000779066               0.002674459               0.001895392               0.000000000               0.000000000               0.000000000               0.000000000               0.000217720               0.006864567              -0.000632528              -0.000776424               0.002546974               0.001770550               0.000000000               0.000000000               0.000000000               0.000000000               0.000125998               0.006498476              -0.000584735              -0.000765058               0.002421156               0.001656098               0.000000000               0.000000000               0.000000000               0.000000000               0.000059905               0.006139006              -0.000525248              -0.000744910               0.002294618               0.001549708               0.000000000               0.000000000               0.000000000               0.000000000               0.000018214               0.005786966              -0.000449724              -0.000716539               0.002167816               0.001451277               0.000000000               0.000000000               0.000000000               0.000000000              -0.000005530               0.005441696              -0.000348574              -0.000682284               0.002041309               0.001359025               0.000000000               0.000000000               0.000000000               0.000000000              -0.000011653               0.005102490              -0.000200522              -0.000642180               0.001914873               0.001272693               0.000000000               0.000000000               0.000000000               0.000000000              -0.000031367               0.004873161              -0.000119233              -0.000620906               0.001831340               0.001210433               0.000000000               0.000000000               0.000000000               0.000000000               0.002487737               0.018336689               0.003748113              -0.001359184               0.006565229               0.005206045               0.000000000               0.000000000               0.000000000               0.000000000               0.001660034               0.014933934               0.001912751              -0.001244227               0.005392670               0.004148443               0.000000000               0.000000000               0.000000000               0.000000000               0.001432399               0.012469022               0.000125350              -0.001021475               0.004496791               0.003475315               0.000000000               0.000000000               0.000000000               0.000000000               0.001051216               0.011008126              -0.000570469              -0.000981807               0.003996608               0.003014801               0.000000000               0.000000000               0.000000000               0.000000000               0.000708483               0.010021396              -0.000832222              -0.000986991               0.003669429               0.002682438               0.000000000               0.000000000               0.000000000               0.000000000               0.000440533               0.009292088              -0.000900960              -0.000996309               0.003429435               0.002433126               0.000000000               0.000000000               0.000000000               0.000000000               0.000240967               0.008711661              -0.000886703              -0.000998593               0.003236722               0.002238129               0.000000000               0.000000000               0.000000000               0.000000000               0.000102766               0.008223119              -0.000846928              -0.000989350               0.003070796               0.002081445               0.000000000               0.000000000               0.000000000               0.000000000               0.000010594               0.007786275              -0.000798495              -0.000969309               0.002918502               0.001949193               0.000000000               0.000000000               0.000000000               0.000000000              -0.000053356               0.007385075              -0.000743702              -0.000943141               0.002776047               0.001832907               0.000000000               0.000000000               0.000000000               0.000000000              -0.000095116               0.007009507              -0.000687090              -0.000911855               0.002640431               0.001728576               0.000000000               0.000000000               0.000000000               0.000000000              -0.000112911               0.006655906              -0.000621809              -0.000874328               0.002510056               0.001635728               0.000000000               0.000000000               0.000000000               0.000000000              -0.000114301               0.006322149              -0.000544161              -0.000833130               0.002385072               0.001551942               0.000000000               0.000000000               0.000000000               0.000000000              -0.000100925               0.006014201              -0.000453305              -0.000789620               0.002267920               0.001478300               0.000000000               0.000000000               0.000000000               0.000000000              -0.000076264               0.005739104              -0.000340217              -0.000745985               0.002161677               0.001415692               0.000000000               0.000000000               0.000000000               0.000000000              -0.000043480               0.005503704              -0.000188367              -0.000704266               0.002069305               0.001365039               0.000000000               0.000000000               0.000000000               0.000000000              -0.000037426               0.005367824              -0.000107932              -0.000685011               0.002017594               0.001332583               0.000000000               0.000000000               0.000000000               0.000000000               0.002568569               0.015969815               0.004237165              -0.001033014               0.005667556               0.004634541               0.000000000               0.000000000               0.000000000               0.000000000               0.001296413               0.013456066               0.002197507              -0.001195852               0.004883927               0.003688076               0.000000000               0.000000000               0.000000000               0.000000000               0.000601355               0.011834927               0.000240456              -0.001253854               0.004362888               0.003109033               0.000000000               0.000000000               0.000000000               0.000000000               0.000136611               0.010746268              -0.000476032              -0.001292051               0.004012737               0.002720686               0.000000000               0.000000000               0.000000000               0.000000000              -0.000152352               0.009933821              -0.000730927              -0.001298856               0.003744192               0.002445336               0.000000000               0.000000000               0.000000000               0.000000000              -0.000317532               0.009290205              -0.000793503              -0.001280347               0.003523486               0.002243139               0.000000000               0.000000000               0.000000000               0.000000000              -0.000400471               0.008750368              -0.000775824              -0.001243970               0.003331417               0.002087447               0.000000000               0.000000000               0.000000000               0.000000000              -0.000431702               0.008273957              -0.000731712              -0.001196130               0.003156668               0.001960538               0.000000000               0.000000000               0.000000000               0.000000000              -0.000429260               0.007835843              -0.000680054              -0.001140450               0.002992072               0.001851621               0.000000000               0.000000000               0.000000000               0.000000000              -0.000406594               0.007427519              -0.000627016              -0.001080910               0.002836118               0.001755208               0.000000000               0.000000000               0.000000000               0.000000000              -0.000371141               0.007051224              -0.000573004              -0.001020578               0.002690577               0.001669999               0.000000000               0.000000000               0.000000000               0.000000000              -0.000325930               0.006708202              -0.000508512              -0.000960747               0.002556294               0.001595547               0.000000000               0.000000000               0.000000000               0.000000000              -0.000275611               0.006399662              -0.000432037              -0.000903310               0.002434303               0.001530993               0.000000000               0.000000000               0.000000000               0.000000000              -0.000217016               0.006128578              -0.000348200              -0.000847451               0.002325323               0.001477872               0.000000000               0.000000000               0.000000000               0.000000000              -0.000146974               0.005896873              -0.000251155              -0.000792222               0.002229679               0.001437456               0.000000000               0.000000000               0.000000000               0.000000000              -0.000074096               0.005712971              -0.000134090              -0.000741906               0.002151607               0.001409701               0.000000000               0.000000000               0.000000000               0.000000000              -0.000049648               0.005615557              -0.000077597              -0.000720561               0.002112020               0.001391460               0.000000000               0.000000000               0.000000000               0.000000000               0.002415737               0.013412425               0.004288660              -0.000770654               0.004727647               0.003956993               0.000000000               0.000000000               0.000000000               0.000000000               0.000793386               0.011890099               0.002308415              -0.001188741               0.004359573               0.003170832               0.000000000               0.000000000               0.000000000               0.000000000              -0.000287558               0.011145486               0.000429046              -0.001501016               0.004215464               0.002714447               0.000000000               0.000000000               0.000000000               0.000000000              -0.000755954               0.010414616              -0.000219346              -0.001585306               0.003999939               0.002414633               0.000000000               0.000000000               0.000000000               0.000000000              -0.000930166               0.009765686              -0.000447456              -0.001569519               0.003778369               0.002208850               0.000000000               0.000000000               0.000000000               0.000000000              -0.000958175               0.009189564              -0.000511883              -0.001508007               0.003565826               0.002057819               0.000000000               0.000000000               0.000000000               0.000000000              -0.000914841               0.008667448              -0.000504619              -0.001426493               0.003364618               0.001938125               0.000000000               0.000000000               0.000000000               0.000000000              -0.000837951               0.008185833              -0.000473362              -0.001337458               0.003174403               0.001836945               0.000000000               0.000000000               0.000000000               0.000000000              -0.000744780               0.007738162              -0.000433704              -0.001246560               0.002994881               0.001748322               0.000000000               0.000000000               0.000000000               0.000000000              -0.000646106               0.007321912              -0.000396610              -0.001157526               0.002826455               0.001668929               0.000000000               0.000000000               0.000000000               0.000000000              -0.000547065               0.006945326              -0.000362529              -0.001073312               0.002672856               0.001599544               0.000000000               0.000000000               0.000000000               0.000000000              -0.000452509               0.006612012              -0.000321630              -0.000996190               0.002536045               0.001539855               0.000000000               0.000000000               0.000000000               0.000000000              -0.000359264               0.006325278              -0.000271006              -0.000925381               0.002416865               0.001491484               0.000000000               0.000000000               0.000000000               0.000000000              -0.000263420               0.006080748              -0.000211825              -0.000858874               0.002313187               0.001454313               0.000000000               0.000000000               0.000000000               0.000000000              -0.000165033               0.005876732              -0.000144563              -0.000796477               0.002224384               0.001427907               0.000000000               0.000000000               0.000000000               0.000000000              -0.000076458               0.005724415              -0.000073003              -0.000744222               0.002156193               0.001411972               0.000000000               0.000000000               0.000000000               0.000000000              -0.000047176               0.005647678              -0.000043202              -0.000723649               0.002123757               0.001400108               0.000000000               0.000000000               0.000000000               0.000000000               0.001963979               0.010874035               0.003975094              -0.000622765               0.003832229               0.003209464               0.000000000               0.000000000               0.000000000               0.000000000               0.000174969               0.010356960               0.002296553              -0.001229005               0.003861953               0.002632948               0.000000000               0.000000000               0.000000000               0.000000000              -0.001129387               0.010435918               0.000698545              -0.001728006               0.004054606               0.002326601               0.000000000               0.000000000               0.000000000               0.000000000              -0.001502902               0.010014303               0.000154378              -0.001815371               0.003943191               0.002127820               0.000000000               0.000000000               0.000000000               0.000000000              -0.001528996               0.009490436              -0.000054878              -0.001759674               0.003750005               0.001990331               0.000000000               0.000000000               0.000000000               0.000000000              -0.001417484               0.008957078              -0.000132966              -0.001651187               0.003536059               0.001884871               0.000000000               0.000000000               0.000000000               0.000000000              -0.001254286               0.008440810              -0.000152043              -0.001525455               0.003322060               0.001796605               0.000000000               0.000000000               0.000000000               0.000000000              -0.001079317               0.007952213              -0.000149996              -0.001398767               0.003116967               0.001718200               0.000000000               0.000000000               0.000000000               0.000000000              -0.000905746               0.007499353              -0.000141061              -0.001277071               0.002925450               0.001648379               0.000000000               0.000000000               0.000000000               0.000000000              -0.000744305               0.007088048              -0.000135105              -0.001165118               0.002751032               0.001585914               0.000000000               0.000000000               0.000000000               0.000000000              -0.000597823               0.006721664              -0.000136248              -0.001064389               0.002595328               0.001530940               0.000000000               0.000000000               0.000000000               0.000000000              -0.000463027               0.006402886              -0.000133396              -0.000973994               0.002458939               0.001484945               0.000000000               0.000000000               0.000000000               0.000000000              -0.000339140               0.006128423              -0.000118781              -0.000893228               0.002340530               0.001447302               0.000000000               0.000000000               0.000000000               0.000000000              -0.000226254               0.005896263              -0.000091423              -0.000821876               0.002239360               0.001417484               0.000000000               0.000000000               0.000000000               0.000000000              -0.000127756               0.005713201              -0.000058100              -0.000762057               0.002158400               0.001396344               0.000000000               0.000000000               0.000000000               0.000000000              -0.000054052               0.005584960              -0.000028297              -0.000718388               0.002101097               0.001382710               0.000000000               0.000000000               0.000000000               0.000000000              -0.000033974               0.005521488              -0.000020015              -0.000702924               0.002074786               0.001371861               0.000000000               0.000000000               0.000000000               0.000000000               0.001244328               0.008510553               0.003391391              -0.000597198               0.003035887               0.002438690               0.000000000               0.000000000               0.000000000               0.000000000              -0.000516230               0.008950800               0.002206545              -0.001312434               0.003421048               0.002108613               0.000000000               0.000000000               0.000000000               0.000000000              -0.001838345               0.009718233               0.001034412              -0.001904154               0.003874096               0.001969943               0.000000000               0.000000000               0.000000000               0.000000000              -0.002039136               0.009526900               0.000588842              -0.001955534               0.003827446               0.001871913               0.000000000               0.000000000               0.000000000               0.000000000              -0.001906623               0.009094531               0.000376707              -0.001851796               0.003648745               0.001796950               0.000000000               0.000000000               0.000000000               0.000000000              -0.001669569               0.008598405               0.000266689              -0.001700885               0.003433068               0.001732183               0.000000000               0.000000000               0.000000000               0.000000000              -0.001406034               0.008093927               0.000205830              -0.001539000               0.003210949               0.001671949               0.000000000               0.000000000               0.000000000               0.000000000              -0.001153198               0.007612992               0.000163576              -0.001384070               0.002998995               0.001614926               0.000000000               0.000000000               0.000000000               0.000000000              -0.000921545               0.007169589               0.000127149              -0.001241775               0.002803764               0.001561989               0.000000000               0.000000000               0.000000000               0.000000000              -0.000716651               0.006773352               0.000090968              -0.001115410               0.002629565               0.001514155               0.000000000               0.000000000               0.000000000               0.000000000              -0.000541149               0.006423212               0.000050880              -0.001005830               0.002476326               0.001470496               0.000000000               0.000000000               0.000000000               0.000000000              -0.000390305               0.006114924               0.000017410              -0.000910728               0.002341864               0.001431136               0.000000000               0.000000000               0.000000000               0.000000000              -0.000258884               0.005847957              -0.000001862              -0.000828074               0.002225324               0.001397250               0.000000000               0.000000000               0.000000000               0.000000000              -0.000153777               0.005628984              -0.000008550              -0.000761288               0.002130072               0.001368784               0.000000000               0.000000000               0.000000000               0.000000000              -0.000080187               0.005467458              -0.000007980              -0.000713501               0.002060301               0.001346801               0.000000000               0.000000000               0.000000000               0.000000000              -0.000034810               0.005358465              -0.000006455              -0.000682860               0.002013757               0.001330897               0.000000000               0.000000000               0.000000000               0.000000000              -0.000024136               0.005303259              -0.000009738              -0.000671957               0.001991721               0.001319764               0.000000000               0.000000000               0.000000000               0.000000000               0.000373642               0.006506625               0.002644723              -0.000673213               0.002393257               0.001720044               0.000000000               0.000000000               0.000000000               0.000000000              -0.001179426               0.007698168               0.002086268              -0.001404554               0.003034214               0.001629661               0.000000000               0.000000000               0.000000000               0.000000000              -0.002371913               0.008999107               0.001427603              -0.002014351               0.003671122               0.001656772               0.000000000               0.000000000               0.000000000               0.000000000              -0.002389419               0.009034009               0.001046386              -0.002025278               0.003686399               0.001661121               0.000000000               0.000000000               0.000000000               0.000000000              -0.002128124               0.008718399               0.000810941              -0.001887842               0.003535384               0.001647543               0.000000000               0.000000000               0.000000000               0.000000000              -0.001798838               0.008282968               0.000657299              -0.001709931               0.003330939               0.001621008               0.000000000               0.000000000               0.000000000               0.000000000              -0.001461931               0.007819197               0.000547053              -0.001525620               0.003114913               0.001589293               0.000000000               0.000000000               0.000000000               0.000000000              -0.001151223               0.007365459               0.000455043              -0.001352388               0.002905924               0.001553537               0.000000000               0.000000000               0.000000000               0.000000000              -0.000878488               0.006942639               0.000373496              -0.001197260               0.002713276               0.001516017               0.000000000               0.000000000               0.000000000               0.000000000              -0.000643553               0.006564022               0.000298088              -0.001061833               0.002541930               0.001480097               0.000000000               0.000000000               0.000000000               0.000000000              -0.000447761               0.006228276               0.000226009              -0.000946442               0.002391552               0.001445110               0.000000000               0.000000000               0.000000000               0.000000000              -0.000289387               0.005924008               0.000160048              -0.000849019               0.002257656               0.001408637               0.000000000               0.000000000               0.000000000               0.000000000              -0.000168686               0.005654791               0.000101071              -0.000770104               0.002141613               0.001371509               0.000000000               0.000000000               0.000000000               0.000000000              -0.000100747               0.005435295               0.000053068              -0.000717190               0.002050810               0.001333620               0.000000000               0.000000000               0.000000000               0.000000000              -0.000077855               0.005276265               0.000021166              -0.000688727               0.001988313               0.001299586               0.000000000               0.000000000               0.000000000               0.000000000              -0.000074330               0.005168338               0.000003087              -0.000673914               0.001947400               0.001273486               0.000000000               0.000000000               0.000000000               0.000000000              -0.000075309               0.005116491              -0.000004722              -0.000667801               0.001928080               0.001260280               0.000000000               0.000000000               0.000000000               0.000000000              -0.000662218               0.004639813               0.001843941              -0.000828308               0.001822691               0.000994383               0.000000000               0.000000000               0.000000000               0.000000000              -0.001716659               0.006238601               0.001948450              -0.001423570               0.002554036               0.001130466               0.000000000               0.000000000               0.000000000               0.000000000              -0.002659590               0.007910020               0.001846240              -0.001986094               0.003298678               0.001312584               0.000000000               0.000000000               0.000000000               0.000000000              -0.002583705               0.008280135               0.001536817              -0.002003902               0.003427984               0.001424083               0.000000000               0.000000000               0.000000000               0.000000000              -0.002272543               0.008192745               0.001274559              -0.001876293               0.003356319               0.001480026               0.000000000               0.000000000               0.000000000               0.000000000              -0.001915586               0.007927053               0.001070480              -0.001709222               0.003212065               0.001502843               0.000000000               0.000000000               0.000000000               0.000000000              -0.001562657               0.007588492               0.000907841              -0.001534554               0.003040990               0.001506436               0.000000000               0.000000000               0.000000000               0.000000000              -0.001239870               0.007219008               0.000770310              -0.001367324               0.002862086               0.001494762               0.000000000               0.000000000               0.000000000               0.000000000              -0.000951212               0.006858543               0.000651294              -0.001214020               0.002690831               0.001476812               0.000000000               0.000000000               0.000000000               0.000000000              -0.000699948               0.006520644               0.000544836              -0.001077558               0.002532712               0.001455154               0.000000000               0.000000000               0.000000000               0.000000000              -0.000489220               0.006210824               0.000444352              -0.000959808               0.002390190               0.001430382               0.000000000               0.000000000               0.000000000               0.000000000              -0.000323595               0.005921155               0.000345034              -0.000861490               0.002260862               0.001399371               0.000000000               0.000000000               0.000000000               0.000000000              -0.000202342               0.005654984               0.000240777              -0.000782749               0.002145892               0.001363143               0.000000000               0.000000000               0.000000000               0.000000000              -0.000133452               0.005422789               0.000143161              -0.000727891               0.002050209               0.001322317               0.000000000               0.000000000               0.000000000               0.000000000              -0.000119238               0.005239179               0.000069682              -0.000699610               0.001979579               0.001279969               0.000000000               0.000000000               0.000000000               0.000000000              -0.000144102               0.005103122               0.000021307              -0.000691927               0.001931666               0.001239739               0.000000000               0.000000000               0.000000000               0.000000000              -0.000167706               0.005038665               0.000000375              -0.000692721               0.001910445               0.001217724               0.000000000               0.000000000               0.000000000               0.000000000              -0.002014181               0.002948428               0.001044802              -0.001123869               0.001357422               0.000233553               0.000000000               0.000000000               0.000000000               0.000000000              -0.002325038               0.004766491               0.001738997              -0.001467698               0.002078046               0.000610349               0.000000000               0.000000000               0.000000000               0.000000000              -0.002856786               0.006635522               0.002172594              -0.001900731               0.002845395               0.000944664               0.000000000               0.000000000               0.000000000               0.000000000              -0.002698316               0.007324084               0.002000678              -0.001927375               0.003083795               0.001156420               0.000000000               0.000000000               0.000000000               0.000000000              -0.002362633               0.007501921               0.001740405              -0.001823723               0.003108523               0.001284799               0.000000000               0.000000000               0.000000000               0.000000000              -0.002001258               0.007448987               0.001501091              -0.001681591               0.003043501               0.001361910               0.000000000               0.000000000               0.000000000               0.000000000              -0.001647853               0.007276624               0.001294645              -0.001527519               0.002934690               0.001407171               0.000000000               0.000000000               0.000000000               0.000000000              -0.001319560               0.007035844               0.001121296              -0.001374313               0.002803362               0.001429049               0.000000000               0.000000000               0.000000000               0.000000000              -0.001018243               0.006770948               0.000974584              -0.001228207               0.002666362               0.001438155               0.000000000               0.000000000               0.000000000               0.000000000              -0.000749418               0.006502406               0.000843670              -0.001093830               0.002532057               0.001438227               0.000000000               0.000000000               0.000000000               0.000000000              -0.000518722               0.006237057               0.000719501              -0.000974151               0.002403715               0.001429565               0.000000000               0.000000000               0.000000000               0.000000000              -0.000334207               0.005977888               0.000593215              -0.000872562               0.002283463               0.001410902               0.000000000               0.000000000               0.000000000               0.000000000              -0.000196825               0.005730003               0.000456308              -0.000790058               0.002173335               0.001383277               0.000000000               0.000000000               0.000000000               0.000000000              -0.000107814               0.005497476               0.000314814              -0.000727613               0.002075011               0.001347398               0.000000000               0.000000000               0.000000000               0.000000000              -0.000080875               0.005293847               0.000184255              -0.000692057               0.001995284               0.001303227               0.000000000               0.000000000               0.000000000               0.000000000              -0.000121575               0.005128770               0.000077394              -0.000686685               0.001938468               0.001251783               0.000000000               0.000000000               0.000000000               0.000000000              -0.000175732               0.005044566               0.000024668              -0.000696469               0.001913661               0.001217193               0.000000000               0.000000000               0.000000000               0.000000000              -0.003587949               0.001551928               0.000313083              -0.001539469               0.001030459              -0.000509010               0.000000000               0.000000000               0.000000000               0.000000000              -0.003057304               0.003371789               0.001436529              -0.001567960               0.001646571               0.000078611               0.000000000               0.000000000               0.000000000               0.000000000              -0.002998277               0.005202362               0.002299807              -0.001774646               0.002325651               0.000551005               0.000000000               0.000000000               0.000000000               0.000000000              -0.002690909               0.006108526               0.002306503              -0.001772653               0.002627038               0.000854385               0.000000000               0.000000000               0.000000000               0.000000000              -0.002322586               0.006532716               0.002096271              -0.001687556               0.002740068               0.001052512               0.000000000               0.000000000               0.000000000               0.000000000              -0.001955492               0.006703723               0.001854095              -0.001571272               0.002758309               0.001187037               0.000000000               0.000000000               0.000000000               0.000000000              -0.001608715               0.006719834               0.001625548              -0.001443244               0.002721003               0.001277759               0.000000000               0.000000000               0.000000000               0.000000000              -0.001284742               0.006637318               0.001428923              -0.001311440               0.002649564               0.001338123               0.000000000               0.000000000               0.000000000               0.000000000              -0.000982120               0.006495620               0.001264018              -0.001180245               0.002558600               0.001378355               0.000000000               0.000000000               0.000000000               0.000000000              -0.000703447               0.006324436               0.001118535              -0.001054345               0.002459572               0.001405227               0.000000000               0.000000000               0.000000000               0.000000000              -0.000454791               0.006135004               0.000980330              -0.000937420               0.002357454               0.001420034               0.000000000               0.000000000               0.000000000               0.000000000              -0.000244163               0.005935120               0.000837885              -0.000833449               0.002256170               0.001422721               0.000000000               0.000000000               0.000000000               0.000000000              -0.000079001               0.005729458               0.000682748              -0.000745806               0.002158402               0.001412596               0.000000000               0.000000000               0.000000000               0.000000000               0.000037374               0.005522896               0.000513463              -0.000676345               0.002066395               0.001390050               0.000000000               0.000000000               0.000000000               0.000000000               0.000094637               0.005326081               0.000336372              -0.000630270               0.001985432               0.001355163               0.000000000               0.000000000               0.000000000               0.000000000               0.000076601               0.005151494               0.000162939              -0.000615210               0.001922218               0.001307008               0.000000000               0.000000000               0.000000000               0.000000000               0.000021985               0.005057783               0.000070689              -0.000623977               0.001893903               0.001269926               0.000000000               0.000000000               0.000000000               0.000000000              -0.005262494               0.000520368              -0.000253869              -0.002038479               0.000852943              -0.001185536               0.000000000               0.000000000               0.000000000               0.000000000              -0.003867794               0.002135045               0.001083564              -0.001717301               0.001284106              -0.000433195               0.000000000               0.000000000               0.000000000               0.000000000              -0.003111041               0.003734576               0.002203742              -0.001633459               0.001789331               0.000155872               0.000000000               0.000000000               0.000000000               0.000000000              -0.002580844               0.004740604               0.002370527              -0.001560389               0.002100314               0.000539925               0.000000000               0.000000000               0.000000000               0.000000000              -0.002153394               0.005359690               0.002243159              -0.001477481               0.002279038               0.000801557               0.000000000               0.000000000               0.000000000               0.000000000              -0.001780550               0.005730672               0.002037279              -0.001384038               0.002371550               0.000987512               0.000000000               0.000000000               0.000000000               0.000000000              -0.001442776               0.005933288               0.001818275              -0.001282699               0.002405309               0.001122609               0.000000000               0.000000000               0.000000000               0.000000000              -0.001128439               0.006022556               0.001618631              -0.001175982               0.002399492               0.001223510               0.000000000               0.000000000               0.000000000               0.000000000              -0.000834172               0.006027652               0.001447316              -0.001066269               0.002364620               0.001298351               0.000000000               0.000000000               0.000000000               0.000000000              -0.000555651               0.005977947               0.001297031              -0.000955611               0.002311166               0.001355555               0.000000000               0.000000000               0.000000000               0.000000000              -0.000294788               0.005890224               0.001155313              -0.000846822               0.002245662               0.001398840               0.000000000               0.000000000               0.000000000               0.000000000              -0.000058978               0.005772822               0.001009432              -0.000743718               0.002172160               0.001428442               0.000000000               0.000000000               0.000000000               0.000000000               0.000146125               0.005631729               0.000850570              -0.000649168               0.002093613               0.001444445               0.000000000               0.000000000               0.000000000               0.000000000               0.000313568               0.005477801               0.000671825              -0.000567136               0.002014961               0.001447825               0.000000000               0.000000000               0.000000000               0.000000000               0.000432962               0.005316795               0.000471960              -0.000502237               0.001939660               0.001437422               0.000000000               0.000000000               0.000000000               0.000000000               0.000486793               0.005156344               0.000247695              -0.000461995               0.001872762               0.001410768               0.000000000               0.000000000               0.000000000               0.000000000               0.000484066               0.005072663               0.000125586              -0.000452557               0.001841723               0.001389166               0.000000000               0.000000000               0.000000000               0.000000000              -0.006878945              -0.000152812              -0.000569049              -0.002560501               0.000802557              -0.001757943               0.000000000               0.000000000               0.000000000               0.000000000              -0.004682719               0.001131644               0.000734983              -0.001897473               0.001009698              -0.000887774               0.000000000               0.000000000               0.000000000               0.000000000              -0.003217162               0.002373510               0.001886183              -0.001503122               0.001292201              -0.000210921               0.000000000               0.000000000               0.000000000               0.000000000              -0.002416543               0.003375082               0.002150001              -0.001328087               0.001567711               0.000239624               0.000000000               0.000000000               0.000000000               0.000000000              -0.001891711               0.004124462               0.002102822              -0.001224948               0.001783122               0.000558174               0.000000000               0.000000000               0.000000000               0.000000000              -0.001498722               0.004655338               0.001954272              -0.001143936               0.001933075               0.000789139               0.000000000               0.000000000               0.000000000               0.000000000              -0.001170130               0.005016377               0.001776965              -0.001065844               0.002027390               0.000961546               0.000000000               0.000000000               0.000000000               0.000000000              -0.000872892               0.005259280               0.001603060              -0.000984743               0.002081323               0.001096580               0.000000000               0.000000000               0.000000000               0.000000000              -0.000596903               0.005410862               0.001445477              -0.000900195               0.002103667               0.001203472               0.000000000               0.000000000               0.000000000               0.000000000              -0.000327763               0.005493746               0.001306470              -0.000809628               0.002101106               0.001291478               0.000000000               0.000000000               0.000000000               0.000000000              -0.000063180               0.005520439               0.001174658              -0.000713746               0.002078043               0.001364297               0.000000000               0.000000000               0.000000000               0.000000000               0.000195274               0.005501876               0.001039136              -0.000614506               0.002038775               0.001424270               0.000000000               0.000000000               0.000000000               0.000000000               0.000444529               0.005447011               0.000892497              -0.000514177               0.001987044               0.001472867               0.000000000               0.000000000               0.000000000               0.000000000               0.000683081               0.005362915               0.000726075              -0.000414208               0.001925690               0.001511481               0.000000000               0.000000000               0.000000000               0.000000000               0.000904117               0.005255455               0.000532293              -0.000317887               0.001857763               0.001539876               0.000000000               0.000000000               0.000000000               0.000000000               0.001091840               0.005134758               0.000292807              -0.000232404               0.001789037               0.001556633               0.000000000               0.000000000               0.000000000               0.000000000               0.001200804               0.005082136               0.000163298              -0.000184965               0.001755683               0.001570718               0.000000000               0.000000000               0.000000000               0.000000000              -0.008248346              -0.000544590              -0.000595953              -0.003025054               0.000826816              -0.002198238               0.000000000               0.000000000               0.000000000               0.000000000              -0.005391396               0.000397723               0.000435366              -0.002071487               0.000823064              -0.001248423               0.000000000               0.000000000               0.000000000               0.000000000              -0.003310642               0.001273399               0.001374416              -0.001400664               0.000891347              -0.000509316               0.000000000               0.000000000               0.000000000               0.000000000              -0.002244923               0.002206581               0.001639161              -0.001117667               0.001108074              -0.000009593               0.000000000               0.000000000               0.000000000               0.000000000              -0.001611249               0.003011585               0.001646089              -0.000980665               0.001330739               0.000350074               0.000000000               0.000000000               0.000000000               0.000000000              -0.001183422               0.003651035               0.001557098              -0.000900161               0.001517053               0.000616891               0.000000000               0.000000000               0.000000000               0.000000000              -0.000855090               0.004136778               0.001435510              -0.000837755               0.001658163               0.000820408               0.000000000               0.000000000               0.000000000               0.000000000              -0.000572681               0.004500946               0.001308445              -0.000777372               0.001759424               0.000982052               0.000000000               0.000000000               0.000000000               0.000000000              -0.000313020               0.004768716               0.001190324              -0.000713471               0.001827379               0.001113909               0.000000000               0.000000000               0.000000000               0.000000000              -0.000057844               0.004965680               0.001083488              -0.000642400               0.001869343               0.001226943               0.000000000               0.000000000               0.000000000               0.000000000               0.000203238               0.005100027               0.000980194              -0.000561288               0.001887088               0.001325800               0.000000000               0.000000000               0.000000000               0.000000000               0.000476500               0.005176063               0.000872622              -0.000468320               0.001881444               0.001413124               0.000000000               0.000000000               0.000000000               0.000000000               0.000763980               0.005207395               0.000756502              -0.000364431               0.001857258               0.001492827               0.000000000               0.000000000               0.000000000               0.000000000               0.001073041               0.005201825               0.000628475              -0.000247837               0.001816537               0.001568699               0.000000000               0.000000000               0.000000000               0.000000000               0.001406773               0.005161394               0.000473784              -0.000117634               0.001759659               0.001642024               0.000000000               0.000000000               0.000000000               0.000000000               0.001757153               0.005091318               0.000266695               0.000022517               0.001689583               0.001712100               0.000000000               0.000000000               0.000000000               0.000000000               0.002009783               0.005076599               0.000156396               0.000119092               0.001652485               0.001771578               0.000000000               0.000000000               0.000000000               0.000000000              -0.009172663              -0.000733184              -0.000372138              -0.003348098               0.000871632              -0.002476466               0.000000000               0.000000000               0.000000000               0.000000000              -0.005878315              -0.000046445               0.000198239              -0.002198561               0.000717367              -0.001481194               0.000000000               0.000000000               0.000000000               0.000000000              -0.003374121               0.000555783               0.000725363              -0.001334767               0.000630179              -0.000704588               0.000000000               0.000000000               0.000000000               0.000000000              -0.002112596               0.001413850               0.000888063              -0.000968953               0.000794262              -0.000174691               0.000000000               0.000000000               0.000000000               0.000000000              -0.001393806               0.002233107               0.000906309              -0.000801814               0.001011633               0.000209819               0.000000000               0.000000000               0.000000000               0.000000000              -0.000935224               0.002930965               0.000867698              -0.000717078               0.001216004               0.000498926               0.000000000               0.000000000               0.000000000               0.000000000              -0.000603878               0.003491917               0.000807754              -0.000662943               0.001384941               0.000721999               0.000000000               0.000000000               0.000000000               0.000000000              -0.000328676               0.003934118               0.000741091              -0.000615017               0.001516365               0.000901348               0.000000000               0.000000000               0.000000000               0.000000000              -0.000075409               0.004276464               0.000677140              -0.000562835               0.001613085               0.001050250               0.000000000               0.000000000               0.000000000               0.000000000               0.000172686               0.004542792               0.000619663              -0.000503091               0.001681946               0.001178855               0.000000000               0.000000000               0.000000000               0.000000000               0.000431540               0.004750581               0.000563822              -0.000431994               0.001727509               0.001295515               0.000000000               0.000000000               0.000000000               0.000000000               0.000712433               0.004901036               0.000503003              -0.000345467               0.001748818               0.001403351               0.000000000               0.000000000               0.000000000               0.000000000               0.001027167               0.004999470               0.000437315              -0.000239746               0.001746389               0.001506643               0.000000000               0.000000000               0.000000000               0.000000000               0.001384269               0.005053651               0.000368842              -0.000112606               0.001722069               0.001609463               0.000000000               0.000000000               0.000000000               0.000000000               0.001794340               0.005070270               0.000282649               0.000039093               0.001677042               0.001716135               0.000000000               0.000000000               0.000000000               0.000000000               0.002272462               0.005048686               0.000158940               0.000221085               0.001609184               0.001830269               0.000000000               0.000000000               0.000000000               0.000000000               0.002648025               0.005068272               0.000094173               0.000359472               0.001569583               0.001929055               0.000000000               0.000000000               0.000000000               0.000000000               0.000000000               0.000000000               0.000000000               0.000000000               0.000000000               0.000000000               0.000000000               0.000000000               0.000000000               0.000000000               0.000000000               0.000000000               0.000000000               0.000000000               0.000000000               0.000000000               0.000000000               0.000000000               0.000000000               0.000000000               0.000000000               0.000000000               0.000000000               0.000000000               0.000000000               0.000000000               0.000000000               0.000000000               0.000000000               0.000000000               0.000000000               0.000000000               0.000000000               0.000000000               0.000000000               0.000000000               0.000000000               0.000000000               0.000000000               0.000000000               0.000000000               0.000000000               0.000000000               0.000000000               0.000000000               0.000000000               0.000000000               0.000000000               0.000000000               0.000000000               0.000000000               0.000000000               0.000000000               0.000000000               0.000000000               0.000000000               0.000000000               0.000000000               0.000000000               0.000000000               0.000000000               0.000000000               0.000000000               0.000000000               0.000000000               0.000000000               0.000000000               0.000000000               0.000000000               0.000000000               0.000000000               0.000000000               0.000000000               0.000000000               0.000000000               0.000000000               0.000000000               0.000000000               0.000000000               0.000000000               0.000000000               0.000000000               0.000000000               0.000000000               0.000000000               0.000000000               0.000000000               0.000000000               0.000000000               0.000000000               0.000000000               0.000000000               0.000000000               0.000000000               0.000000000               0.000000000               0.000000000               0.000000000               0.000000000               0.000000000               0.000000000               0.000000000               0.000000000               0.000000000               0.000000000               0.000000000               0.000000000               0.000000000               0.000000000               0.000000000               0.000000000               0.000000000               0.000000000               0.000000000               0.000000000               0.000000000               0.000000000               0.000000000               0.000000000               0.000000000               0.000000000               0.000000000               0.000000000               0.000000000               0.000000000               0.000000000               0.000000000               0.000000000               0.000000000               0.000000000               0.000000000               0.000000000               0.000000000               0.000000000               0.000000000               0.000000000               0.000000000               0.000000000               0.000000000               0.000000000               0.000000000               0.000000000               0.000000000               0.000000000               0.000000000               0.000000000               0.000000000               0.000000000               0.000000000               0.000000000               0.000000000               0.000000000               0.000000000               0.000000000               0.000000000               0.000000000               0.000000000               0.000000000               0.000000000               0.000000000               0.000000000               0.000000000               0.000000000               0.000000000               0.000000000               0.000000000               0.000000000               0.000000000               0.000000000               0.000000000 </DataArray>
</PointData>
</Piece>
</UnstructuredGrid> </VTKFile>
