<?xml version="1.0"?>
<VTKFile type="UnstructuredGrid" version="0.1">
<UnstructuredGrid>
<Piece NumberOfPoints="      1156" NumberOfCells="      1024">
<Points>
<DataArray type="Float64"                                    Name="coordinates"                                                      NumberOfComponents=" 3" format="ascii">
              0.133000000               0.000000000               0.000000000               0.155937500               0.000000000               0.000000000               0.178875000               0.000000000               0.000000000               0.201812500               0.000000000               0.000000000               0.224750000               0.000000000               0.000000000               0.247687500               0.000000000               0.000000000               0.270625000               0.000000000               0.000000000               0.293562500               0.000000000               0.000000000               0.316500000               0.000000000               0.000000000               0.339437500               0.000000000               0.000000000               0.362375000               0.000000000               0.000000000               0.385312500               0.000000000               0.000000000               0.408250000               0.000000000               0.000000000               0.431187500               0.000000000               0.000000000               0.454125000               0.000000000               0.000000000               0.477062500               0.000000000               0.000000000               0.500000000               0.000000000               0.000000000               0.132359569               0.013036280               0.000000000               0.155337096               0.016127762               0.000000000               0.178314623               0.019219245               0.000000000               0.201292150               0.022310727               0.000000000               0.224269676               0.025402210               0.000000000               0.247247203               0.028493692               0.000000000               0.270224730               0.031585175               0.000000000               0.293202257               0.034676657               0.000000000               0.316179784               0.037768140               0.000000000               0.339157311               0.040859622               0.000000000               0.362134838               0.043951105               0.000000000               0.385112365               0.047042587               0.000000000               0.408089892               0.050134070               0.000000000               0.431067419               0.053225552               0.000000000               0.454044946               0.056317035               0.000000000               0.477022473               0.059408517               0.000000000               0.500000000               0.062500000               0.000000000               0.130444442               0.025947013               0.000000000               0.153541665               0.032137825               0.000000000               0.176638887               0.038328636               0.000000000               0.199736109               0.044519448               0.000000000               0.222833332               0.050710260               0.000000000               0.245930554               0.056901071               0.000000000               0.269027776               0.063091883               0.000000000               0.292124999               0.069282695               0.000000000               0.315222221               0.075473506               0.000000000               0.338319444               0.081664318               0.000000000               0.361416666               0.087855130               0.000000000               0.384513888               0.094045942               0.000000000               0.407611111               0.100236753               0.000000000               0.430708333               0.106427565               0.000000000               0.453805555               0.112618377               0.000000000               0.476902778               0.118809188               0.000000000               0.500000000               0.125000000               0.000000000               0.127273065               0.038607862               0.000000000               0.150568498               0.047913621               0.000000000               0.173863932               0.057219379               0.000000000               0.197159365               0.066525138               0.000000000               0.220454798               0.075830897               0.000000000               0.243750232               0.085136655               0.000000000               0.267045665               0.094442414               0.000000000               0.290341099               0.103748172               0.000000000               0.313636532               0.113053931               0.000000000               0.336931966               0.122359690               0.000000000               0.360227399               0.131665448               0.000000000               0.383522833               0.140971207               0.000000000               0.406818266               0.150276966               0.000000000               0.430113700               0.159582724               0.000000000               0.453409133               0.168888483               0.000000000               0.476704567               0.178194241               0.000000000               0.500000000               0.187500000               0.000000000               0.122875978               0.050896897               0.000000000               0.146446229               0.063340840               0.000000000               0.170016481               0.075784784               0.000000000               0.193586732               0.088228728               0.000000000               0.217156983               0.100672672               0.000000000               0.240727235               0.113116616               0.000000000               0.264297486               0.125560560               0.000000000               0.287867738               0.138004504               0.000000000               0.311437989               0.150448448               0.000000000               0.335008240               0.162892392               0.000000000               0.358578492               0.175336336               0.000000000               0.382148743               0.187780280               0.000000000               0.405718994               0.200224224               0.000000000               0.429289246               0.212668168               0.000000000               0.452859497               0.225112112               0.000000000               0.476429749               0.237556056               0.000000000               0.500000000               0.250000000               0.000000000               0.117295528               0.062695766               0.000000000               0.141214558               0.078308531               0.000000000               0.165133587               0.093921295               0.000000000               0.189052617               0.109534060               0.000000000               0.212971646               0.125146824               0.000000000               0.236890676               0.140759589               0.000000000               0.260809705               0.156372354               0.000000000               0.284728735               0.171985118               0.000000000               0.308647764               0.187597883               0.000000000               0.332566794               0.203210648               0.000000000               0.356485823               0.218823412               0.000000000               0.380404853               0.234436177               0.000000000               0.404323882               0.250048941               0.000000000               0.428242912               0.265661706               0.000000000               0.452161941               0.281274471               0.000000000               0.476080971               0.296887235               0.000000000               0.500000000               0.312500000               0.000000000               0.110585458               0.073890841               0.000000000               0.134923867               0.092710163               0.000000000               0.159262276               0.111529486               0.000000000               0.183600685               0.130348808               0.000000000               0.207939094               0.149168131               0.000000000               0.232277503               0.167987453               0.000000000               0.256615912               0.186806776               0.000000000               0.280954320               0.205626098               0.000000000               0.305292729               0.224445420               0.000000000               0.329631138               0.243264743               0.000000000               0.353969547               0.262084065               0.000000000               0.378307956               0.280903388               0.000000000               0.402646365               0.299722710               0.000000000               0.426984773               0.318542033               0.000000000               0.451323182               0.337361355               0.000000000               0.475661591               0.356180678               0.000000000               0.500000000               0.375000000               0.000000000               0.102810390               0.084374307               0.000000000               0.127634741               0.106444663               0.000000000               0.152459092               0.128515018               0.000000000               0.177283442               0.150585374               0.000000000               0.202107793               0.172655730               0.000000000               0.226932143               0.194726086               0.000000000               0.251756494               0.216796442               0.000000000               0.276580845               0.238866798               0.000000000               0.301405195               0.260937153               0.000000000               0.326229546               0.283007509               0.000000000               0.351053896               0.305077865               0.000000000               0.375878247               0.327148221               0.000000000               0.400702598               0.349218577               0.000000000               0.425526948               0.371288933               0.000000000               0.450351299               0.393359288               0.000000000               0.475175649               0.415429644               0.000000000               0.500000000               0.437500000               0.000000000               0.094045202               0.094045202               0.000000000               0.119417377               0.119417377               0.000000000               0.144789552               0.144789552               0.000000000               0.170161727               0.170161727               0.000000000               0.195533901               0.195533901               0.000000000               0.220906076               0.220906076               0.000000000               0.246278251               0.246278251               0.000000000               0.271650426               0.271650426               0.000000000               0.297022601               0.297022601               0.000000000               0.322394776               0.322394776               0.000000000               0.347766951               0.347766951               0.000000000               0.373139126               0.373139126               0.000000000               0.398511300               0.398511300               0.000000000               0.423883475               0.423883475               0.000000000               0.449255650               0.449255650               0.000000000               0.474627825               0.474627825               0.000000000               0.500000000               0.500000000               0.000000000               0.084374307               0.102810390               0.000000000               0.106444663               0.127634741               0.000000000               0.128515018               0.152459092               0.000000000               0.150585374               0.177283442               0.000000000               0.172655730               0.202107793               0.000000000               0.194726086               0.226932143               0.000000000               0.216796442               0.251756494               0.000000000               0.238866798               0.276580845               0.000000000               0.260937153               0.301405195               0.000000000               0.283007509               0.326229546               0.000000000               0.305077865               0.351053896               0.000000000               0.327148221               0.375878247               0.000000000               0.349218577               0.400702598               0.000000000               0.371288933               0.425526948               0.000000000               0.393359288               0.450351299               0.000000000               0.415429644               0.475175649               0.000000000               0.437500000               0.500000000               0.000000000               0.073890841               0.110585458               0.000000000               0.092710163               0.134923867               0.000000000               0.111529486               0.159262276               0.000000000               0.130348808               0.183600685               0.000000000               0.149168131               0.207939094               0.000000000               0.167987453               0.232277503               0.000000000               0.186806776               0.256615912               0.000000000               0.205626098               0.280954320               0.000000000               0.224445420               0.305292729               0.000000000               0.243264743               0.329631138               0.000000000               0.262084065               0.353969547               0.000000000               0.280903388               0.378307956               0.000000000               0.299722710               0.402646365               0.000000000               0.318542033               0.426984773               0.000000000               0.337361355               0.451323182               0.000000000               0.356180678               0.475661591               0.000000000               0.375000000               0.500000000               0.000000000               0.062695766               0.117295528               0.000000000               0.078308531               0.141214558               0.000000000               0.093921295               0.165133587               0.000000000               0.109534060               0.189052617               0.000000000               0.125146824               0.212971646               0.000000000               0.140759589               0.236890676               0.000000000               0.156372354               0.260809705               0.000000000               0.171985118               0.284728735               0.000000000               0.187597883               0.308647764               0.000000000               0.203210648               0.332566794               0.000000000               0.218823412               0.356485823               0.000000000               0.234436177               0.380404853               0.000000000               0.250048941               0.404323882               0.000000000               0.265661706               0.428242912               0.000000000               0.281274471               0.452161941               0.000000000               0.296887235               0.476080971               0.000000000               0.312500000               0.500000000               0.000000000               0.050896897               0.122875978               0.000000000               0.063340840               0.146446229               0.000000000               0.075784784               0.170016481               0.000000000               0.088228728               0.193586732               0.000000000               0.100672672               0.217156983               0.000000000               0.113116616               0.240727235               0.000000000               0.125560560               0.264297486               0.000000000               0.138004504               0.287867738               0.000000000               0.150448448               0.311437989               0.000000000               0.162892392               0.335008240               0.000000000               0.175336336               0.358578492               0.000000000               0.187780280               0.382148743               0.000000000               0.200224224               0.405718994               0.000000000               0.212668168               0.429289246               0.000000000               0.225112112               0.452859497               0.000000000               0.237556056               0.476429749               0.000000000               0.250000000               0.500000000               0.000000000               0.038607862               0.127273065               0.000000000               0.047913621               0.150568498               0.000000000               0.057219379               0.173863932               0.000000000               0.066525138               0.197159365               0.000000000               0.075830897               0.220454798               0.000000000               0.085136655               0.243750232               0.000000000               0.094442414               0.267045665               0.000000000               0.103748172               0.290341099               0.000000000               0.113053931               0.313636532               0.000000000               0.122359690               0.336931966               0.000000000               0.131665448               0.360227399               0.000000000               0.140971207               0.383522833               0.000000000               0.150276966               0.406818266               0.000000000               0.159582724               0.430113700               0.000000000               0.168888483               0.453409133               0.000000000               0.178194241               0.476704567               0.000000000               0.187500000               0.500000000               0.000000000               0.025947013               0.130444442               0.000000000               0.032137825               0.153541665               0.000000000               0.038328636               0.176638887               0.000000000               0.044519448               0.199736109               0.000000000               0.050710260               0.222833332               0.000000000               0.056901071               0.245930554               0.000000000               0.063091883               0.269027776               0.000000000               0.069282695               0.292124999               0.000000000               0.075473506               0.315222221               0.000000000               0.081664318               0.338319444               0.000000000               0.087855130               0.361416666               0.000000000               0.094045942               0.384513888               0.000000000               0.100236753               0.407611111               0.000000000               0.106427565               0.430708333               0.000000000               0.112618377               0.453805555               0.000000000               0.118809188               0.476902778               0.000000000               0.125000000               0.500000000               0.000000000               0.013036280               0.132359569               0.000000000               0.016127762               0.155337096               0.000000000               0.019219245               0.178314623               0.000000000               0.022310727               0.201292150               0.000000000               0.025402210               0.224269676               0.000000000               0.028493692               0.247247203               0.000000000               0.031585175               0.270224730               0.000000000               0.034676657               0.293202257               0.000000000               0.037768140               0.316179784               0.000000000               0.040859622               0.339157311               0.000000000               0.043951105               0.362134838               0.000000000               0.047042587               0.385112365               0.000000000               0.050134070               0.408089892               0.000000000               0.053225552               0.431067419               0.000000000               0.056317035               0.454044946               0.000000000               0.059408517               0.477022473               0.000000000               0.062500000               0.500000000               0.000000000               0.000000000               0.133000000               0.000000000               0.000000000               0.155937500               0.000000000               0.000000000               0.178875000               0.000000000               0.000000000               0.201812500               0.000000000               0.000000000               0.224750000               0.000000000               0.000000000               0.247687500               0.000000000               0.000000000               0.270625000               0.000000000               0.000000000               0.293562500               0.000000000               0.000000000               0.316500000               0.000000000               0.000000000               0.339437500               0.000000000               0.000000000               0.362375000               0.000000000               0.000000000               0.385312500               0.000000000               0.000000000               0.408250000               0.000000000               0.000000000               0.431187500               0.000000000               0.000000000               0.454125000               0.000000000               0.000000000               0.477062500               0.000000000               0.000000000               0.500000000               0.000000000               0.133000000               0.000000000               0.000000000               0.155937500               0.000000000               0.000000000               0.178875000               0.000000000               0.000000000               0.201812500               0.000000000               0.000000000               0.224750000               0.000000000               0.000000000               0.247687500               0.000000000               0.000000000               0.270625000               0.000000000               0.000000000               0.293562500               0.000000000               0.000000000               0.316500000               0.000000000               0.000000000               0.339437500               0.000000000               0.000000000               0.362375000               0.000000000               0.000000000               0.385312500               0.000000000               0.000000000               0.408250000               0.000000000               0.000000000               0.431187500               0.000000000               0.000000000               0.454125000               0.000000000               0.000000000               0.477062500               0.000000000               0.000000000               0.500000000               0.000000000               0.000000000               0.132359569              -0.013036280               0.000000000               0.155337096              -0.016127762               0.000000000               0.178314623              -0.019219245               0.000000000               0.201292150              -0.022310727               0.000000000               0.224269676              -0.025402210               0.000000000               0.247247203              -0.028493692               0.000000000               0.270224730              -0.031585175               0.000000000               0.293202257              -0.034676657               0.000000000               0.316179784              -0.037768140               0.000000000               0.339157311              -0.040859622               0.000000000               0.362134838              -0.043951105               0.000000000               0.385112365              -0.047042587               0.000000000               0.408089892              -0.050134070               0.000000000               0.431067419              -0.053225552               0.000000000               0.454044946              -0.056317035               0.000000000               0.477022473              -0.059408517               0.000000000               0.500000000              -0.062500000               0.000000000               0.130444442              -0.025947013               0.000000000               0.153541665              -0.032137825               0.000000000               0.176638887              -0.038328636               0.000000000               0.199736109              -0.044519448               0.000000000               0.222833332              -0.050710260               0.000000000               0.245930554              -0.056901071               0.000000000               0.269027776              -0.063091883               0.000000000               0.292124999              -0.069282695               0.000000000               0.315222221              -0.075473506               0.000000000               0.338319444              -0.081664318               0.000000000               0.361416666              -0.087855130               0.000000000               0.384513888              -0.094045942               0.000000000               0.407611111              -0.100236753               0.000000000               0.430708333              -0.106427565               0.000000000               0.453805555              -0.112618377               0.000000000               0.476902778              -0.118809188               0.000000000               0.500000000              -0.125000000               0.000000000               0.127273065              -0.038607862               0.000000000               0.150568498              -0.047913621               0.000000000               0.173863932              -0.057219379               0.000000000               0.197159365              -0.066525138               0.000000000               0.220454798              -0.075830897               0.000000000               0.243750232              -0.085136655               0.000000000               0.267045665              -0.094442414               0.000000000               0.290341099              -0.103748172               0.000000000               0.313636532              -0.113053931               0.000000000               0.336931966              -0.122359690               0.000000000               0.360227399              -0.131665448               0.000000000               0.383522833              -0.140971207               0.000000000               0.406818266              -0.150276966               0.000000000               0.430113700              -0.159582724               0.000000000               0.453409133              -0.168888483               0.000000000               0.476704567              -0.178194241               0.000000000               0.500000000              -0.187500000               0.000000000               0.122875978              -0.050896897               0.000000000               0.146446229              -0.063340840               0.000000000               0.170016481              -0.075784784               0.000000000               0.193586732              -0.088228728               0.000000000               0.217156983              -0.100672672               0.000000000               0.240727235              -0.113116616               0.000000000               0.264297486              -0.125560560               0.000000000               0.287867738              -0.138004504               0.000000000               0.311437989              -0.150448448               0.000000000               0.335008240              -0.162892392               0.000000000               0.358578492              -0.175336336               0.000000000               0.382148743              -0.187780280               0.000000000               0.405718994              -0.200224224               0.000000000               0.429289246              -0.212668168               0.000000000               0.452859497              -0.225112112               0.000000000               0.476429749              -0.237556056               0.000000000               0.500000000              -0.250000000               0.000000000               0.117295528              -0.062695766               0.000000000               0.141214558              -0.078308531               0.000000000               0.165133587              -0.093921295               0.000000000               0.189052617              -0.109534060               0.000000000               0.212971646              -0.125146824               0.000000000               0.236890676              -0.140759589               0.000000000               0.260809705              -0.156372354               0.000000000               0.284728735              -0.171985118               0.000000000               0.308647764              -0.187597883               0.000000000               0.332566794              -0.203210648               0.000000000               0.356485823              -0.218823412               0.000000000               0.380404853              -0.234436177               0.000000000               0.404323882              -0.250048941               0.000000000               0.428242912              -0.265661706               0.000000000               0.452161941              -0.281274471               0.000000000               0.476080971              -0.296887235               0.000000000               0.500000000              -0.312500000               0.000000000               0.110585458              -0.073890841               0.000000000               0.134923867              -0.092710163               0.000000000               0.159262276              -0.111529486               0.000000000               0.183600685              -0.130348808               0.000000000               0.207939094              -0.149168131               0.000000000               0.232277503              -0.167987453               0.000000000               0.256615912              -0.186806776               0.000000000               0.280954320              -0.205626098               0.000000000               0.305292729              -0.224445420               0.000000000               0.329631138              -0.243264743               0.000000000               0.353969547              -0.262084065               0.000000000               0.378307956              -0.280903388               0.000000000               0.402646365              -0.299722710               0.000000000               0.426984773              -0.318542033               0.000000000               0.451323182              -0.337361355               0.000000000               0.475661591              -0.356180678               0.000000000               0.500000000              -0.375000000               0.000000000               0.102810390              -0.084374307               0.000000000               0.127634741              -0.106444663               0.000000000               0.152459092              -0.128515018               0.000000000               0.177283442              -0.150585374               0.000000000               0.202107793              -0.172655730               0.000000000               0.226932143              -0.194726086               0.000000000               0.251756494              -0.216796442               0.000000000               0.276580845              -0.238866798               0.000000000               0.301405195              -0.260937153               0.000000000               0.326229546              -0.283007509               0.000000000               0.351053896              -0.305077865               0.000000000               0.375878247              -0.327148221               0.000000000               0.400702598              -0.349218577               0.000000000               0.425526948              -0.371288933               0.000000000               0.450351299              -0.393359288               0.000000000               0.475175649              -0.415429644               0.000000000               0.500000000              -0.437500000               0.000000000               0.094045202              -0.094045202               0.000000000               0.119417377              -0.119417377               0.000000000               0.144789552              -0.144789552               0.000000000               0.170161727              -0.170161727               0.000000000               0.195533901              -0.195533901               0.000000000               0.220906076              -0.220906076               0.000000000               0.246278251              -0.246278251               0.000000000               0.271650426              -0.271650426               0.000000000               0.297022601              -0.297022601               0.000000000               0.322394776              -0.322394776               0.000000000               0.347766951              -0.347766951               0.000000000               0.373139126              -0.373139126               0.000000000               0.398511300              -0.398511300               0.000000000               0.423883475              -0.423883475               0.000000000               0.449255650              -0.449255650               0.000000000               0.474627825              -0.474627825               0.000000000               0.500000000              -0.500000000               0.000000000               0.084374307              -0.102810390               0.000000000               0.106444663              -0.127634741               0.000000000               0.128515018              -0.152459092               0.000000000               0.150585374              -0.177283442               0.000000000               0.172655730              -0.202107793               0.000000000               0.194726086              -0.226932143               0.000000000               0.216796442              -0.251756494               0.000000000               0.238866798              -0.276580845               0.000000000               0.260937153              -0.301405195               0.000000000               0.283007509              -0.326229546               0.000000000               0.305077865              -0.351053896               0.000000000               0.327148221              -0.375878247               0.000000000               0.349218577              -0.400702598               0.000000000               0.371288933              -0.425526948               0.000000000               0.393359288              -0.450351299               0.000000000               0.415429644              -0.475175649               0.000000000               0.437500000              -0.500000000               0.000000000               0.073890841              -0.110585458               0.000000000               0.092710163              -0.134923867               0.000000000               0.111529486              -0.159262276               0.000000000               0.130348808              -0.183600685               0.000000000               0.149168131              -0.207939094               0.000000000               0.167987453              -0.232277503               0.000000000               0.186806776              -0.256615912               0.000000000               0.205626098              -0.280954320               0.000000000               0.224445420              -0.305292729               0.000000000               0.243264743              -0.329631138               0.000000000               0.262084065              -0.353969547               0.000000000               0.280903388              -0.378307956               0.000000000               0.299722710              -0.402646365               0.000000000               0.318542033              -0.426984773               0.000000000               0.337361355              -0.451323182               0.000000000               0.356180678              -0.475661591               0.000000000               0.375000000              -0.500000000               0.000000000               0.062695766              -0.117295528               0.000000000               0.078308531              -0.141214558               0.000000000               0.093921295              -0.165133587               0.000000000               0.109534060              -0.189052617               0.000000000               0.125146824              -0.212971646               0.000000000               0.140759589              -0.236890676               0.000000000               0.156372354              -0.260809705               0.000000000               0.171985118              -0.284728735               0.000000000               0.187597883              -0.308647764               0.000000000               0.203210648              -0.332566794               0.000000000               0.218823412              -0.356485823               0.000000000               0.234436177              -0.380404853               0.000000000               0.250048941              -0.404323882               0.000000000               0.265661706              -0.428242912               0.000000000               0.281274471              -0.452161941               0.000000000               0.296887235              -0.476080971               0.000000000               0.312500000              -0.500000000               0.000000000               0.050896897              -0.122875978               0.000000000               0.063340840              -0.146446229               0.000000000               0.075784784              -0.170016481               0.000000000               0.088228728              -0.193586732               0.000000000               0.100672672              -0.217156983               0.000000000               0.113116616              -0.240727235               0.000000000               0.125560560              -0.264297486               0.000000000               0.138004504              -0.287867738               0.000000000               0.150448448              -0.311437989               0.000000000               0.162892392              -0.335008240               0.000000000               0.175336336              -0.358578492               0.000000000               0.187780280              -0.382148743               0.000000000               0.200224224              -0.405718994               0.000000000               0.212668168              -0.429289246               0.000000000               0.225112112              -0.452859497               0.000000000               0.237556056              -0.476429749               0.000000000               0.250000000              -0.500000000               0.000000000               0.038607862              -0.127273065               0.000000000               0.047913621              -0.150568498               0.000000000               0.057219379              -0.173863932               0.000000000               0.066525138              -0.197159365               0.000000000               0.075830897              -0.220454798               0.000000000               0.085136655              -0.243750232               0.000000000               0.094442414              -0.267045665               0.000000000               0.103748172              -0.290341099               0.000000000               0.113053931              -0.313636532               0.000000000               0.122359690              -0.336931966               0.000000000               0.131665448              -0.360227399               0.000000000               0.140971207              -0.383522833               0.000000000               0.150276966              -0.406818266               0.000000000               0.159582724              -0.430113700               0.000000000               0.168888483              -0.453409133               0.000000000               0.178194241              -0.476704567               0.000000000               0.187500000              -0.500000000               0.000000000               0.025947013              -0.130444442               0.000000000               0.032137825              -0.153541665               0.000000000               0.038328636              -0.176638887               0.000000000               0.044519448              -0.199736109               0.000000000               0.050710260              -0.222833332               0.000000000               0.056901071              -0.245930554               0.000000000               0.063091883              -0.269027776               0.000000000               0.069282695              -0.292124999               0.000000000               0.075473506              -0.315222221               0.000000000               0.081664318              -0.338319444               0.000000000               0.087855130              -0.361416666               0.000000000               0.094045942              -0.384513888               0.000000000               0.100236753              -0.407611111               0.000000000               0.106427565              -0.430708333               0.000000000               0.112618377              -0.453805555               0.000000000               0.118809188              -0.476902778               0.000000000               0.125000000              -0.500000000               0.000000000               0.013036280              -0.132359569               0.000000000               0.016127762              -0.155337096               0.000000000               0.019219245              -0.178314623               0.000000000               0.022310727              -0.201292150               0.000000000               0.025402210              -0.224269676               0.000000000               0.028493692              -0.247247203               0.000000000               0.031585175              -0.270224730               0.000000000               0.034676657              -0.293202257               0.000000000               0.037768140              -0.316179784               0.000000000               0.040859622              -0.339157311               0.000000000               0.043951105              -0.362134838               0.000000000               0.047042587              -0.385112365               0.000000000               0.050134070              -0.408089892               0.000000000               0.053225552              -0.431067419               0.000000000               0.056317035              -0.454044946               0.000000000               0.059408517              -0.477022473               0.000000000               0.062500000              -0.500000000               0.000000000               0.000000000              -0.133000000               0.000000000               0.000000000              -0.155937500               0.000000000               0.000000000              -0.178875000               0.000000000               0.000000000              -0.201812500               0.000000000               0.000000000              -0.224750000               0.000000000               0.000000000              -0.247687500               0.000000000               0.000000000              -0.270625000               0.000000000               0.000000000              -0.293562500               0.000000000               0.000000000              -0.316500000               0.000000000               0.000000000              -0.339437500               0.000000000               0.000000000              -0.362375000               0.000000000               0.000000000              -0.385312500               0.000000000               0.000000000              -0.408250000               0.000000000               0.000000000              -0.431187500               0.000000000               0.000000000              -0.454125000               0.000000000               0.000000000              -0.477062500               0.000000000               0.000000000              -0.500000000               0.000000000              -0.133000000               0.000000000               0.000000000              -0.155937500               0.000000000               0.000000000              -0.178875000               0.000000000               0.000000000              -0.201812500               0.000000000               0.000000000              -0.224750000               0.000000000               0.000000000              -0.247687500               0.000000000               0.000000000              -0.270625000               0.000000000               0.000000000              -0.293562500               0.000000000               0.000000000              -0.316500000               0.000000000               0.000000000              -0.339437500               0.000000000               0.000000000              -0.362375000               0.000000000               0.000000000              -0.385312500               0.000000000               0.000000000              -0.408250000               0.000000000               0.000000000              -0.431187500               0.000000000               0.000000000              -0.454125000               0.000000000               0.000000000              -0.477062500               0.000000000               0.000000000              -0.500000000               0.000000000               0.000000000              -0.132359569              -0.013036280               0.000000000              -0.155337096              -0.016127762               0.000000000              -0.178314623              -0.019219245               0.000000000              -0.201292150              -0.022310727               0.000000000              -0.224269676              -0.025402210               0.000000000              -0.247247203              -0.028493692               0.000000000              -0.270224730              -0.031585175               0.000000000              -0.293202257              -0.034676657               0.000000000              -0.316179784              -0.037768140               0.000000000              -0.339157311              -0.040859622               0.000000000              -0.362134838              -0.043951105               0.000000000              -0.385112365              -0.047042587               0.000000000              -0.408089892              -0.050134070               0.000000000              -0.431067419              -0.053225552               0.000000000              -0.454044946              -0.056317035               0.000000000              -0.477022473              -0.059408517               0.000000000              -0.500000000              -0.062500000               0.000000000              -0.130444442              -0.025947013               0.000000000              -0.153541665              -0.032137825               0.000000000              -0.176638887              -0.038328636               0.000000000              -0.199736109              -0.044519448               0.000000000              -0.222833332              -0.050710260               0.000000000              -0.245930554              -0.056901071               0.000000000              -0.269027776              -0.063091883               0.000000000              -0.292124999              -0.069282695               0.000000000              -0.315222221              -0.075473506               0.000000000              -0.338319444              -0.081664318               0.000000000              -0.361416666              -0.087855130               0.000000000              -0.384513888              -0.094045942               0.000000000              -0.407611111              -0.100236753               0.000000000              -0.430708333              -0.106427565               0.000000000              -0.453805555              -0.112618377               0.000000000              -0.476902778              -0.118809188               0.000000000              -0.500000000              -0.125000000               0.000000000              -0.127273065              -0.038607862               0.000000000              -0.150568498              -0.047913621               0.000000000              -0.173863932              -0.057219379               0.000000000              -0.197159365              -0.066525138               0.000000000              -0.220454798              -0.075830897               0.000000000              -0.243750232              -0.085136655               0.000000000              -0.267045665              -0.094442414               0.000000000              -0.290341099              -0.103748172               0.000000000              -0.313636532              -0.113053931               0.000000000              -0.336931966              -0.122359690               0.000000000              -0.360227399              -0.131665448               0.000000000              -0.383522833              -0.140971207               0.000000000              -0.406818266              -0.150276966               0.000000000              -0.430113700              -0.159582724               0.000000000              -0.453409133              -0.168888483               0.000000000              -0.476704567              -0.178194241               0.000000000              -0.500000000              -0.187500000               0.000000000              -0.122875978              -0.050896897               0.000000000              -0.146446229              -0.063340840               0.000000000              -0.170016481              -0.075784784               0.000000000              -0.193586732              -0.088228728               0.000000000              -0.217156983              -0.100672672               0.000000000              -0.240727235              -0.113116616               0.000000000              -0.264297486              -0.125560560               0.000000000              -0.287867738              -0.138004504               0.000000000              -0.311437989              -0.150448448               0.000000000              -0.335008240              -0.162892392               0.000000000              -0.358578492              -0.175336336               0.000000000              -0.382148743              -0.187780280               0.000000000              -0.405718994              -0.200224224               0.000000000              -0.429289246              -0.212668168               0.000000000              -0.452859497              -0.225112112               0.000000000              -0.476429749              -0.237556056               0.000000000              -0.500000000              -0.250000000               0.000000000              -0.117295528              -0.062695766               0.000000000              -0.141214558              -0.078308531               0.000000000              -0.165133587              -0.093921295               0.000000000              -0.189052617              -0.109534060               0.000000000              -0.212971646              -0.125146824               0.000000000              -0.236890676              -0.140759589               0.000000000              -0.260809705              -0.156372354               0.000000000              -0.284728735              -0.171985118               0.000000000              -0.308647764              -0.187597883               0.000000000              -0.332566794              -0.203210648               0.000000000              -0.356485823              -0.218823412               0.000000000              -0.380404853              -0.234436177               0.000000000              -0.404323882              -0.250048941               0.000000000              -0.428242912              -0.265661706               0.000000000              -0.452161941              -0.281274471               0.000000000              -0.476080971              -0.296887235               0.000000000              -0.500000000              -0.312500000               0.000000000              -0.110585458              -0.073890841               0.000000000              -0.134923867              -0.092710163               0.000000000              -0.159262276              -0.111529486               0.000000000              -0.183600685              -0.130348808               0.000000000              -0.207939094              -0.149168131               0.000000000              -0.232277503              -0.167987453               0.000000000              -0.256615912              -0.186806776               0.000000000              -0.280954320              -0.205626098               0.000000000              -0.305292729              -0.224445420               0.000000000              -0.329631138              -0.243264743               0.000000000              -0.353969547              -0.262084065               0.000000000              -0.378307956              -0.280903388               0.000000000              -0.402646365              -0.299722710               0.000000000              -0.426984773              -0.318542033               0.000000000              -0.451323182              -0.337361355               0.000000000              -0.475661591              -0.356180678               0.000000000              -0.500000000              -0.375000000               0.000000000              -0.102810390              -0.084374307               0.000000000              -0.127634741              -0.106444663               0.000000000              -0.152459092              -0.128515018               0.000000000              -0.177283442              -0.150585374               0.000000000              -0.202107793              -0.172655730               0.000000000              -0.226932143              -0.194726086               0.000000000              -0.251756494              -0.216796442               0.000000000              -0.276580845              -0.238866798               0.000000000              -0.301405195              -0.260937153               0.000000000              -0.326229546              -0.283007509               0.000000000              -0.351053896              -0.305077865               0.000000000              -0.375878247              -0.327148221               0.000000000              -0.400702598              -0.349218577               0.000000000              -0.425526948              -0.371288933               0.000000000              -0.450351299              -0.393359288               0.000000000              -0.475175649              -0.415429644               0.000000000              -0.500000000              -0.437500000               0.000000000              -0.094045202              -0.094045202               0.000000000              -0.119417377              -0.119417377               0.000000000              -0.144789552              -0.144789552               0.000000000              -0.170161727              -0.170161727               0.000000000              -0.195533901              -0.195533901               0.000000000              -0.220906076              -0.220906076               0.000000000              -0.246278251              -0.246278251               0.000000000              -0.271650426              -0.271650426               0.000000000              -0.297022601              -0.297022601               0.000000000              -0.322394776              -0.322394776               0.000000000              -0.347766951              -0.347766951               0.000000000              -0.373139126              -0.373139126               0.000000000              -0.398511300              -0.398511300               0.000000000              -0.423883475              -0.423883475               0.000000000              -0.449255650              -0.449255650               0.000000000              -0.474627825              -0.474627825               0.000000000              -0.500000000              -0.500000000               0.000000000              -0.084374307              -0.102810390               0.000000000              -0.106444663              -0.127634741               0.000000000              -0.128515018              -0.152459092               0.000000000              -0.150585374              -0.177283442               0.000000000              -0.172655730              -0.202107793               0.000000000              -0.194726086              -0.226932143               0.000000000              -0.216796442              -0.251756494               0.000000000              -0.238866798              -0.276580845               0.000000000              -0.260937153              -0.301405195               0.000000000              -0.283007509              -0.326229546               0.000000000              -0.305077865              -0.351053896               0.000000000              -0.327148221              -0.375878247               0.000000000              -0.349218577              -0.400702598               0.000000000              -0.371288933              -0.425526948               0.000000000              -0.393359288              -0.450351299               0.000000000              -0.415429644              -0.475175649               0.000000000              -0.437500000              -0.500000000               0.000000000              -0.073890841              -0.110585458               0.000000000              -0.092710163              -0.134923867               0.000000000              -0.111529486              -0.159262276               0.000000000              -0.130348808              -0.183600685               0.000000000              -0.149168131              -0.207939094               0.000000000              -0.167987453              -0.232277503               0.000000000              -0.186806776              -0.256615912               0.000000000              -0.205626098              -0.280954320               0.000000000              -0.224445420              -0.305292729               0.000000000              -0.243264743              -0.329631138               0.000000000              -0.262084065              -0.353969547               0.000000000              -0.280903388              -0.378307956               0.000000000              -0.299722710              -0.402646365               0.000000000              -0.318542033              -0.426984773               0.000000000              -0.337361355              -0.451323182               0.000000000              -0.356180678              -0.475661591               0.000000000              -0.375000000              -0.500000000               0.000000000              -0.062695766              -0.117295528               0.000000000              -0.078308531              -0.141214558               0.000000000              -0.093921295              -0.165133587               0.000000000              -0.109534060              -0.189052617               0.000000000              -0.125146824              -0.212971646               0.000000000              -0.140759589              -0.236890676               0.000000000              -0.156372354              -0.260809705               0.000000000              -0.171985118              -0.284728735               0.000000000              -0.187597883              -0.308647764               0.000000000              -0.203210648              -0.332566794               0.000000000              -0.218823412              -0.356485823               0.000000000              -0.234436177              -0.380404853               0.000000000              -0.250048941              -0.404323882               0.000000000              -0.265661706              -0.428242912               0.000000000              -0.281274471              -0.452161941               0.000000000              -0.296887235              -0.476080971               0.000000000              -0.312500000              -0.500000000               0.000000000              -0.050896897              -0.122875978               0.000000000              -0.063340840              -0.146446229               0.000000000              -0.075784784              -0.170016481               0.000000000              -0.088228728              -0.193586732               0.000000000              -0.100672672              -0.217156983               0.000000000              -0.113116616              -0.240727235               0.000000000              -0.125560560              -0.264297486               0.000000000              -0.138004504              -0.287867738               0.000000000              -0.150448448              -0.311437989               0.000000000              -0.162892392              -0.335008240               0.000000000              -0.175336336              -0.358578492               0.000000000              -0.187780280              -0.382148743               0.000000000              -0.200224224              -0.405718994               0.000000000              -0.212668168              -0.429289246               0.000000000              -0.225112112              -0.452859497               0.000000000              -0.237556056              -0.476429749               0.000000000              -0.250000000              -0.500000000               0.000000000              -0.038607862              -0.127273065               0.000000000              -0.047913621              -0.150568498               0.000000000              -0.057219379              -0.173863932               0.000000000              -0.066525138              -0.197159365               0.000000000              -0.075830897              -0.220454798               0.000000000              -0.085136655              -0.243750232               0.000000000              -0.094442414              -0.267045665               0.000000000              -0.103748172              -0.290341099               0.000000000              -0.113053931              -0.313636532               0.000000000              -0.122359690              -0.336931966               0.000000000              -0.131665448              -0.360227399               0.000000000              -0.140971207              -0.383522833               0.000000000              -0.150276966              -0.406818266               0.000000000              -0.159582724              -0.430113700               0.000000000              -0.168888483              -0.453409133               0.000000000              -0.178194241              -0.476704567               0.000000000              -0.187500000              -0.500000000               0.000000000              -0.025947013              -0.130444442               0.000000000              -0.032137825              -0.153541665               0.000000000              -0.038328636              -0.176638887               0.000000000              -0.044519448              -0.199736109               0.000000000              -0.050710260              -0.222833332               0.000000000              -0.056901071              -0.245930554               0.000000000              -0.063091883              -0.269027776               0.000000000              -0.069282695              -0.292124999               0.000000000              -0.075473506              -0.315222221               0.000000000              -0.081664318              -0.338319444               0.000000000              -0.087855130              -0.361416666               0.000000000              -0.094045942              -0.384513888               0.000000000              -0.100236753              -0.407611111               0.000000000              -0.106427565              -0.430708333               0.000000000              -0.112618377              -0.453805555               0.000000000              -0.118809188              -0.476902778               0.000000000              -0.125000000              -0.500000000               0.000000000              -0.013036280              -0.132359569               0.000000000              -0.016127762              -0.155337096               0.000000000              -0.019219245              -0.178314623               0.000000000              -0.022310727              -0.201292150               0.000000000              -0.025402210              -0.224269676               0.000000000              -0.028493692              -0.247247203               0.000000000              -0.031585175              -0.270224730               0.000000000              -0.034676657              -0.293202257               0.000000000              -0.037768140              -0.316179784               0.000000000              -0.040859622              -0.339157311               0.000000000              -0.043951105              -0.362134838               0.000000000              -0.047042587              -0.385112365               0.000000000              -0.050134070              -0.408089892               0.000000000              -0.053225552              -0.431067419               0.000000000              -0.056317035              -0.454044946               0.000000000              -0.059408517              -0.477022473               0.000000000              -0.062500000              -0.500000000               0.000000000               0.000000000              -0.133000000               0.000000000               0.000000000              -0.155937500               0.000000000               0.000000000              -0.178875000               0.000000000               0.000000000              -0.201812500               0.000000000               0.000000000              -0.224750000               0.000000000               0.000000000              -0.247687500               0.000000000               0.000000000              -0.270625000               0.000000000               0.000000000              -0.293562500               0.000000000               0.000000000              -0.316500000               0.000000000               0.000000000              -0.339437500               0.000000000               0.000000000              -0.362375000               0.000000000               0.000000000              -0.385312500               0.000000000               0.000000000              -0.408250000               0.000000000               0.000000000              -0.431187500               0.000000000               0.000000000              -0.454125000               0.000000000               0.000000000              -0.477062500               0.000000000               0.000000000              -0.500000000               0.000000000              -0.133000000               0.000000000               0.000000000              -0.155937500               0.000000000               0.000000000              -0.178875000               0.000000000               0.000000000              -0.201812500               0.000000000               0.000000000              -0.224750000               0.000000000               0.000000000              -0.247687500               0.000000000               0.000000000              -0.270625000               0.000000000               0.000000000              -0.293562500               0.000000000               0.000000000              -0.316500000               0.000000000               0.000000000              -0.339437500               0.000000000               0.000000000              -0.362375000               0.000000000               0.000000000              -0.385312500               0.000000000               0.000000000              -0.408250000               0.000000000               0.000000000              -0.431187500               0.000000000               0.000000000              -0.454125000               0.000000000               0.000000000              -0.477062500               0.000000000               0.000000000              -0.500000000               0.000000000               0.000000000              -0.132359569               0.013036280               0.000000000              -0.155337096               0.016127762               0.000000000              -0.178314623               0.019219245               0.000000000              -0.201292150               0.022310727               0.000000000              -0.224269676               0.025402210               0.000000000              -0.247247203               0.028493692               0.000000000              -0.270224730               0.031585175               0.000000000              -0.293202257               0.034676657               0.000000000              -0.316179784               0.037768140               0.000000000              -0.339157311               0.040859622               0.000000000              -0.362134838               0.043951105               0.000000000              -0.385112365               0.047042587               0.000000000              -0.408089892               0.050134070               0.000000000              -0.431067419               0.053225552               0.000000000              -0.454044946               0.056317035               0.000000000              -0.477022473               0.059408517               0.000000000              -0.500000000               0.062500000               0.000000000              -0.130444442               0.025947013               0.000000000              -0.153541665               0.032137825               0.000000000              -0.176638887               0.038328636               0.000000000              -0.199736109               0.044519448               0.000000000              -0.222833332               0.050710260               0.000000000              -0.245930554               0.056901071               0.000000000              -0.269027776               0.063091883               0.000000000              -0.292124999               0.069282695               0.000000000              -0.315222221               0.075473506               0.000000000              -0.338319444               0.081664318               0.000000000              -0.361416666               0.087855130               0.000000000              -0.384513888               0.094045942               0.000000000              -0.407611111               0.100236753               0.000000000              -0.430708333               0.106427565               0.000000000              -0.453805555               0.112618377               0.000000000              -0.476902778               0.118809188               0.000000000              -0.500000000               0.125000000               0.000000000              -0.127273065               0.038607862               0.000000000              -0.150568498               0.047913621               0.000000000              -0.173863932               0.057219379               0.000000000              -0.197159365               0.066525138               0.000000000              -0.220454798               0.075830897               0.000000000              -0.243750232               0.085136655               0.000000000              -0.267045665               0.094442414               0.000000000              -0.290341099               0.103748172               0.000000000              -0.313636532               0.113053931               0.000000000              -0.336931966               0.122359690               0.000000000              -0.360227399               0.131665448               0.000000000              -0.383522833               0.140971207               0.000000000              -0.406818266               0.150276966               0.000000000              -0.430113700               0.159582724               0.000000000              -0.453409133               0.168888483               0.000000000              -0.476704567               0.178194241               0.000000000              -0.500000000               0.187500000               0.000000000              -0.122875978               0.050896897               0.000000000              -0.146446229               0.063340840               0.000000000              -0.170016481               0.075784784               0.000000000              -0.193586732               0.088228728               0.000000000              -0.217156983               0.100672672               0.000000000              -0.240727235               0.113116616               0.000000000              -0.264297486               0.125560560               0.000000000              -0.287867738               0.138004504               0.000000000              -0.311437989               0.150448448               0.000000000              -0.335008240               0.162892392               0.000000000              -0.358578492               0.175336336               0.000000000              -0.382148743               0.187780280               0.000000000              -0.405718994               0.200224224               0.000000000              -0.429289246               0.212668168               0.000000000              -0.452859497               0.225112112               0.000000000              -0.476429749               0.237556056               0.000000000              -0.500000000               0.250000000               0.000000000              -0.117295528               0.062695766               0.000000000              -0.141214558               0.078308531               0.000000000              -0.165133587               0.093921295               0.000000000              -0.189052617               0.109534060               0.000000000              -0.212971646               0.125146824               0.000000000              -0.236890676               0.140759589               0.000000000              -0.260809705               0.156372354               0.000000000              -0.284728735               0.171985118               0.000000000              -0.308647764               0.187597883               0.000000000              -0.332566794               0.203210648               0.000000000              -0.356485823               0.218823412               0.000000000              -0.380404853               0.234436177               0.000000000              -0.404323882               0.250048941               0.000000000              -0.428242912               0.265661706               0.000000000              -0.452161941               0.281274471               0.000000000              -0.476080971               0.296887235               0.000000000              -0.500000000               0.312500000               0.000000000              -0.110585458               0.073890841               0.000000000              -0.134923867               0.092710163               0.000000000              -0.159262276               0.111529486               0.000000000              -0.183600685               0.130348808               0.000000000              -0.207939094               0.149168131               0.000000000              -0.232277503               0.167987453               0.000000000              -0.256615912               0.186806776               0.000000000              -0.280954320               0.205626098               0.000000000              -0.305292729               0.224445420               0.000000000              -0.329631138               0.243264743               0.000000000              -0.353969547               0.262084065               0.000000000              -0.378307956               0.280903388               0.000000000              -0.402646365               0.299722710               0.000000000              -0.426984773               0.318542033               0.000000000              -0.451323182               0.337361355               0.000000000              -0.475661591               0.356180678               0.000000000              -0.500000000               0.375000000               0.000000000              -0.102810390               0.084374307               0.000000000              -0.127634741               0.106444663               0.000000000              -0.152459092               0.128515018               0.000000000              -0.177283442               0.150585374               0.000000000              -0.202107793               0.172655730               0.000000000              -0.226932143               0.194726086               0.000000000              -0.251756494               0.216796442               0.000000000              -0.276580845               0.238866798               0.000000000              -0.301405195               0.260937153               0.000000000              -0.326229546               0.283007509               0.000000000              -0.351053896               0.305077865               0.000000000              -0.375878247               0.327148221               0.000000000              -0.400702598               0.349218577               0.000000000              -0.425526948               0.371288933               0.000000000              -0.450351299               0.393359288               0.000000000              -0.475175649               0.415429644               0.000000000              -0.500000000               0.437500000               0.000000000              -0.094045202               0.094045202               0.000000000              -0.119417377               0.119417377               0.000000000              -0.144789552               0.144789552               0.000000000              -0.170161727               0.170161727               0.000000000              -0.195533901               0.195533901               0.000000000              -0.220906076               0.220906076               0.000000000              -0.246278251               0.246278251               0.000000000              -0.271650426               0.271650426               0.000000000              -0.297022601               0.297022601               0.000000000              -0.322394776               0.322394776               0.000000000              -0.347766951               0.347766951               0.000000000              -0.373139126               0.373139126               0.000000000              -0.398511300               0.398511300               0.000000000              -0.423883475               0.423883475               0.000000000              -0.449255650               0.449255650               0.000000000              -0.474627825               0.474627825               0.000000000              -0.500000000               0.500000000               0.000000000              -0.084374307               0.102810390               0.000000000              -0.106444663               0.127634741               0.000000000              -0.128515018               0.152459092               0.000000000              -0.150585374               0.177283442               0.000000000              -0.172655730               0.202107793               0.000000000              -0.194726086               0.226932143               0.000000000              -0.216796442               0.251756494               0.000000000              -0.238866798               0.276580845               0.000000000              -0.260937153               0.301405195               0.000000000              -0.283007509               0.326229546               0.000000000              -0.305077865               0.351053896               0.000000000              -0.327148221               0.375878247               0.000000000              -0.349218577               0.400702598               0.000000000              -0.371288933               0.425526948               0.000000000              -0.393359288               0.450351299               0.000000000              -0.415429644               0.475175649               0.000000000              -0.437500000               0.500000000               0.000000000              -0.073890841               0.110585458               0.000000000              -0.092710163               0.134923867               0.000000000              -0.111529486               0.159262276               0.000000000              -0.130348808               0.183600685               0.000000000              -0.149168131               0.207939094               0.000000000              -0.167987453               0.232277503               0.000000000              -0.186806776               0.256615912               0.000000000              -0.205626098               0.280954320               0.000000000              -0.224445420               0.305292729               0.000000000              -0.243264743               0.329631138               0.000000000              -0.262084065               0.353969547               0.000000000              -0.280903388               0.378307956               0.000000000              -0.299722710               0.402646365               0.000000000              -0.318542033               0.426984773               0.000000000              -0.337361355               0.451323182               0.000000000              -0.356180678               0.475661591               0.000000000              -0.375000000               0.500000000               0.000000000              -0.062695766               0.117295528               0.000000000              -0.078308531               0.141214558               0.000000000              -0.093921295               0.165133587               0.000000000              -0.109534060               0.189052617               0.000000000              -0.125146824               0.212971646               0.000000000              -0.140759589               0.236890676               0.000000000              -0.156372354               0.260809705               0.000000000              -0.171985118               0.284728735               0.000000000              -0.187597883               0.308647764               0.000000000              -0.203210648               0.332566794               0.000000000              -0.218823412               0.356485823               0.000000000              -0.234436177               0.380404853               0.000000000              -0.250048941               0.404323882               0.000000000              -0.265661706               0.428242912               0.000000000              -0.281274471               0.452161941               0.000000000              -0.296887235               0.476080971               0.000000000              -0.312500000               0.500000000               0.000000000              -0.050896897               0.122875978               0.000000000              -0.063340840               0.146446229               0.000000000              -0.075784784               0.170016481               0.000000000              -0.088228728               0.193586732               0.000000000              -0.100672672               0.217156983               0.000000000              -0.113116616               0.240727235               0.000000000              -0.125560560               0.264297486               0.000000000              -0.138004504               0.287867738               0.000000000              -0.150448448               0.311437989               0.000000000              -0.162892392               0.335008240               0.000000000              -0.175336336               0.358578492               0.000000000              -0.187780280               0.382148743               0.000000000              -0.200224224               0.405718994               0.000000000              -0.212668168               0.429289246               0.000000000              -0.225112112               0.452859497               0.000000000              -0.237556056               0.476429749               0.000000000              -0.250000000               0.500000000               0.000000000              -0.038607862               0.127273065               0.000000000              -0.047913621               0.150568498               0.000000000              -0.057219379               0.173863932               0.000000000              -0.066525138               0.197159365               0.000000000              -0.075830897               0.220454798               0.000000000              -0.085136655               0.243750232               0.000000000              -0.094442414               0.267045665               0.000000000              -0.103748172               0.290341099               0.000000000              -0.113053931               0.313636532               0.000000000              -0.122359690               0.336931966               0.000000000              -0.131665448               0.360227399               0.000000000              -0.140971207               0.383522833               0.000000000              -0.150276966               0.406818266               0.000000000              -0.159582724               0.430113700               0.000000000              -0.168888483               0.453409133               0.000000000              -0.178194241               0.476704567               0.000000000              -0.187500000               0.500000000               0.000000000              -0.025947013               0.130444442               0.000000000              -0.032137825               0.153541665               0.000000000              -0.038328636               0.176638887               0.000000000              -0.044519448               0.199736109               0.000000000              -0.050710260               0.222833332               0.000000000              -0.056901071               0.245930554               0.000000000              -0.063091883               0.269027776               0.000000000              -0.069282695               0.292124999               0.000000000              -0.075473506               0.315222221               0.000000000              -0.081664318               0.338319444               0.000000000              -0.087855130               0.361416666               0.000000000              -0.094045942               0.384513888               0.000000000              -0.100236753               0.407611111               0.000000000              -0.106427565               0.430708333               0.000000000              -0.112618377               0.453805555               0.000000000              -0.118809188               0.476902778               0.000000000              -0.125000000               0.500000000               0.000000000              -0.013036280               0.132359569               0.000000000              -0.016127762               0.155337096               0.000000000              -0.019219245               0.178314623               0.000000000              -0.022310727               0.201292150               0.000000000              -0.025402210               0.224269676               0.000000000              -0.028493692               0.247247203               0.000000000              -0.031585175               0.270224730               0.000000000              -0.034676657               0.293202257               0.000000000              -0.037768140               0.316179784               0.000000000              -0.040859622               0.339157311               0.000000000              -0.043951105               0.362134838               0.000000000              -0.047042587               0.385112365               0.000000000              -0.050134070               0.408089892               0.000000000              -0.053225552               0.431067419               0.000000000              -0.056317035               0.454044946               0.000000000              -0.059408517               0.477022473               0.000000000              -0.062500000               0.500000000               0.000000000               0.000000000               0.133000000               0.000000000               0.000000000               0.155937500               0.000000000               0.000000000               0.178875000               0.000000000               0.000000000               0.201812500               0.000000000               0.000000000               0.224750000               0.000000000               0.000000000               0.247687500               0.000000000               0.000000000               0.270625000               0.000000000               0.000000000               0.293562500               0.000000000               0.000000000               0.316500000               0.000000000               0.000000000               0.339437500               0.000000000               0.000000000               0.362375000               0.000000000               0.000000000               0.385312500               0.000000000               0.000000000               0.408250000               0.000000000               0.000000000               0.431187500               0.000000000               0.000000000               0.454125000               0.000000000               0.000000000               0.477062500               0.000000000               0.000000000               0.500000000               0.000000000 </DataArray>
</Points>
<Cells>
<DataArray type="Int32"                                    Name="connectivity"                                                      NumberOfComponents=" 1" format="ascii">
         0          1         18         17          1          2         19         18          2          3         20         19          3          4         21         20          4          5         22         21          5          6         23         22          6          7         24         23          7          8         25         24          8          9         26         25          9         10         27         26         10         11         28         27         11         12         29         28         12         13         30         29         13         14         31         30         14         15         32         31         15         16         33         32         17         18         35         34         18         19         36         35         19         20         37         36         20         21         38         37         21         22         39         38         22         23         40         39         23         24         41         40         24         25         42         41         25         26         43         42         26         27         44         43         27         28         45         44         28         29         46         45         29         30         47         46         30         31         48         47         31         32         49         48         32         33         50         49         34         35         52         51         35         36         53         52         36         37         54         53         37         38         55         54         38         39         56         55         39         40         57         56         40         41         58         57         41         42         59         58         42         43         60         59         43         44         61         60         44         45         62         61         45         46         63         62         46         47         64         63         47         48         65         64         48         49         66         65         49         50         67         66         51         52         69         68         52         53         70         69         53         54         71         70         54         55         72         71         55         56         73         72         56         57         74         73         57         58         75         74         58         59         76         75         59         60         77         76         60         61         78         77         61         62         79         78         62         63         80         79         63         64         81         80         64         65         82         81         65         66         83         82         66         67         84         83         68         69         86         85         69         70         87         86         70         71         88         87         71         72         89         88         72         73         90         89         73         74         91         90         74         75         92         91         75         76         93         92         76         77         94         93         77         78         95         94         78         79         96         95         79         80         97         96         80         81         98         97         81         82         99         98         82         83        100         99         83         84        101        100         85         86        103        102         86         87        104        103         87         88        105        104         88         89        106        105         89         90        107        106         90         91        108        107         91         92        109        108         92         93        110        109         93         94        111        110         94         95        112        111         95         96        113        112         96         97        114        113         97         98        115        114         98         99        116        115         99        100        117        116        100        101        118        117        102        103        120        119        103        104        121        120        104        105        122        121        105        106        123        122        106        107        124        123        107        108        125        124        108        109        126        125        109        110        127        126        110        111        128        127        111        112        129        128        112        113        130        129        113        114        131        130        114        115        132        131        115        116        133        132        116        117        134        133        117        118        135        134        119        120        137        136        120        121        138        137        121        122        139        138        122        123        140        139        123        124        141        140        124        125        142        141        125        126        143        142        126        127        144        143        127        128        145        144        128        129        146        145        129        130        147        146        130        131        148        147        131        132        149        148        132        133        150        149        133        134        151        150        134        135        152        151        136        137        154        153        137        138        155        154        138        139        156        155        139        140        157        156        140        141        158        157        141        142        159        158        142        143        160        159        143        144        161        160        144        145        162        161        145        146        163        162        146        147        164        163        147        148        165        164        148        149        166        165        149        150        167        166        150        151        168        167        151        152        169        168        153        154        171        170        154        155        172        171        155        156        173        172        156        157        174        173        157        158        175        174        158        159        176        175        159        160        177        176        160        161        178        177        161        162        179        178        162        163        180        179        163        164        181        180        164        165        182        181        165        166        183        182        166        167        184        183        167        168        185        184        168        169        186        185        170        171        188        187        171        172        189        188        172        173        190        189        173        174        191        190        174        175        192        191        175        176        193        192        176        177        194        193        177        178        195        194        178        179        196        195        179        180        197        196        180        181        198        197        181        182        199        198        182        183        200        199        183        184        201        200        184        185        202        201        185        186        203        202        187        188        205        204        188        189        206        205        189        190        207        206        190        191        208        207        191        192        209        208        192        193        210        209        193        194        211        210        194        195        212        211        195        196        213        212        196        197        214        213        197        198        215        214        198        199        216        215        199        200        217        216        200        201        218        217        201        202        219        218        202        203        220        219        204        205        222        221        205        206        223        222        206        207        224        223        207        208        225        224        208        209        226        225        209        210        227        226        210        211        228        227        211        212        229        228        212        213        230        229        213        214        231        230        214        215        232        231        215        216        233        232        216        217        234        233        217        218        235        234        218        219        236        235        219        220        237        236        221        222        239        238        222        223        240        239        223        224        241        240        224        225        242        241        225        226        243        242        226        227        244        243        227        228        245        244        228        229        246        245        229        230        247        246        230        231        248        247        231        232        249        248        232        233        250        249        233        234        251        250        234        235        252        251        235        236        253        252        236        237        254        253        238        239        256        255        239        240        257        256        240        241        258        257        241        242        259        258        242        243        260        259        243        244        261        260        244        245        262        261        245        246        263        262        246        247        264        263        247        248        265        264        248        249        266        265        249        250        267        266        250        251        268        267        251        252        269        268        252        253        270        269        253        254        271        270        255        256        273        272        256        257        274        273        257        258        275        274        258        259        276        275        259        260        277        276        260        261        278        277        261        262        279        278        262        263        280        279        263        264        281        280        264        265        282        281        265        266        283        282        266        267        284        283        267        268        285        284        268        269        286        285        269        270        287        286        270        271        288        287        306        307          1          0        307        308          2          1        308        309          3          2        309        310          4          3        310        311          5          4        311        312          6          5        312        313          7          6        313        314          8          7        314        315          9          8        315        316         10          9        316        317         11         10        317        318         12         11        318        319         13         12        319        320         14         13        320        321         15         14        321        322         16         15        323        324        307        306        324        325        308        307        325        326        309        308        326        327        310        309        327        328        311        310        328        329        312        311        329        330        313        312        330        331        314        313        331        332        315        314        332        333        316        315        333        334        317        316        334        335        318        317        335        336        319        318        336        337        320        319        337        338        321        320        338        339        322        321        340        341        324        323        341        342        325        324        342        343        326        325        343        344        327        326        344        345        328        327        345        346        329        328        346        347        330        329        347        348        331        330        348        349        332        331        349        350        333        332        350        351        334        333        351        352        335        334        352        353        336        335        353        354        337        336        354        355        338        337        355        356        339        338        357        358        341        340        358        359        342        341        359        360        343        342        360        361        344        343        361        362        345        344        362        363        346        345        363        364        347        346        364        365        348        347        365        366        349        348        366        367        350        349        367        368        351        350        368        369        352        351        369        370        353        352        370        371        354        353        371        372        355        354        372        373        356        355        374        375        358        357        375        376        359        358        376        377        360        359        377        378        361        360        378        379        362        361        379        380        363        362        380        381        364        363        381        382        365        364        382        383        366        365        383        384        367        366        384        385        368        367        385        386        369        368        386        387        370        369        387        388        371        370        388        389        372        371        389        390        373        372        391        392        375        374        392        393        376        375        393        394        377        376        394        395        378        377        395        396        379        378        396        397        380        379        397        398        381        380        398        399        382        381        399        400        383        382        400        401        384        383        401        402        385        384        402        403        386        385        403        404        387        386        404        405        388        387        405        406        389        388        406        407        390        389        408        409        392        391        409        410        393        392        410        411        394        393        411        412        395        394        412        413        396        395        413        414        397        396        414        415        398        397        415        416        399        398        416        417        400        399        417        418        401        400        418        419        402        401        419        420        403        402        420        421        404        403        421        422        405        404        422        423        406        405        423        424        407        406        425        426        409        408        426        427        410        409        427        428        411        410        428        429        412        411        429        430        413        412        430        431        414        413        431        432        415        414        432        433        416        415        433        434        417        416        434        435        418        417        435        436        419        418        436        437        420        419        437        438        421        420        438        439        422        421        439        440        423        422        440        441        424        423        442        443        426        425        443        444        427        426        444        445        428        427        445        446        429        428        446        447        430        429        447        448        431        430        448        449        432        431        449        450        433        432        450        451        434        433        451        452        435        434        452        453        436        435        453        454        437        436        454        455        438        437        455        456        439        438        456        457        440        439        457        458        441        440        459        460        443        442        460        461        444        443        461        462        445        444        462        463        446        445        463        464        447        446        464        465        448        447        465        466        449        448        466        467        450        449        467        468        451        450        468        469        452        451        469        470        453        452        470        471        454        453        471        472        455        454        472        473        456        455        473        474        457        456        474        475        458        457        476        477        460        459        477        478        461        460        478        479        462        461        479        480        463        462        480        481        464        463        481        482        465        464        482        483        466        465        483        484        467        466        484        485        468        467        485        486        469        468        486        487        470        469        487        488        471        470        488        489        472        471        489        490        473        472        490        491        474        473        491        492        475        474        493        494        477        476        494        495        478        477        495        496        479        478        496        497        480        479        497        498        481        480        498        499        482        481        499        500        483        482        500        501        484        483        501        502        485        484        502        503        486        485        503        504        487        486        504        505        488        487        505        506        489        488        506        507        490        489        507        508        491        490        508        509        492        491        510        511        494        493        511        512        495        494        512        513        496        495        513        514        497        496        514        515        498        497        515        516        499        498        516        517        500        499        517        518        501        500        518        519        502        501        519        520        503        502        520        521        504        503        521        522        505        504        522        523        506        505        523        524        507        506        524        525        508        507        525        526        509        508        527        528        511        510        528        529        512        511        529        530        513        512        530        531        514        513        531        532        515        514        532        533        516        515        533        534        517        516        534        535        518        517        535        536        519        518        536        537        520        519        537        538        521        520        538        539        522        521        539        540        523        522        540        541        524        523        541        542        525        524        542        543        526        525        544        545        528        527        545        546        529        528        546        547        530        529        547        548        531        530        548        549        532        531        549        550        533        532        550        551        534        533        551        552        535        534        552        553        536        535        553        554        537        536        554        555        538        537        555        556        539        538        556        557        540        539        557        558        541        540        558        559        542        541        559        560        543        542        561        562        545        544        562        563        546        545        563        564        547        546        564        565        548        547        565        566        549        548        566        567        550        549        567        568        551        550        568        569        552        551        569        570        553        552        570        571        554        553        571        572        555        554        572        573        556        555        573        574        557        556        574        575        558        557        575        576        559        558        576        577        560        559        578        579        596        595        579        580        597        596        580        581        598        597        581        582        599        598        582        583        600        599        583        584        601        600        584        585        602        601        585        586        603        602        586        587        604        603        587        588        605        604        588        589        606        605        589        590        607        606        590        591        608        607        591        592        609        608        592        593        610        609        593        594        611        610        595        596        613        612        596        597        614        613        597        598        615        614        598        599        616        615        599        600        617        616        600        601        618        617        601        602        619        618        602        603        620        619        603        604        621        620        604        605        622        621        605        606        623        622        606        607        624        623        607        608        625        624        608        609        626        625        609        610        627        626        610        611        628        627        612        613        630        629        613        614        631        630        614        615        632        631        615        616        633        632        616        617        634        633        617        618        635        634        618        619        636        635        619        620        637        636        620        621        638        637        621        622        639        638        622        623        640        639        623        624        641        640        624        625        642        641        625        626        643        642        626        627        644        643        627        628        645        644        629        630        647        646        630        631        648        647        631        632        649        648        632        633        650        649        633        634        651        650        634        635        652        651        635        636        653        652        636        637        654        653        637        638        655        654        638        639        656        655        639        640        657        656        640        641        658        657        641        642        659        658        642        643        660        659        643        644        661        660        644        645        662        661        646        647        664        663        647        648        665        664        648        649        666        665        649        650        667        666        650        651        668        667        651        652        669        668        652        653        670        669        653        654        671        670        654        655        672        671        655        656        673        672        656        657        674        673        657        658        675        674        658        659        676        675        659        660        677        676        660        661        678        677        661        662        679        678        663        664        681        680        664        665        682        681        665        666        683        682        666        667        684        683        667        668        685        684        668        669        686        685        669        670        687        686        670        671        688        687        671        672        689        688        672        673        690        689        673        674        691        690        674        675        692        691        675        676        693        692        676        677        694        693        677        678        695        694        678        679        696        695        680        681        698        697        681        682        699        698        682        683        700        699        683        684        701        700        684        685        702        701        685        686        703        702        686        687        704        703        687        688        705        704        688        689        706        705        689        690        707        706        690        691        708        707        691        692        709        708        692        693        710        709        693        694        711        710        694        695        712        711        695        696        713        712        697        698        715        714        698        699        716        715        699        700        717        716        700        701        718        717        701        702        719        718        702        703        720        719        703        704        721        720        704        705        722        721        705        706        723        722        706        707        724        723        707        708        725        724        708        709        726        725        709        710        727        726        710        711        728        727        711        712        729        728        712        713        730        729        714        715        732        731        715        716        733        732        716        717        734        733        717        718        735        734        718        719        736        735        719        720        737        736        720        721        738        737        721        722        739        738        722        723        740        739        723        724        741        740        724        725        742        741        725        726        743        742        726        727        744        743        727        728        745        744        728        729        746        745        729        730        747        746        731        732        749        748        732        733        750        749        733        734        751        750        734        735        752        751        735        736        753        752        736        737        754        753        737        738        755        754        738        739        756        755        739        740        757        756        740        741        758        757        741        742        759        758        742        743        760        759        743        744        761        760        744        745        762        761        745        746        763        762        746        747        764        763        748        749        766        765        749        750        767        766        750        751        768        767        751        752        769        768        752        753        770        769        753        754        771        770        754        755        772        771        755        756        773        772        756        757        774        773        757        758        775        774        758        759        776        775        759        760        777        776        760        761        778        777        761        762        779        778        762        763        780        779        763        764        781        780        765        766        783        782        766        767        784        783        767        768        785        784        768        769        786        785        769        770        787        786        770        771        788        787        771        772        789        788        772        773        790        789        773        774        791        790        774        775        792        791        775        776        793        792        776        777        794        793        777        778        795        794        778        779        796        795        779        780        797        796        780        781        798        797        782        783        800        799        783        784        801        800        784        785        802        801        785        786        803        802        786        787        804        803        787        788        805        804        788        789        806        805        789        790        807        806        790        791        808        807        791        792        809        808        792        793        810        809        793        794        811        810        794        795        812        811        795        796        813        812        796        797        814        813        797        798        815        814        799        800        817        816        800        801        818        817        801        802        819        818        802        803        820        819        803        804        821        820        804        805        822        821        805        806        823        822        806        807        824        823        807        808        825        824        808        809        826        825        809        810        827        826        810        811        828        827        811        812        829        828        812        813        830        829        813        814        831        830        814        815        832        831        816        817        834        833        817        818        835        834        818        819        836        835        819        820        837        836        820        821        838        837        821        822        839        838        822        823        840        839        823        824        841        840        824        825        842        841        825        826        843        842        826        827        844        843        827        828        845        844        828        829        846        845        829        830        847        846        830        831        848        847        831        832        849        848        833        834        562        561        834        835        563        562        835        836        564        563        836        837        565        564        837        838        566        565        838        839        567        566        839        840        568        567        840        841        569        568        841        842        570        569        842        843        571        570        843        844        572        571        844        845        573        572        845        846        574        573        846        847        575        574        847        848        576        575        848        849        577        576        884        885        579        578        885        886        580        579        886        887        581        580        887        888        582        581        888        889        583        582        889        890        584        583        890        891        585        584        891        892        586        585        892        893        587        586        893        894        588        587        894        895        589        588        895        896        590        589        896        897        591        590        897        898        592        591        898        899        593        592        899        900        594        593        901        902        885        884        902        903        886        885        903        904        887        886        904        905        888        887        905        906        889        888        906        907        890        889        907        908        891        890        908        909        892        891        909        910        893        892        910        911        894        893        911        912        895        894        912        913        896        895        913        914        897        896        914        915        898        897        915        916        899        898        916        917        900        899        918        919        902        901        919        920        903        902        920        921        904        903        921        922        905        904        922        923        906        905        923        924        907        906        924        925        908        907        925        926        909        908        926        927        910        909        927        928        911        910        928        929        912        911        929        930        913        912        930        931        914        913        931        932        915        914        932        933        916        915        933        934        917        916        935        936        919        918        936        937        920        919        937        938        921        920        938        939        922        921        939        940        923        922        940        941        924        923        941        942        925        924        942        943        926        925        943        944        927        926        944        945        928        927        945        946        929        928        946        947        930        929        947        948        931        930        948        949        932        931        949        950        933        932        950        951        934        933        952        953        936        935        953        954        937        936        954        955        938        937        955        956        939        938        956        957        940        939        957        958        941        940        958        959        942        941        959        960        943        942        960        961        944        943        961        962        945        944        962        963        946        945        963        964        947        946        964        965        948        947        965        966        949        948        966        967        950        949        967        968        951        950        969        970        953        952        970        971        954        953        971        972        955        954        972        973        956        955        973        974        957        956        974        975        958        957        975        976        959        958        976        977        960        959        977        978        961        960        978        979        962        961        979        980        963        962        980        981        964        963        981        982        965        964        982        983        966        965        983        984        967        966        984        985        968        967        986        987        970        969        987        988        971        970        988        989        972        971        989        990        973        972        990        991        974        973        991        992        975        974        992        993        976        975        993        994        977        976        994        995        978        977        995        996        979        978        996        997        980        979        997        998        981        980        998        999        982        981        999       1000        983        982       1000       1001        984        983       1001       1002        985        984       1003       1004        987        986       1004       1005        988        987       1005       1006        989        988       1006       1007        990        989       1007       1008        991        990       1008       1009        992        991       1009       1010        993        992       1010       1011        994        993       1011       1012        995        994       1012       1013        996        995       1013       1014        997        996       1014       1015        998        997       1015       1016        999        998       1016       1017       1000        999       1017       1018       1001       1000       1018       1019       1002       1001       1020       1021       1004       1003       1021       1022       1005       1004       1022       1023       1006       1005       1023       1024       1007       1006       1024       1025       1008       1007       1025       1026       1009       1008       1026       1027       1010       1009       1027       1028       1011       1010       1028       1029       1012       1011       1029       1030       1013       1012       1030       1031       1014       1013       1031       1032       1015       1014       1032       1033       1016       1015       1033       1034       1017       1016       1034       1035       1018       1017       1035       1036       1019       1018       1037       1038       1021       1020       1038       1039       1022       1021       1039       1040       1023       1022       1040       1041       1024       1023       1041       1042       1025       1024       1042       1043       1026       1025       1043       1044       1027       1026       1044       1045       1028       1027       1045       1046       1029       1028       1046       1047       1030       1029       1047       1048       1031       1030       1048       1049       1032       1031       1049       1050       1033       1032       1050       1051       1034       1033       1051       1052       1035       1034       1052       1053       1036       1035       1054       1055       1038       1037       1055       1056       1039       1038       1056       1057       1040       1039       1057       1058       1041       1040       1058       1059       1042       1041       1059       1060       1043       1042       1060       1061       1044       1043       1061       1062       1045       1044       1062       1063       1046       1045       1063       1064       1047       1046       1064       1065       1048       1047       1065       1066       1049       1048       1066       1067       1050       1049       1067       1068       1051       1050       1068       1069       1052       1051       1069       1070       1053       1052       1071       1072       1055       1054       1072       1073       1056       1055       1073       1074       1057       1056       1074       1075       1058       1057       1075       1076       1059       1058       1076       1077       1060       1059       1077       1078       1061       1060       1078       1079       1062       1061       1079       1080       1063       1062       1080       1081       1064       1063       1081       1082       1065       1064       1082       1083       1066       1065       1083       1084       1067       1066       1084       1085       1068       1067       1085       1086       1069       1068       1086       1087       1070       1069       1088       1089       1072       1071       1089       1090       1073       1072       1090       1091       1074       1073       1091       1092       1075       1074       1092       1093       1076       1075       1093       1094       1077       1076       1094       1095       1078       1077       1095       1096       1079       1078       1096       1097       1080       1079       1097       1098       1081       1080       1098       1099       1082       1081       1099       1100       1083       1082       1100       1101       1084       1083       1101       1102       1085       1084       1102       1103       1086       1085       1103       1104       1087       1086       1105       1106       1089       1088       1106       1107       1090       1089       1107       1108       1091       1090       1108       1109       1092       1091       1109       1110       1093       1092       1110       1111       1094       1093       1111       1112       1095       1094       1112       1113       1096       1095       1113       1114       1097       1096       1114       1115       1098       1097       1115       1116       1099       1098       1116       1117       1100       1099       1117       1118       1101       1100       1118       1119       1102       1101       1119       1120       1103       1102       1120       1121       1104       1103       1122       1123       1106       1105       1123       1124       1107       1106       1124       1125       1108       1107       1125       1126       1109       1108       1126       1127       1110       1109       1127       1128       1111       1110       1128       1129       1112       1111       1129       1130       1113       1112       1130       1131       1114       1113       1131       1132       1115       1114       1132       1133       1116       1115       1133       1134       1117       1116       1134       1135       1118       1117       1135       1136       1119       1118       1136       1137       1120       1119       1137       1138       1121       1120        272        273       1123       1122        273        274       1124       1123        274        275       1125       1124        275        276       1126       1125        276        277       1127       1126        277        278       1128       1127        278        279       1129       1128        279        280       1130       1129        280        281       1131       1130        281        282       1132       1131        282        283       1133       1132        283        284       1134       1133        284        285       1135       1134        285        286       1136       1135        286        287       1137       1136        287        288       1138       1137 </DataArray>
<DataArray type="Int32"                                    Name="offsets"                                                      NumberOfComponents=" 1" format="ascii">
         4          8         12         16         20         24         28         32         36         40         44         48         52         56         60         64         68         72         76         80         84         88         92         96        100        104        108        112        116        120        124        128        132        136        140        144        148        152        156        160        164        168        172        176        180        184        188        192        196        200        204        208        212        216        220        224        228        232        236        240        244        248        252        256        260        264        268        272        276        280        284        288        292        296        300        304        308        312        316        320        324        328        332        336        340        344        348        352        356        360        364        368        372        376        380        384        388        392        396        400        404        408        412        416        420        424        428        432        436        440        444        448        452        456        460        464        468        472        476        480        484        488        492        496        500        504        508        512        516        520        524        528        532        536        540        544        548        552        556        560        564        568        572        576        580        584        588        592        596        600        604        608        612        616        620        624        628        632        636        640        644        648        652        656        660        664        668        672        676        680        684        688        692        696        700        704        708        712        716        720        724        728        732        736        740        744        748        752        756        760        764        768        772        776        780        784        788        792        796        800        804        808        812        816        820        824        828        832        836        840        844        848        852        856        860        864        868        872        876        880        884        888        892        896        900        904        908        912        916        920        924        928        932        936        940        944        948        952        956        960        964        968        972        976        980        984        988        992        996       1000       1004       1008       1012       1016       1020       1024       1028       1032       1036       1040       1044       1048       1052       1056       1060       1064       1068       1072       1076       1080       1084       1088       1092       1096       1100       1104       1108       1112       1116       1120       1124       1128       1132       1136       1140       1144       1148       1152       1156       1160       1164       1168       1172       1176       1180       1184       1188       1192       1196       1200       1204       1208       1212       1216       1220       1224       1228       1232       1236       1240       1244       1248       1252       1256       1260       1264       1268       1272       1276       1280       1284       1288       1292       1296       1300       1304       1308       1312       1316       1320       1324       1328       1332       1336       1340       1344       1348       1352       1356       1360       1364       1368       1372       1376       1380       1384       1388       1392       1396       1400       1404       1408       1412       1416       1420       1424       1428       1432       1436       1440       1444       1448       1452       1456       1460       1464       1468       1472       1476       1480       1484       1488       1492       1496       1500       1504       1508       1512       1516       1520       1524       1528       1532       1536       1540       1544       1548       1552       1556       1560       1564       1568       1572       1576       1580       1584       1588       1592       1596       1600       1604       1608       1612       1616       1620       1624       1628       1632       1636       1640       1644       1648       1652       1656       1660       1664       1668       1672       1676       1680       1684       1688       1692       1696       1700       1704       1708       1712       1716       1720       1724       1728       1732       1736       1740       1744       1748       1752       1756       1760       1764       1768       1772       1776       1780       1784       1788       1792       1796       1800       1804       1808       1812       1816       1820       1824       1828       1832       1836       1840       1844       1848       1852       1856       1860       1864       1868       1872       1876       1880       1884       1888       1892       1896       1900       1904       1908       1912       1916       1920       1924       1928       1932       1936       1940       1944       1948       1952       1956       1960       1964       1968       1972       1976       1980       1984       1988       1992       1996       2000       2004       2008       2012       2016       2020       2024       2028       2032       2036       2040       2044       2048       2052       2056       2060       2064       2068       2072       2076       2080       2084       2088       2092       2096       2100       2104       2108       2112       2116       2120       2124       2128       2132       2136       2140       2144       2148       2152       2156       2160       2164       2168       2172       2176       2180       2184       2188       2192       2196       2200       2204       2208       2212       2216       2220       2224       2228       2232       2236       2240       2244       2248       2252       2256       2260       2264       2268       2272       2276       2280       2284       2288       2292       2296       2300       2304       2308       2312       2316       2320       2324       2328       2332       2336       2340       2344       2348       2352       2356       2360       2364       2368       2372       2376       2380       2384       2388       2392       2396       2400       2404       2408       2412       2416       2420       2424       2428       2432       2436       2440       2444       2448       2452       2456       2460       2464       2468       2472       2476       2480       2484       2488       2492       2496       2500       2504       2508       2512       2516       2520       2524       2528       2532       2536       2540       2544       2548       2552       2556       2560       2564       2568       2572       2576       2580       2584       2588       2592       2596       2600       2604       2608       2612       2616       2620       2624       2628       2632       2636       2640       2644       2648       2652       2656       2660       2664       2668       2672       2676       2680       2684       2688       2692       2696       2700       2704       2708       2712       2716       2720       2724       2728       2732       2736       2740       2744       2748       2752       2756       2760       2764       2768       2772       2776       2780       2784       2788       2792       2796       2800       2804       2808       2812       2816       2820       2824       2828       2832       2836       2840       2844       2848       2852       2856       2860       2864       2868       2872       2876       2880       2884       2888       2892       2896       2900       2904       2908       2912       2916       2920       2924       2928       2932       2936       2940       2944       2948       2952       2956       2960       2964       2968       2972       2976       2980       2984       2988       2992       2996       3000       3004       3008       3012       3016       3020       3024       3028       3032       3036       3040       3044       3048       3052       3056       3060       3064       3068       3072       3076       3080       3084       3088       3092       3096       3100       3104       3108       3112       3116       3120       3124       3128       3132       3136       3140       3144       3148       3152       3156       3160       3164       3168       3172       3176       3180       3184       3188       3192       3196       3200       3204       3208       3212       3216       3220       3224       3228       3232       3236       3240       3244       3248       3252       3256       3260       3264       3268       3272       3276       3280       3284       3288       3292       3296       3300       3304       3308       3312       3316       3320       3324       3328       3332       3336       3340       3344       3348       3352       3356       3360       3364       3368       3372       3376       3380       3384       3388       3392       3396       3400       3404       3408       3412       3416       3420       3424       3428       3432       3436       3440       3444       3448       3452       3456       3460       3464       3468       3472       3476       3480       3484       3488       3492       3496       3500       3504       3508       3512       3516       3520       3524       3528       3532       3536       3540       3544       3548       3552       3556       3560       3564       3568       3572       3576       3580       3584       3588       3592       3596       3600       3604       3608       3612       3616       3620       3624       3628       3632       3636       3640       3644       3648       3652       3656       3660       3664       3668       3672       3676       3680       3684       3688       3692       3696       3700       3704       3708       3712       3716       3720       3724       3728       3732       3736       3740       3744       3748       3752       3756       3760       3764       3768       3772       3776       3780       3784       3788       3792       3796       3800       3804       3808       3812       3816       3820       3824       3828       3832       3836       3840       3844       3848       3852       3856       3860       3864       3868       3872       3876       3880       3884       3888       3892       3896       3900       3904       3908       3912       3916       3920       3924       3928       3932       3936       3940       3944       3948       3952       3956       3960       3964       3968       3972       3976       3980       3984       3988       3992       3996       4000       4004       4008       4012       4016       4020       4024       4028       4032       4036       4040       4044       4048       4052       4056       4060       4064       4068       4072       4076       4080       4084       4088       4092       4096 </DataArray>
<DataArray type="UInt8"                                    Name="types"                                                      NumberOfComponents=" 1" format="ascii">
         9          9          9          9          9          9          9          9          9          9          9          9          9          9          9          9          9          9          9          9          9          9          9          9          9          9          9          9          9          9          9          9          9          9          9          9          9          9          9          9          9          9          9          9          9          9          9          9          9          9          9          9          9          9          9          9          9          9          9          9          9          9          9          9          9          9          9          9          9          9          9          9          9          9          9          9          9          9          9          9          9          9          9          9          9          9          9          9          9          9          9          9          9          9          9          9          9          9          9          9          9          9          9          9          9          9          9          9          9          9          9          9          9          9          9          9          9          9          9          9          9          9          9          9          9          9          9          9          9          9          9          9          9          9          9          9          9          9          9          9          9          9          9          9          9          9          9          9          9          9          9          9          9          9          9          9          9          9          9          9          9          9          9          9          9          9          9          9          9          9          9          9          9          9          9          9          9          9          9          9          9          9          9          9          9          9          9          9          9          9          9          9          9          9          9          9          9          9          9          9          9          9          9          9          9          9          9          9          9          9          9          9          9          9          9          9          9          9          9          9          9          9          9          9          9          9          9          9          9          9          9          9          9          9          9          9          9          9          9          9          9          9          9          9          9          9          9          9          9          9          9          9          9          9          9          9          9          9          9          9          9          9          9          9          9          9          9          9          9          9          9          9          9          9          9          9          9          9          9          9          9          9          9          9          9          9          9          9          9          9          9          9          9          9          9          9          9          9          9          9          9          9          9          9          9          9          9          9          9          9          9          9          9          9          9          9          9          9          9          9          9          9          9          9          9          9          9          9          9          9          9          9          9          9          9          9          9          9          9          9          9          9          9          9          9          9          9          9          9          9          9          9          9          9          9          9          9          9          9          9          9          9          9          9          9          9          9          9          9          9          9          9          9          9          9          9          9          9          9          9          9          9          9          9          9          9          9          9          9          9          9          9          9          9          9          9          9          9          9          9          9          9          9          9          9          9          9          9          9          9          9          9          9          9          9          9          9          9          9          9          9          9          9          9          9          9          9          9          9          9          9          9          9          9          9          9          9          9          9          9          9          9          9          9          9          9          9          9          9          9          9          9          9          9          9          9          9          9          9          9          9          9          9          9          9          9          9          9          9          9          9          9          9          9          9          9          9          9          9          9          9          9          9          9          9          9          9          9          9          9          9          9          9          9          9          9          9          9          9          9          9          9          9          9          9          9          9          9          9          9          9          9          9          9          9          9          9          9          9          9          9          9          9          9          9          9          9          9          9          9          9          9          9          9          9          9          9          9          9          9          9          9          9          9          9          9          9          9          9          9          9          9          9          9          9          9          9          9          9          9          9          9          9          9          9          9          9          9          9          9          9          9          9          9          9          9          9          9          9          9          9          9          9          9          9          9          9          9          9          9          9          9          9          9          9          9          9          9          9          9          9          9          9          9          9          9          9          9          9          9          9          9          9          9          9          9          9          9          9          9          9          9          9          9          9          9          9          9          9          9          9          9          9          9          9          9          9          9          9          9          9          9          9          9          9          9          9          9          9          9          9          9          9          9          9          9          9          9          9          9          9          9          9          9          9          9          9          9          9          9          9          9          9          9          9          9          9          9          9          9          9          9          9          9          9          9          9          9          9          9          9          9          9          9          9          9          9          9          9          9          9          9          9          9          9          9          9          9          9          9          9          9          9          9          9          9          9          9          9          9          9          9          9          9          9          9          9          9          9          9          9          9          9          9          9          9          9          9          9          9          9          9          9          9          9          9          9          9          9          9          9          9          9          9          9          9          9          9          9          9          9          9          9          9          9          9          9          9          9          9          9          9          9          9          9          9          9          9          9          9          9          9          9          9          9          9          9          9          9          9          9          9          9          9          9          9          9          9          9          9          9          9          9          9          9          9          9          9          9          9          9          9          9          9          9          9          9          9          9          9          9          9          9          9          9          9          9          9          9          9          9          9          9          9          9          9          9          9          9          9          9          9          9          9          9          9          9          9          9          9          9          9          9          9          9          9          9          9          9          9          9          9          9          9          9          9          9          9          9          9          9          9          9          9          9          9          9          9          9          9          9          9          9          9          9          9          9          9          9          9          9          9          9          9          9          9          9          9          9          9          9          9          9          9          9          9          9          9          9          9          9          9          9          9          9          9          9          9          9          9          9          9          9          9          9          9          9          9          9          9          9          9          9          9          9          9          9          9          9          9          9          9          9          9          9          9          9          9          9          9          9          9          9          9          9          9          9          9          9          9          9          9          9          9          9          9          9          9          9          9          9          9          9          9          9          9          9          9          9          9          9          9          9          9          9          9          9          9          9          9          9          9          9          9          9          9          9          9          9          9          9          9          9          9          9          9          9          9          9          9          9          9          9          9          9          9          9          9          9          9          9          9          9          9 </DataArray>
</Cells>
<CellData>
<DataArray type="Int32"                                    Name="material"                                                      NumberOfComponents=" 1" format="ascii">
         1          1          1          1          1          1          1          1          1          1          1          1          1          1          1          1          1          1          1          1          1          1          1          1          1          1          1          1          1          1          1          1          1          1          1          1          1          1          1          1          1          1          1          1          1          1          1          1          1          1          1          1          1          1          1          1          1          1          1          1          1          1          1          1          1          1          1          1          1          1          1          1          1          1          1          1          1          1          1          1          1          1          1          1          1          1          1          1          1          1          1          1          1          1          1          1          1          1          1          1          1          1          1          1          1          1          1          1          1          1          1          1          1          1          1          1          1          1          1          1          1          1          1          1          1          1          1          1          1          1          1          1          1          1          1          1          1          1          1          1          1          1          1          1          1          1          1          1          1          1          1          1          1          1          1          1          1          1          1          1          1          1          1          1          1          1          1          1          1          1          1          1          1          1          1          1          1          1          1          1          1          1          1          1          1          1          1          1          1          1          1          1          1          1          1          1          1          1          1          1          1          1          1          1          1          1          1          1          1          1          1          1          1          1          1          1          1          1          1          1          1          1          1          1          1          1          1          1          1          1          1          1          1          1          1          1          1          1          1          1          1          1          1          1          1          1          1          1          1          1          1          1          1          1          1          1          1          1          1          1          1          1          1          1          1          1          1          1          1          1          1          1          1          1          1          1          1          1          1          1          1          1          1          1          1          1          1          1          1          1          1          1          1          1          1          1          1          1          1          1          1          1          1          1          1          1          1          1          1          1          1          1          1          1          1          1          1          1          1          1          1          1          1          1          1          1          1          1          1          1          1          1          1          1          1          1          1          1          1          1          1          1          1          1          1          1          1          1          1          1          1          1          1          1          1          1          1          1          1          1          1          1          1          1          1          1          1          1          1          1          1          1          1          1          1          1          1          1          1          1          1          1          1          1          1          1          1          1          1          1          1          1          1          1          1          1          1          1          1          1          1          1          1          1          1          1          1          1          1          1          1          1          1          1          1          1          1          1          1          1          1          1          1          1          1          1          1          1          1          1          1          1          1          1          1          1          1          1          1          1          1          1          1          1          1          1          1          1          1          1          1          1          1          1          1          1          1          1          1          1          1          1          1          1          1          1          1          1          1          1          1          1          1          1          1          1          1          1          1          1          1          1          1          1          1          1          1          1          1          1          1          1          1          1          1          1          1          1          1          1          1          1          1          1          1          1          1          1          1          1          1          1          1          1          1          1          1          1          1          1          1          1          1          1          1          1          1          1          1          1          1          1          1          1          1          1          1          1          1          1          1          1          1          1          1          1          1          1          1          1          1          1          1          1          1          1          1          1          1          1          1          1          1          1          1          1          1          1          1          1          1          1          1          1          1          1          1          1          1          1          1          1          1          1          1          1          1          1          1          1          1          1          1          1          1          1          1          1          1          1          1          1          1          1          1          1          1          1          1          1          1          1          1          1          1          1          1          1          1          1          1          1          1          1          1          1          1          1          1          1          1          1          1          1          1          1          1          1          1          1          1          1          1          1          1          1          1          1          1          1          1          1          1          1          1          1          1          1          1          1          1          1          1          1          1          1          1          1          1          1          1          1          1          1          1          1          1          1          1          1          1          1          1          1          1          1          1          1          1          1          1          1          1          1          1          1          1          1          1          1          1          1          1          1          1          1          1          1          1          1          1          1          1          1          1          1          1          1          1          1          1          1          1          1          1          1          1          1          1          1          1          1          1          1          1          1          1          1          1          1          1          1          1          1          1          1          1          1          1          1          1          1          1          1          1          1          1          1          1          1          1          1          1          1          1          1          1          1          1          1          1          1          1          1          1          1          1          1          1          1          1          1          1          1          1          1          1          1          1          1          1          1          1          1          1          1          1          1          1          1          1          1          1          1          1          1          1          1          1          1          1          1          1          1          1          1          1          1          1          1          1          1          1          1          1          1          1          1          1          1          1          1          1          1          1          1          1          1          1          1          1          1          1          1          1          1          1          1          1          1          1          1          1          1          1          1          1          1          1          1          1          1          1          1          1          1          1          1          1          1          1          1          1          1          1          1          1          1          1          1          1          1          1          1          1          1          1          1          1          1          1          1          1          1          1          1          1          1          1          1          1          1          1          1          1          1          1          1          1          1          1          1          1          1          1          1          1          1          1          1          1          1          1          1          1          1          1          1          1          1          1          1          1          1          1          1          1          1          1          1          1          1          1          1          1          1          1          1          1          1          1          1          1          1          1          1          1          1          1          1          1          1          1          1          1          1          1          1          1          1          1          1          1          1          1          1          1          1          1          1          1          1          1          1          1          1          1          1          1          1          1          1          1          1          1          1          1          1          1          1          1          1          1          1          1          1          1          1          1          1          1          1          1          1          1          1          1          1          1          1          1          1          1          1 </DataArray>
</CellData>
<PointData>
<DataArray type="Float64"                                    Name="u"                                                      NumberOfComponents=" 3" format="ascii">
             -0.000454699               0.000000000               0.999999985              -0.000497017               0.000000000               0.999999985              -0.000516334               0.000000000               0.999999985              -0.000527846               0.000000000               0.999999985              -0.000537154               0.000000000               0.999999985              -0.000546345               0.000000000               0.999999985              -0.000556334               0.000000000               0.999999985              -0.000567315               0.000000000               0.999999985              -0.000579346               0.000000000               0.999999985              -0.000592285               0.000000000               0.999999985              -0.000605978               0.000000000               0.999999985              -0.000620339               0.000000000               0.999999985              -0.000635162               0.000000000               0.999999985              -0.000650249               0.000000000               0.999999985              -0.000665275               0.000000000               0.999999985              -0.000679838               0.000000000               0.999999985              -0.000693485              -0.000000000               0.999999985              -0.000452073               0.000107895               0.999999985              -0.000491552               0.000089859               0.999999985              -0.000509120               0.000082780               0.999999985              -0.000519582               0.000081398               0.999999985              -0.000528259               0.000082850               0.999999985              -0.000537058               0.000085924               0.999999985              -0.000546729               0.000089857               0.999999985              -0.000557436               0.000094195               0.999999985              -0.000569097               0.000098627               0.999999985              -0.000581548               0.000102785               0.999999985              -0.000594716               0.000106625               0.999999985              -0.000608417               0.000110021               0.999999985              -0.000622457               0.000112603               0.999999985              -0.000636626               0.000113969               0.999999985              -0.000650642               0.000113685               0.999999985              -0.000664181               0.000111314               0.999999985              -0.000676765               0.000106161               0.999999985              -0.000444193               0.000214583               0.999999985              -0.000475433               0.000178973               0.999999985              -0.000488199               0.000165689               0.999999985              -0.000495833               0.000163611               0.999999985              -0.000502817               0.000167092               0.999999985              -0.000510624               0.000173637               0.999999985              -0.000519529               0.000181777               0.999999985              -0.000529474               0.000190587               0.999999985              -0.000540243               0.000199324               0.999999985              -0.000551582               0.000207700               0.999999985              -0.000563352               0.000215513               0.999999985              -0.000575245               0.000222358               0.999999985              -0.000587087               0.000227622               0.999999985              -0.000598626               0.000230679               0.999999985              -0.000609646               0.000231118               0.999999985              -0.000620037               0.000228229               0.999999985              -0.000629665               0.000221022               0.999999985              -0.000431277               0.000318932               0.999999985              -0.000449630               0.000266811               0.999999985              -0.000455472               0.000248918               0.999999985              -0.000459493               0.000247250               0.999999985              -0.000464538               0.000253664               0.999999985              -0.000471189               0.000264235               0.999999985              -0.000479273               0.000276874               0.999999985              -0.000488336               0.000290165               0.999999985              -0.000497961               0.000303376               0.999999985              -0.000507790               0.000315945               0.999999985              -0.000517516               0.000327580               0.999999985              -0.000526876               0.000337738               0.999999985              -0.000535609               0.000345855               0.999999985              -0.000543625               0.000351356               0.999999985              -0.000550818               0.000353962               0.999999985              -0.000557307               0.000353217               0.999999985              -0.000563380               0.000348529               0.999999985              -0.000413665               0.000419877               0.999999985              -0.000415666               0.000353069               0.999999985              -0.000413921               0.000332442               0.999999985              -0.000414589               0.000332507               0.999999985              -0.000418197               0.000342633               0.999999985              -0.000424104               0.000357648               0.999999985              -0.000431463               0.000374977               0.999999985              -0.000439679               0.000392802               0.999999985              -0.000448044               0.000410325               0.999999985              -0.000456021               0.000426978               0.999999985              -0.000463382               0.000442360               0.999999985              -0.000469873               0.000455821               0.999999985              -0.000475297               0.000466984               0.999999985              -0.000479687               0.000475623               0.999999985              -0.000483264               0.000481643               0.999999985              -0.000486359               0.000485321               0.999999985              -0.000489315               0.000486577               0.999999985              -0.000391883               0.000516347               0.999999985              -0.000375512               0.000437538               0.999999985              -0.000366914               0.000416079               0.999999985              -0.000365348               0.000419014               0.999999985              -0.000368449               0.000433226               0.999999985              -0.000374212               0.000452767               0.999999985              -0.000381239               0.000474693               0.999999985              -0.000388662               0.000497054               0.999999985              -0.000395783               0.000518728               0.999999985              -0.000402082               0.000539157               0.999999985              -0.000407204               0.000557875               0.999999985              -0.000410877               0.000574502               0.999999985              -0.000413266               0.000588877               0.999999985              -0.000414683               0.000601292               0.999999985              -0.000415434               0.000611958               0.999999985              -0.000415798               0.000621052               0.999999985              -0.000415779               0.000628955               0.999999985              -0.000366382               0.000607459               0.999999985              -0.000331342               0.000520018               0.999999985              -0.000317626               0.000499413               0.999999985              -0.000315433               0.000505789               0.999999985              -0.000319044               0.000524195               0.999999985              -0.000325252               0.000548139               0.999999985              -0.000332386               0.000574374               0.999999985              -0.000339346               0.000600940               0.999999985              -0.000345364               0.000626424               0.999999985              -0.000349867               0.000650360               0.999999985              -0.000352654               0.000672277               0.999999985              -0.000353724               0.000692082               0.999999985              -0.000353332               0.000710201               0.999999985              -0.000351732               0.000726897               0.999999985              -0.000349212               0.000742218               0.999999985              -0.000345759               0.000756349               0.999999985              -0.000341277               0.000768999               0.999999985              -0.000337655               0.000692405               0.999999985              -0.000285314               0.000600291               0.999999985              -0.000268889               0.000581636               0.999999985              -0.000267778               0.000591475               0.999999985              -0.000272797               0.000613901               0.999999985              -0.000279994               0.000641968               0.999999985              -0.000287410               0.000672212               0.999999985              -0.000293884               0.000702599               0.999999985              -0.000298564               0.000731685               0.999999985              -0.000300917               0.000758958               0.999999985              -0.000300879               0.000784245               0.999999985              -0.000298588               0.000807776               0.999999985              -0.000294438               0.000829656               0.999999985              -0.000288806               0.000850140               0.999999985              -0.000281815               0.000869283               0.999999985              -0.000273524               0.000886890               0.999999985              -0.000263867               0.000902916               0.999999985              -0.000306887               0.000769677               0.999999985              -0.000238974               0.000678302               0.999999985              -0.000223259               0.000661731               0.999999985              -0.000224464               0.000674617               0.999999985              -0.000231526               0.000700724               0.999999985              -0.000239818               0.000732649               0.999999985              -0.000247430               0.000766727               0.999999985              -0.000253078               0.000800742               0.999999985              -0.000255713               0.000833275               0.999999985              -0.000254964               0.000863981               0.999999985              -0.000251025               0.000892747               0.999999985              -0.000244480               0.000919278               0.999999985              -0.000235783               0.000943971               0.999999985              -0.000225340               0.000967131               0.999999985              -0.000213578               0.000988763               0.999999985              -0.000200711               0.001008967               0.999999985              -0.000187107               0.001027721               0.999999985              -0.000275605               0.000842261               0.999999985              -0.000200993               0.000762905               0.999999985              -0.000182242               0.000741627               0.999999985              -0.000181962               0.000748628               0.999999985              -0.000188229               0.000769735               0.999999985              -0.000196060               0.000798062               0.999999985              -0.000203645               0.000829892               0.999999985              -0.000209684               0.000862983               0.999999985              -0.000213053               0.000895751               0.999999985              -0.000213242               0.000927539               0.999999985              -0.000210043               0.000957592               0.999999985              -0.000203744               0.000985832               0.999999985              -0.000194771               0.001012313               0.999999985              -0.000183435               0.001036997               0.999999985              -0.000170675               0.001060399               0.999999985              -0.000156987               0.001082515               0.999999985              -0.000142846               0.001103406               0.999999985              -0.000241250               0.000907954               0.999999985              -0.000165787               0.000844097               0.999999985              -0.000144094               0.000822808               0.999999985              -0.000141720               0.000825766               0.999999985              -0.000146535               0.000842740               0.999999985              -0.000153483               0.000867798               0.999999985              -0.000160493               0.000897477               0.999999985              -0.000166440               0.000929482               0.999999985              -0.000170284               0.000962246               0.999999985              -0.000171250               0.000994846               0.999999985              -0.000168899               0.001026261               0.999999985              -0.000163154               0.001055947               0.999999985              -0.000154291               0.001084030               0.999999985              -0.000142333               0.001110393               0.999999985              -0.000127940               0.001135296               0.999999985              -0.000112093               0.001159058               0.999999985              -0.000095356               0.001182061               0.999999985              -0.000204666               0.000965222               0.999999985              -0.000133305               0.000919548               0.999999985              -0.000109952               0.000901765               0.999999985              -0.000105324               0.000903331               0.999999985              -0.000108213               0.000917603               0.999999985              -0.000113769               0.000940131               0.999999985              -0.000119765               0.000967969               0.999999985              -0.000125094               0.000999049               0.999999985              -0.000128920               0.001031809               0.999999985              -0.000130316               0.001065273               0.999999985              -0.000128821               0.001098156               0.999999985              -0.000123886               0.001129747               0.999999985              -0.000115427               0.001159636               0.999999985              -0.000103371               0.001187895               0.999999985              -0.000087893               0.001214602               0.999999985              -0.000069485               0.001239907               0.999999985              -0.000048871               0.001264442               0.999999985              -0.000166144               0.001013242               0.999999985              -0.000103419               0.000986334               0.999999985              -0.000080378               0.000974698               0.999999985              -0.000074059               0.000977279               0.999999985              -0.000074953               0.000990630               0.999999985              -0.000078762               0.001011779               0.999999985              -0.000083432               0.001038380               0.999999985              -0.000087879               0.001068778               0.999999985              -0.000091147               0.001101656               0.999999985              -0.000092524               0.001136035               0.999999985              -0.000091747               0.001170566               0.999999985              -0.000087882               0.001204379               0.999999985              -0.000080256               0.001236902               0.999999985              -0.000068705               0.001267821               0.999999985              -0.000053132               0.001297110               0.999999985              -0.000033223               0.001324816               0.999999985              -0.000008910               0.001351339               0.999999985              -0.000126090               0.001051229               0.999999985              -0.000075728               0.001041576               0.999999985              -0.000055373               0.001037386               0.999999985              -0.000048523               0.001042697               0.999999985              -0.000047942               0.001056675               0.999999985              -0.000050123               0.001077528               0.999999985              -0.000053281               0.001103721               0.999999985              -0.000056498               0.001133970               0.999999985              -0.000058968               0.001167231               0.999999985              -0.000060221               0.001202515               0.999999985              -0.000059828               0.001238655               0.999999985              -0.000056914               0.001274868               0.999999985              -0.000050729               0.001310385               0.999999985              -0.000040741               0.001344636               0.999999985              -0.000026470               0.001377336               0.999999985              -0.000007251               0.001408376               0.999999985               0.000017931               0.001437885               0.999999985              -0.000084825               0.001078754               0.999999985              -0.000049629               0.001082889               0.999999985              -0.000034388               0.001085698               0.999999985              -0.000028563               0.001094284               0.999999985              -0.000027383               0.001109681               0.999999985              -0.000028355               0.001131156               0.999999985              -0.000030186               0.001157611               0.999999985              -0.000032065               0.001188129               0.999999985              -0.000033685               0.001221964               0.999999985              -0.000034611               0.001258220               0.999999985              -0.000034379               0.001295906               0.999999985              -0.000032362               0.001334262               0.999999985              -0.000027955               0.001372544               0.999999985              -0.000020598               0.001410183               0.999999985              -0.000009592               0.001446601               0.999999985               0.000005842               0.001481437               0.999999985               0.000027261               0.001514442               0.999999985              -0.000042641               0.001095518               0.999999985              -0.000024553               0.001108524               0.999999985              -0.000016393               0.001116214               0.999999985              -0.000013056               0.001127412               0.999999985              -0.000012204               0.001144116               0.999999985              -0.000012481               0.001166282               0.999999985              -0.000013241               0.001193268               0.999999985              -0.000014066               0.001224193               0.999999985              -0.000014903               0.001258525               0.999999985              -0.000015378               0.001295615               0.999999985              -0.000015242               0.001334436               0.999999985              -0.000014194               0.001374312               0.999999985              -0.000011863               0.001414571               0.999999985              -0.000007866               0.001454689               0.999999985              -0.000001997               0.001494020               0.999999985               0.000006678               0.001532002               0.999999985               0.000019115               0.001567981               0.999999985              -0.000000000               0.001101080               0.999999985              -0.000000000               0.001117163               0.999999985              -0.000000000               0.001126620               0.999999985              -0.000000000               0.001138723               0.999999985              -0.000000000               0.001156009               0.999999985               0.000000000               0.001178586               0.999999985               0.000000000               0.001205762               0.999999985              -0.000000000               0.001236862               0.999999985               0.000000000               0.001271382               0.999999985               0.000000000               0.001308826               0.999999985              -0.000000000               0.001348115               0.999999985              -0.000000000               0.001388538               0.999999985              -0.000000000               0.001429486               0.999999985               0.000000000               0.001470422               0.999999985               0.000000000               0.001510821               0.999999985              -0.000000000               0.001550012               0.999999985              -0.000000000               0.001587166               0.999999985              -0.000454699               0.000000000               0.999999985              -0.000497017               0.000000000               0.999999985              -0.000516334               0.000000000               0.999999985              -0.000527846               0.000000000               0.999999985              -0.000537154               0.000000000               0.999999985              -0.000546345               0.000000000               0.999999985              -0.000556334               0.000000000               0.999999985              -0.000567315               0.000000000               0.999999985              -0.000579346               0.000000000               0.999999985              -0.000592285               0.000000000               0.999999985              -0.000605978               0.000000000               0.999999985              -0.000620339               0.000000000               0.999999985              -0.000635162               0.000000000               0.999999985              -0.000650249               0.000000000               0.999999985              -0.000665275               0.000000000               0.999999985              -0.000679838               0.000000000               0.999999985              -0.000693485              -0.000000000               0.999999985              -0.000452073              -0.000107895               0.999999985              -0.000491552              -0.000089859               0.999999985              -0.000509120              -0.000082780               0.999999985              -0.000519582              -0.000081398               0.999999985              -0.000528259              -0.000082850               0.999999985              -0.000537058              -0.000085924               0.999999985              -0.000546729              -0.000089857               0.999999985              -0.000557436              -0.000094195               0.999999985              -0.000569097              -0.000098627               0.999999985              -0.000581548              -0.000102785               0.999999985              -0.000594716              -0.000106625               0.999999985              -0.000608417              -0.000110021               0.999999985              -0.000622457              -0.000112603               0.999999985              -0.000636626              -0.000113969               0.999999985              -0.000650642              -0.000113685               0.999999985              -0.000664181              -0.000111314               0.999999985              -0.000676765              -0.000106161               0.999999985              -0.000444193              -0.000214583               0.999999985              -0.000475433              -0.000178973               0.999999985              -0.000488199              -0.000165689               0.999999985              -0.000495833              -0.000163611               0.999999985              -0.000502817              -0.000167092               0.999999985              -0.000510624              -0.000173637               0.999999985              -0.000519529              -0.000181777               0.999999985              -0.000529474              -0.000190587               0.999999985              -0.000540243              -0.000199324               0.999999985              -0.000551582              -0.000207700               0.999999985              -0.000563352              -0.000215513               0.999999985              -0.000575245              -0.000222358               0.999999985              -0.000587087              -0.000227622               0.999999985              -0.000598626              -0.000230679               0.999999985              -0.000609646              -0.000231118               0.999999985              -0.000620037              -0.000228229               0.999999985              -0.000629665              -0.000221022               0.999999985              -0.000431277              -0.000318932               0.999999985              -0.000449630              -0.000266811               0.999999985              -0.000455472              -0.000248918               0.999999985              -0.000459493              -0.000247250               0.999999985              -0.000464538              -0.000253664               0.999999985              -0.000471189              -0.000264235               0.999999985              -0.000479273              -0.000276874               0.999999985              -0.000488336              -0.000290165               0.999999985              -0.000497961              -0.000303376               0.999999985              -0.000507790              -0.000315945               0.999999985              -0.000517516              -0.000327580               0.999999985              -0.000526876              -0.000337738               0.999999985              -0.000535609              -0.000345855               0.999999985              -0.000543625              -0.000351356               0.999999985              -0.000550818              -0.000353962               0.999999985              -0.000557307              -0.000353217               0.999999985              -0.000563380              -0.000348529               0.999999985              -0.000413665              -0.000419877               0.999999985              -0.000415666              -0.000353069               0.999999985              -0.000413921              -0.000332442               0.999999985              -0.000414589              -0.000332507               0.999999985              -0.000418197              -0.000342633               0.999999985              -0.000424104              -0.000357648               0.999999985              -0.000431463              -0.000374977               0.999999985              -0.000439679              -0.000392802               0.999999985              -0.000448044              -0.000410325               0.999999985              -0.000456021              -0.000426978               0.999999985              -0.000463382              -0.000442360               0.999999985              -0.000469873              -0.000455821               0.999999985              -0.000475297              -0.000466984               0.999999985              -0.000479687              -0.000475623               0.999999985              -0.000483264              -0.000481643               0.999999985              -0.000486359              -0.000485321               0.999999985              -0.000489315              -0.000486577               0.999999985              -0.000391883              -0.000516347               0.999999985              -0.000375512              -0.000437538               0.999999985              -0.000366914              -0.000416079               0.999999985              -0.000365348              -0.000419014               0.999999985              -0.000368449              -0.000433226               0.999999985              -0.000374212              -0.000452767               0.999999985              -0.000381239              -0.000474693               0.999999985              -0.000388662              -0.000497054               0.999999985              -0.000395783              -0.000518728               0.999999985              -0.000402082              -0.000539157               0.999999985              -0.000407204              -0.000557875               0.999999985              -0.000410877              -0.000574502               0.999999985              -0.000413266              -0.000588877               0.999999985              -0.000414683              -0.000601292               0.999999985              -0.000415434              -0.000611958               0.999999985              -0.000415798              -0.000621052               0.999999985              -0.000415779              -0.000628955               0.999999985              -0.000366382              -0.000607459               0.999999985              -0.000331342              -0.000520018               0.999999985              -0.000317626              -0.000499413               0.999999985              -0.000315433              -0.000505789               0.999999985              -0.000319044              -0.000524195               0.999999985              -0.000325252              -0.000548139               0.999999985              -0.000332386              -0.000574374               0.999999985              -0.000339346              -0.000600940               0.999999985              -0.000345364              -0.000626424               0.999999985              -0.000349867              -0.000650360               0.999999985              -0.000352654              -0.000672277               0.999999985              -0.000353724              -0.000692082               0.999999985              -0.000353332              -0.000710201               0.999999985              -0.000351732              -0.000726897               0.999999985              -0.000349212              -0.000742218               0.999999985              -0.000345759              -0.000756349               0.999999985              -0.000341277              -0.000768999               0.999999985              -0.000337655              -0.000692405               0.999999985              -0.000285314              -0.000600291               0.999999985              -0.000268889              -0.000581636               0.999999985              -0.000267778              -0.000591475               0.999999985              -0.000272797              -0.000613901               0.999999985              -0.000279994              -0.000641968               0.999999985              -0.000287410              -0.000672212               0.999999985              -0.000293884              -0.000702599               0.999999985              -0.000298564              -0.000731685               0.999999985              -0.000300917              -0.000758958               0.999999985              -0.000300879              -0.000784245               0.999999985              -0.000298588              -0.000807776               0.999999985              -0.000294438              -0.000829656               0.999999985              -0.000288806              -0.000850140               0.999999985              -0.000281815              -0.000869283               0.999999985              -0.000273524              -0.000886890               0.999999985              -0.000263867              -0.000902916               0.999999985              -0.000306887              -0.000769677               0.999999985              -0.000238974              -0.000678302               0.999999985              -0.000223259              -0.000661731               0.999999985              -0.000224464              -0.000674617               0.999999985              -0.000231526              -0.000700724               0.999999985              -0.000239818              -0.000732649               0.999999985              -0.000247430              -0.000766727               0.999999985              -0.000253078              -0.000800742               0.999999985              -0.000255713              -0.000833275               0.999999985              -0.000254964              -0.000863981               0.999999985              -0.000251025              -0.000892747               0.999999985              -0.000244480              -0.000919278               0.999999985              -0.000235783              -0.000943971               0.999999985              -0.000225340              -0.000967131               0.999999985              -0.000213578              -0.000988763               0.999999985              -0.000200711              -0.001008967               0.999999985              -0.000187107              -0.001027721               0.999999985              -0.000275605              -0.000842261               0.999999985              -0.000200993              -0.000762905               0.999999985              -0.000182242              -0.000741627               0.999999985              -0.000181962              -0.000748628               0.999999985              -0.000188229              -0.000769735               0.999999985              -0.000196060              -0.000798062               0.999999985              -0.000203645              -0.000829892               0.999999985              -0.000209684              -0.000862983               0.999999985              -0.000213053              -0.000895751               0.999999985              -0.000213242              -0.000927539               0.999999985              -0.000210043              -0.000957592               0.999999985              -0.000203744              -0.000985832               0.999999985              -0.000194771              -0.001012313               0.999999985              -0.000183435              -0.001036997               0.999999985              -0.000170675              -0.001060399               0.999999985              -0.000156987              -0.001082515               0.999999985              -0.000142846              -0.001103406               0.999999985              -0.000241250              -0.000907954               0.999999985              -0.000165787              -0.000844097               0.999999985              -0.000144094              -0.000822808               0.999999985              -0.000141720              -0.000825766               0.999999985              -0.000146535              -0.000842740               0.999999985              -0.000153483              -0.000867798               0.999999985              -0.000160493              -0.000897477               0.999999985              -0.000166440              -0.000929482               0.999999985              -0.000170284              -0.000962246               0.999999985              -0.000171250              -0.000994846               0.999999985              -0.000168899              -0.001026261               0.999999985              -0.000163154              -0.001055947               0.999999985              -0.000154291              -0.001084030               0.999999985              -0.000142333              -0.001110393               0.999999985              -0.000127940              -0.001135296               0.999999985              -0.000112093              -0.001159058               0.999999985              -0.000095356              -0.001182061               0.999999985              -0.000204666              -0.000965222               0.999999985              -0.000133305              -0.000919548               0.999999985              -0.000109952              -0.000901765               0.999999985              -0.000105324              -0.000903331               0.999999985              -0.000108213              -0.000917603               0.999999985              -0.000113769              -0.000940131               0.999999985              -0.000119765              -0.000967969               0.999999985              -0.000125094              -0.000999049               0.999999985              -0.000128920              -0.001031809               0.999999985              -0.000130316              -0.001065273               0.999999985              -0.000128821              -0.001098156               0.999999985              -0.000123886              -0.001129747               0.999999985              -0.000115427              -0.001159636               0.999999985              -0.000103371              -0.001187895               0.999999985              -0.000087893              -0.001214602               0.999999985              -0.000069485              -0.001239907               0.999999985              -0.000048871              -0.001264442               0.999999985              -0.000166144              -0.001013242               0.999999985              -0.000103419              -0.000986334               0.999999985              -0.000080378              -0.000974698               0.999999985              -0.000074059              -0.000977279               0.999999985              -0.000074953              -0.000990630               0.999999985              -0.000078762              -0.001011779               0.999999985              -0.000083432              -0.001038380               0.999999985              -0.000087879              -0.001068778               0.999999985              -0.000091147              -0.001101656               0.999999985              -0.000092524              -0.001136035               0.999999985              -0.000091747              -0.001170566               0.999999985              -0.000087882              -0.001204379               0.999999985              -0.000080256              -0.001236902               0.999999985              -0.000068705              -0.001267821               0.999999985              -0.000053132              -0.001297110               0.999999985              -0.000033223              -0.001324816               0.999999985              -0.000008910              -0.001351339               0.999999985              -0.000126090              -0.001051229               0.999999985              -0.000075728              -0.001041576               0.999999985              -0.000055373              -0.001037386               0.999999985              -0.000048523              -0.001042697               0.999999985              -0.000047942              -0.001056675               0.999999985              -0.000050123              -0.001077528               0.999999985              -0.000053281              -0.001103721               0.999999985              -0.000056498              -0.001133970               0.999999985              -0.000058968              -0.001167231               0.999999985              -0.000060221              -0.001202515               0.999999985              -0.000059828              -0.001238655               0.999999985              -0.000056914              -0.001274868               0.999999985              -0.000050729              -0.001310385               0.999999985              -0.000040741              -0.001344636               0.999999985              -0.000026470              -0.001377336               0.999999985              -0.000007251              -0.001408376               0.999999985               0.000017931              -0.001437885               0.999999985              -0.000084825              -0.001078754               0.999999985              -0.000049629              -0.001082889               0.999999985              -0.000034388              -0.001085698               0.999999985              -0.000028563              -0.001094284               0.999999985              -0.000027383              -0.001109681               0.999999985              -0.000028355              -0.001131156               0.999999985              -0.000030186              -0.001157611               0.999999985              -0.000032065              -0.001188129               0.999999985              -0.000033685              -0.001221964               0.999999985              -0.000034611              -0.001258220               0.999999985              -0.000034379              -0.001295906               0.999999985              -0.000032362              -0.001334262               0.999999985              -0.000027955              -0.001372544               0.999999985              -0.000020598              -0.001410183               0.999999985              -0.000009592              -0.001446601               0.999999985               0.000005842              -0.001481437               0.999999985               0.000027261              -0.001514442               0.999999985              -0.000042641              -0.001095518               0.999999985              -0.000024553              -0.001108524               0.999999985              -0.000016393              -0.001116214               0.999999985              -0.000013056              -0.001127412               0.999999985              -0.000012204              -0.001144116               0.999999985              -0.000012481              -0.001166282               0.999999985              -0.000013241              -0.001193268               0.999999985              -0.000014066              -0.001224193               0.999999985              -0.000014903              -0.001258525               0.999999985              -0.000015378              -0.001295615               0.999999985              -0.000015242              -0.001334436               0.999999985              -0.000014194              -0.001374312               0.999999985              -0.000011863              -0.001414571               0.999999985              -0.000007866              -0.001454689               0.999999985              -0.000001997              -0.001494020               0.999999985               0.000006678              -0.001532002               0.999999985               0.000019115              -0.001567981               0.999999985              -0.000000000              -0.001101080               0.999999985               0.000000000              -0.001117163               0.999999985               0.000000000              -0.001126620               0.999999985              -0.000000000              -0.001138723               0.999999985               0.000000000              -0.001156009               0.999999985              -0.000000000              -0.001178586               0.999999985               0.000000000              -0.001205762               0.999999985               0.000000000              -0.001236862               0.999999985               0.000000000              -0.001271382               0.999999985              -0.000000000              -0.001308826               0.999999985              -0.000000000              -0.001348115               0.999999985               0.000000000              -0.001388538               0.999999985              -0.000000000              -0.001429486               0.999999985              -0.000000000              -0.001470422               0.999999985              -0.000000000              -0.001510821               0.999999985              -0.000000000              -0.001550012               0.999999985               0.000000000              -0.001587166               0.999999985               0.000454699               0.000000000               0.999999985               0.000497017               0.000000000               0.999999985               0.000516334               0.000000000               0.999999985               0.000527846              -0.000000000               0.999999985               0.000537154              -0.000000000               0.999999985               0.000546345              -0.000000000               0.999999985               0.000556334              -0.000000000               0.999999985               0.000567315               0.000000000               0.999999985               0.000579346              -0.000000000               0.999999985               0.000592285               0.000000000               0.999999985               0.000605978               0.000000000               0.999999985               0.000620339              -0.000000000               0.999999985               0.000635162              -0.000000000               0.999999985               0.000650249              -0.000000000               0.999999985               0.000665275              -0.000000000               0.999999985               0.000679838               0.000000000               0.999999985               0.000693485               0.000000000               0.999999985               0.000452073              -0.000107895               0.999999985               0.000491552              -0.000089859               0.999999985               0.000509120              -0.000082780               0.999999985               0.000519582              -0.000081398               0.999999985               0.000528259              -0.000082850               0.999999985               0.000537058              -0.000085924               0.999999985               0.000546729              -0.000089857               0.999999985               0.000557436              -0.000094195               0.999999985               0.000569097              -0.000098627               0.999999985               0.000581548              -0.000102785               0.999999985               0.000594716              -0.000106625               0.999999985               0.000608417              -0.000110021               0.999999985               0.000622457              -0.000112603               0.999999985               0.000636626              -0.000113969               0.999999985               0.000650642              -0.000113685               0.999999985               0.000664181              -0.000111314               0.999999985               0.000676765              -0.000106161               0.999999985               0.000444193              -0.000214583               0.999999985               0.000475433              -0.000178973               0.999999985               0.000488199              -0.000165689               0.999999985               0.000495833              -0.000163611               0.999999985               0.000502817              -0.000167092               0.999999985               0.000510624              -0.000173637               0.999999985               0.000519529              -0.000181777               0.999999985               0.000529474              -0.000190587               0.999999985               0.000540243              -0.000199324               0.999999985               0.000551582              -0.000207700               0.999999985               0.000563352              -0.000215513               0.999999985               0.000575245              -0.000222358               0.999999985               0.000587087              -0.000227622               0.999999985               0.000598626              -0.000230679               0.999999985               0.000609646              -0.000231118               0.999999985               0.000620037              -0.000228229               0.999999985               0.000629665              -0.000221022               0.999999985               0.000431277              -0.000318932               0.999999985               0.000449630              -0.000266811               0.999999985               0.000455472              -0.000248918               0.999999985               0.000459493              -0.000247250               0.999999985               0.000464538              -0.000253664               0.999999985               0.000471189              -0.000264235               0.999999985               0.000479273              -0.000276874               0.999999985               0.000488336              -0.000290165               0.999999985               0.000497961              -0.000303376               0.999999985               0.000507790              -0.000315945               0.999999985               0.000517516              -0.000327580               0.999999985               0.000526876              -0.000337738               0.999999985               0.000535609              -0.000345855               0.999999985               0.000543625              -0.000351356               0.999999985               0.000550818              -0.000353962               0.999999985               0.000557307              -0.000353217               0.999999985               0.000563380              -0.000348529               0.999999985               0.000413665              -0.000419877               0.999999985               0.000415666              -0.000353069               0.999999985               0.000413921              -0.000332442               0.999999985               0.000414589              -0.000332507               0.999999985               0.000418197              -0.000342633               0.999999985               0.000424104              -0.000357648               0.999999985               0.000431463              -0.000374977               0.999999985               0.000439679              -0.000392802               0.999999985               0.000448044              -0.000410325               0.999999985               0.000456021              -0.000426978               0.999999985               0.000463382              -0.000442360               0.999999985               0.000469873              -0.000455821               0.999999985               0.000475297              -0.000466984               0.999999985               0.000479687              -0.000475623               0.999999985               0.000483264              -0.000481643               0.999999985               0.000486359              -0.000485321               0.999999985               0.000489315              -0.000486577               0.999999985               0.000391883              -0.000516347               0.999999985               0.000375512              -0.000437538               0.999999985               0.000366914              -0.000416079               0.999999985               0.000365348              -0.000419014               0.999999985               0.000368449              -0.000433226               0.999999985               0.000374212              -0.000452767               0.999999985               0.000381239              -0.000474693               0.999999985               0.000388662              -0.000497054               0.999999985               0.000395783              -0.000518728               0.999999985               0.000402082              -0.000539157               0.999999985               0.000407204              -0.000557875               0.999999985               0.000410877              -0.000574502               0.999999985               0.000413266              -0.000588877               0.999999985               0.000414683              -0.000601292               0.999999985               0.000415434              -0.000611958               0.999999985               0.000415798              -0.000621052               0.999999985               0.000415779              -0.000628955               0.999999985               0.000366382              -0.000607459               0.999999985               0.000331342              -0.000520018               0.999999985               0.000317626              -0.000499413               0.999999985               0.000315433              -0.000505789               0.999999985               0.000319044              -0.000524195               0.999999985               0.000325252              -0.000548139               0.999999985               0.000332386              -0.000574374               0.999999985               0.000339346              -0.000600940               0.999999985               0.000345364              -0.000626424               0.999999985               0.000349867              -0.000650360               0.999999985               0.000352654              -0.000672277               0.999999985               0.000353724              -0.000692082               0.999999985               0.000353332              -0.000710201               0.999999985               0.000351732              -0.000726897               0.999999985               0.000349212              -0.000742218               0.999999985               0.000345759              -0.000756349               0.999999985               0.000341277              -0.000768999               0.999999985               0.000337655              -0.000692405               0.999999985               0.000285314              -0.000600291               0.999999985               0.000268889              -0.000581636               0.999999985               0.000267778              -0.000591475               0.999999985               0.000272797              -0.000613901               0.999999985               0.000279994              -0.000641968               0.999999985               0.000287410              -0.000672212               0.999999985               0.000293884              -0.000702599               0.999999985               0.000298564              -0.000731685               0.999999985               0.000300917              -0.000758958               0.999999985               0.000300879              -0.000784245               0.999999985               0.000298588              -0.000807776               0.999999985               0.000294438              -0.000829656               0.999999985               0.000288806              -0.000850140               0.999999985               0.000281815              -0.000869283               0.999999985               0.000273524              -0.000886890               0.999999985               0.000263867              -0.000902916               0.999999985               0.000306887              -0.000769677               0.999999985               0.000238974              -0.000678302               0.999999985               0.000223259              -0.000661731               0.999999985               0.000224464              -0.000674617               0.999999985               0.000231526              -0.000700724               0.999999985               0.000239818              -0.000732649               0.999999985               0.000247430              -0.000766727               0.999999985               0.000253078              -0.000800742               0.999999985               0.000255713              -0.000833275               0.999999985               0.000254964              -0.000863981               0.999999985               0.000251025              -0.000892747               0.999999985               0.000244480              -0.000919278               0.999999985               0.000235783              -0.000943971               0.999999985               0.000225340              -0.000967131               0.999999985               0.000213578              -0.000988763               0.999999985               0.000200711              -0.001008967               0.999999985               0.000187107              -0.001027721               0.999999985               0.000275605              -0.000842261               0.999999985               0.000200993              -0.000762905               0.999999985               0.000182242              -0.000741627               0.999999985               0.000181962              -0.000748628               0.999999985               0.000188229              -0.000769735               0.999999985               0.000196060              -0.000798062               0.999999985               0.000203645              -0.000829892               0.999999985               0.000209684              -0.000862983               0.999999985               0.000213053              -0.000895751               0.999999985               0.000213242              -0.000927539               0.999999985               0.000210043              -0.000957592               0.999999985               0.000203744              -0.000985832               0.999999985               0.000194771              -0.001012313               0.999999985               0.000183435              -0.001036997               0.999999985               0.000170675              -0.001060399               0.999999985               0.000156987              -0.001082515               0.999999985               0.000142846              -0.001103406               0.999999985               0.000241250              -0.000907954               0.999999985               0.000165787              -0.000844097               0.999999985               0.000144094              -0.000822808               0.999999985               0.000141720              -0.000825766               0.999999985               0.000146535              -0.000842740               0.999999985               0.000153483              -0.000867798               0.999999985               0.000160493              -0.000897477               0.999999985               0.000166440              -0.000929482               0.999999985               0.000170284              -0.000962246               0.999999985               0.000171250              -0.000994846               0.999999985               0.000168899              -0.001026261               0.999999985               0.000163154              -0.001055947               0.999999985               0.000154291              -0.001084030               0.999999985               0.000142333              -0.001110393               0.999999985               0.000127940              -0.001135296               0.999999985               0.000112093              -0.001159058               0.999999985               0.000095356              -0.001182061               0.999999985               0.000204666              -0.000965222               0.999999985               0.000133305              -0.000919548               0.999999985               0.000109952              -0.000901765               0.999999985               0.000105324              -0.000903331               0.999999985               0.000108213              -0.000917603               0.999999985               0.000113769              -0.000940131               0.999999985               0.000119765              -0.000967969               0.999999985               0.000125094              -0.000999049               0.999999985               0.000128920              -0.001031809               0.999999985               0.000130316              -0.001065273               0.999999985               0.000128821              -0.001098156               0.999999985               0.000123886              -0.001129747               0.999999985               0.000115427              -0.001159636               0.999999985               0.000103371              -0.001187895               0.999999985               0.000087893              -0.001214602               0.999999985               0.000069485              -0.001239907               0.999999985               0.000048871              -0.001264442               0.999999985               0.000166144              -0.001013242               0.999999985               0.000103419              -0.000986334               0.999999985               0.000080378              -0.000974698               0.999999985               0.000074059              -0.000977279               0.999999985               0.000074953              -0.000990630               0.999999985               0.000078762              -0.001011779               0.999999985               0.000083432              -0.001038380               0.999999985               0.000087879              -0.001068778               0.999999985               0.000091147              -0.001101656               0.999999985               0.000092524              -0.001136035               0.999999985               0.000091747              -0.001170566               0.999999985               0.000087882              -0.001204379               0.999999985               0.000080256              -0.001236902               0.999999985               0.000068705              -0.001267821               0.999999985               0.000053132              -0.001297110               0.999999985               0.000033223              -0.001324816               0.999999985               0.000008910              -0.001351339               0.999999985               0.000126090              -0.001051229               0.999999985               0.000075728              -0.001041576               0.999999985               0.000055373              -0.001037386               0.999999985               0.000048523              -0.001042697               0.999999985               0.000047942              -0.001056675               0.999999985               0.000050123              -0.001077528               0.999999985               0.000053281              -0.001103721               0.999999985               0.000056498              -0.001133970               0.999999985               0.000058968              -0.001167231               0.999999985               0.000060221              -0.001202515               0.999999985               0.000059828              -0.001238655               0.999999985               0.000056914              -0.001274868               0.999999985               0.000050729              -0.001310385               0.999999985               0.000040741              -0.001344636               0.999999985               0.000026470              -0.001377336               0.999999985               0.000007251              -0.001408376               0.999999985              -0.000017931              -0.001437885               0.999999985               0.000084825              -0.001078754               0.999999985               0.000049629              -0.001082889               0.999999985               0.000034388              -0.001085698               0.999999985               0.000028563              -0.001094284               0.999999985               0.000027383              -0.001109681               0.999999985               0.000028355              -0.001131156               0.999999985               0.000030186              -0.001157611               0.999999985               0.000032065              -0.001188129               0.999999985               0.000033685              -0.001221964               0.999999985               0.000034611              -0.001258220               0.999999985               0.000034379              -0.001295906               0.999999985               0.000032362              -0.001334262               0.999999985               0.000027955              -0.001372544               0.999999985               0.000020598              -0.001410183               0.999999985               0.000009592              -0.001446601               0.999999985              -0.000005842              -0.001481437               0.999999985              -0.000027261              -0.001514442               0.999999985               0.000042641              -0.001095518               0.999999985               0.000024553              -0.001108524               0.999999985               0.000016393              -0.001116214               0.999999985               0.000013056              -0.001127412               0.999999985               0.000012204              -0.001144116               0.999999985               0.000012481              -0.001166282               0.999999985               0.000013241              -0.001193268               0.999999985               0.000014066              -0.001224193               0.999999985               0.000014903              -0.001258525               0.999999985               0.000015378              -0.001295615               0.999999985               0.000015242              -0.001334436               0.999999985               0.000014194              -0.001374312               0.999999985               0.000011863              -0.001414571               0.999999985               0.000007866              -0.001454689               0.999999985               0.000001997              -0.001494020               0.999999985              -0.000006678              -0.001532002               0.999999985              -0.000019115              -0.001567981               0.999999985              -0.000000000              -0.001101080               0.999999985               0.000000000              -0.001117163               0.999999985               0.000000000              -0.001126620               0.999999985              -0.000000000              -0.001138723               0.999999985               0.000000000              -0.001156009               0.999999985              -0.000000000              -0.001178586               0.999999985               0.000000000              -0.001205762               0.999999985               0.000000000              -0.001236862               0.999999985               0.000000000              -0.001271382               0.999999985              -0.000000000              -0.001308826               0.999999985              -0.000000000              -0.001348115               0.999999985               0.000000000              -0.001388538               0.999999985              -0.000000000              -0.001429486               0.999999985              -0.000000000              -0.001470422               0.999999985              -0.000000000              -0.001510821               0.999999985              -0.000000000              -0.001550012               0.999999985               0.000000000              -0.001587166               0.999999985               0.000454699               0.000000000               0.999999985               0.000497017               0.000000000               0.999999985               0.000516334               0.000000000               0.999999985               0.000527846              -0.000000000               0.999999985               0.000537154              -0.000000000               0.999999985               0.000546345              -0.000000000               0.999999985               0.000556334              -0.000000000               0.999999985               0.000567315               0.000000000               0.999999985               0.000579346              -0.000000000               0.999999985               0.000592285               0.000000000               0.999999985               0.000605978               0.000000000               0.999999985               0.000620339              -0.000000000               0.999999985               0.000635162              -0.000000000               0.999999985               0.000650249              -0.000000000               0.999999985               0.000665275              -0.000000000               0.999999985               0.000679838               0.000000000               0.999999985               0.000693485               0.000000000               0.999999985               0.000452073               0.000107895               0.999999985               0.000491552               0.000089859               0.999999985               0.000509120               0.000082780               0.999999985               0.000519582               0.000081398               0.999999985               0.000528259               0.000082850               0.999999985               0.000537058               0.000085924               0.999999985               0.000546729               0.000089857               0.999999985               0.000557436               0.000094195               0.999999985               0.000569097               0.000098627               0.999999985               0.000581548               0.000102785               0.999999985               0.000594716               0.000106625               0.999999985               0.000608417               0.000110021               0.999999985               0.000622457               0.000112603               0.999999985               0.000636626               0.000113969               0.999999985               0.000650642               0.000113685               0.999999985               0.000664181               0.000111314               0.999999985               0.000676765               0.000106161               0.999999985               0.000444193               0.000214583               0.999999985               0.000475433               0.000178973               0.999999985               0.000488199               0.000165689               0.999999985               0.000495833               0.000163611               0.999999985               0.000502817               0.000167092               0.999999985               0.000510624               0.000173637               0.999999985               0.000519529               0.000181777               0.999999985               0.000529474               0.000190587               0.999999985               0.000540243               0.000199324               0.999999985               0.000551582               0.000207700               0.999999985               0.000563352               0.000215513               0.999999985               0.000575245               0.000222358               0.999999985               0.000587087               0.000227622               0.999999985               0.000598626               0.000230679               0.999999985               0.000609646               0.000231118               0.999999985               0.000620037               0.000228229               0.999999985               0.000629665               0.000221022               0.999999985               0.000431277               0.000318932               0.999999985               0.000449630               0.000266811               0.999999985               0.000455472               0.000248918               0.999999985               0.000459493               0.000247250               0.999999985               0.000464538               0.000253664               0.999999985               0.000471189               0.000264235               0.999999985               0.000479273               0.000276874               0.999999985               0.000488336               0.000290165               0.999999985               0.000497961               0.000303376               0.999999985               0.000507790               0.000315945               0.999999985               0.000517516               0.000327580               0.999999985               0.000526876               0.000337738               0.999999985               0.000535609               0.000345855               0.999999985               0.000543625               0.000351356               0.999999985               0.000550818               0.000353962               0.999999985               0.000557307               0.000353217               0.999999985               0.000563380               0.000348529               0.999999985               0.000413665               0.000419877               0.999999985               0.000415666               0.000353069               0.999999985               0.000413921               0.000332442               0.999999985               0.000414589               0.000332507               0.999999985               0.000418197               0.000342633               0.999999985               0.000424104               0.000357648               0.999999985               0.000431463               0.000374977               0.999999985               0.000439679               0.000392802               0.999999985               0.000448044               0.000410325               0.999999985               0.000456021               0.000426978               0.999999985               0.000463382               0.000442360               0.999999985               0.000469873               0.000455821               0.999999985               0.000475297               0.000466984               0.999999985               0.000479687               0.000475623               0.999999985               0.000483264               0.000481643               0.999999985               0.000486359               0.000485321               0.999999985               0.000489315               0.000486577               0.999999985               0.000391883               0.000516347               0.999999985               0.000375512               0.000437538               0.999999985               0.000366914               0.000416079               0.999999985               0.000365348               0.000419014               0.999999985               0.000368449               0.000433226               0.999999985               0.000374212               0.000452767               0.999999985               0.000381239               0.000474693               0.999999985               0.000388662               0.000497054               0.999999985               0.000395783               0.000518728               0.999999985               0.000402082               0.000539157               0.999999985               0.000407204               0.000557875               0.999999985               0.000410877               0.000574502               0.999999985               0.000413266               0.000588877               0.999999985               0.000414683               0.000601292               0.999999985               0.000415434               0.000611958               0.999999985               0.000415798               0.000621052               0.999999985               0.000415779               0.000628955               0.999999985               0.000366382               0.000607459               0.999999985               0.000331342               0.000520018               0.999999985               0.000317626               0.000499413               0.999999985               0.000315433               0.000505789               0.999999985               0.000319044               0.000524195               0.999999985               0.000325252               0.000548139               0.999999985               0.000332386               0.000574374               0.999999985               0.000339346               0.000600940               0.999999985               0.000345364               0.000626424               0.999999985               0.000349867               0.000650360               0.999999985               0.000352654               0.000672277               0.999999985               0.000353724               0.000692082               0.999999985               0.000353332               0.000710201               0.999999985               0.000351732               0.000726897               0.999999985               0.000349212               0.000742218               0.999999985               0.000345759               0.000756349               0.999999985               0.000341277               0.000768999               0.999999985               0.000337655               0.000692405               0.999999985               0.000285314               0.000600291               0.999999985               0.000268889               0.000581636               0.999999985               0.000267778               0.000591475               0.999999985               0.000272797               0.000613901               0.999999985               0.000279994               0.000641968               0.999999985               0.000287410               0.000672212               0.999999985               0.000293884               0.000702599               0.999999985               0.000298564               0.000731685               0.999999985               0.000300917               0.000758958               0.999999985               0.000300879               0.000784245               0.999999985               0.000298588               0.000807776               0.999999985               0.000294438               0.000829656               0.999999985               0.000288806               0.000850140               0.999999985               0.000281815               0.000869283               0.999999985               0.000273524               0.000886890               0.999999985               0.000263867               0.000902916               0.999999985               0.000306887               0.000769677               0.999999985               0.000238974               0.000678302               0.999999985               0.000223259               0.000661731               0.999999985               0.000224464               0.000674617               0.999999985               0.000231526               0.000700724               0.999999985               0.000239818               0.000732649               0.999999985               0.000247430               0.000766727               0.999999985               0.000253078               0.000800742               0.999999985               0.000255713               0.000833275               0.999999985               0.000254964               0.000863981               0.999999985               0.000251025               0.000892747               0.999999985               0.000244480               0.000919278               0.999999985               0.000235783               0.000943971               0.999999985               0.000225340               0.000967131               0.999999985               0.000213578               0.000988763               0.999999985               0.000200711               0.001008967               0.999999985               0.000187107               0.001027721               0.999999985               0.000275605               0.000842261               0.999999985               0.000200993               0.000762905               0.999999985               0.000182242               0.000741627               0.999999985               0.000181962               0.000748628               0.999999985               0.000188229               0.000769735               0.999999985               0.000196060               0.000798062               0.999999985               0.000203645               0.000829892               0.999999985               0.000209684               0.000862983               0.999999985               0.000213053               0.000895751               0.999999985               0.000213242               0.000927539               0.999999985               0.000210043               0.000957592               0.999999985               0.000203744               0.000985832               0.999999985               0.000194771               0.001012313               0.999999985               0.000183435               0.001036997               0.999999985               0.000170675               0.001060399               0.999999985               0.000156987               0.001082515               0.999999985               0.000142846               0.001103406               0.999999985               0.000241250               0.000907954               0.999999985               0.000165787               0.000844097               0.999999985               0.000144094               0.000822808               0.999999985               0.000141720               0.000825766               0.999999985               0.000146535               0.000842740               0.999999985               0.000153483               0.000867798               0.999999985               0.000160493               0.000897477               0.999999985               0.000166440               0.000929482               0.999999985               0.000170284               0.000962246               0.999999985               0.000171250               0.000994846               0.999999985               0.000168899               0.001026261               0.999999985               0.000163154               0.001055947               0.999999985               0.000154291               0.001084030               0.999999985               0.000142333               0.001110393               0.999999985               0.000127940               0.001135296               0.999999985               0.000112093               0.001159058               0.999999985               0.000095356               0.001182061               0.999999985               0.000204666               0.000965222               0.999999985               0.000133305               0.000919548               0.999999985               0.000109952               0.000901765               0.999999985               0.000105324               0.000903331               0.999999985               0.000108213               0.000917603               0.999999985               0.000113769               0.000940131               0.999999985               0.000119765               0.000967969               0.999999985               0.000125094               0.000999049               0.999999985               0.000128920               0.001031809               0.999999985               0.000130316               0.001065273               0.999999985               0.000128821               0.001098156               0.999999985               0.000123886               0.001129747               0.999999985               0.000115427               0.001159636               0.999999985               0.000103371               0.001187895               0.999999985               0.000087893               0.001214602               0.999999985               0.000069485               0.001239907               0.999999985               0.000048871               0.001264442               0.999999985               0.000166144               0.001013242               0.999999985               0.000103419               0.000986334               0.999999985               0.000080378               0.000974698               0.999999985               0.000074059               0.000977279               0.999999985               0.000074953               0.000990630               0.999999985               0.000078762               0.001011779               0.999999985               0.000083432               0.001038380               0.999999985               0.000087879               0.001068778               0.999999985               0.000091147               0.001101656               0.999999985               0.000092524               0.001136035               0.999999985               0.000091747               0.001170566               0.999999985               0.000087882               0.001204379               0.999999985               0.000080256               0.001236902               0.999999985               0.000068705               0.001267821               0.999999985               0.000053132               0.001297110               0.999999985               0.000033223               0.001324816               0.999999985               0.000008910               0.001351339               0.999999985               0.000126090               0.001051229               0.999999985               0.000075728               0.001041576               0.999999985               0.000055373               0.001037386               0.999999985               0.000048523               0.001042697               0.999999985               0.000047942               0.001056675               0.999999985               0.000050123               0.001077528               0.999999985               0.000053281               0.001103721               0.999999985               0.000056498               0.001133970               0.999999985               0.000058968               0.001167231               0.999999985               0.000060221               0.001202515               0.999999985               0.000059828               0.001238655               0.999999985               0.000056914               0.001274868               0.999999985               0.000050729               0.001310385               0.999999985               0.000040741               0.001344636               0.999999985               0.000026470               0.001377336               0.999999985               0.000007251               0.001408376               0.999999985              -0.000017931               0.001437885               0.999999985               0.000084825               0.001078754               0.999999985               0.000049629               0.001082889               0.999999985               0.000034388               0.001085698               0.999999985               0.000028563               0.001094284               0.999999985               0.000027383               0.001109681               0.999999985               0.000028355               0.001131156               0.999999985               0.000030186               0.001157611               0.999999985               0.000032065               0.001188129               0.999999985               0.000033685               0.001221964               0.999999985               0.000034611               0.001258220               0.999999985               0.000034379               0.001295906               0.999999985               0.000032362               0.001334262               0.999999985               0.000027955               0.001372544               0.999999985               0.000020598               0.001410183               0.999999985               0.000009592               0.001446601               0.999999985              -0.000005842               0.001481437               0.999999985              -0.000027261               0.001514442               0.999999985               0.000042641               0.001095518               0.999999985               0.000024553               0.001108524               0.999999985               0.000016393               0.001116214               0.999999985               0.000013056               0.001127412               0.999999985               0.000012204               0.001144116               0.999999985               0.000012481               0.001166282               0.999999985               0.000013241               0.001193268               0.999999985               0.000014066               0.001224193               0.999999985               0.000014903               0.001258525               0.999999985               0.000015378               0.001295615               0.999999985               0.000015242               0.001334436               0.999999985               0.000014194               0.001374312               0.999999985               0.000011863               0.001414571               0.999999985               0.000007866               0.001454689               0.999999985               0.000001997               0.001494020               0.999999985              -0.000006678               0.001532002               0.999999985              -0.000019115               0.001567981               0.999999985              -0.000000000               0.001101080               0.999999985              -0.000000000               0.001117163               0.999999985              -0.000000000               0.001126620               0.999999985              -0.000000000               0.001138723               0.999999985              -0.000000000               0.001156009               0.999999985               0.000000000               0.001178586               0.999999985               0.000000000               0.001205762               0.999999985              -0.000000000               0.001236862               0.999999985               0.000000000               0.001271382               0.999999985               0.000000000               0.001308826               0.999999985              -0.000000000               0.001348115               0.999999985              -0.000000000               0.001388538               0.999999985              -0.000000000               0.001429486               0.999999985               0.000000000               0.001470422               0.999999985               0.000000000               0.001510821               0.999999985              -0.000000000               0.001550012               0.999999985              -0.000000000               0.001587166               0.999999985 </DataArray>
<DataArray type="Float64"                                    Name="defo"                                                      NumberOfComponents=" 3" format="ascii">
             -0.000454699               0.000000000               0.999999985              -0.000497017               0.000000000               0.999999985              -0.000516334               0.000000000               0.999999985              -0.000527846               0.000000000               0.999999985              -0.000537154               0.000000000               0.999999985              -0.000546345               0.000000000               0.999999985              -0.000556334               0.000000000               0.999999985              -0.000567315               0.000000000               0.999999985              -0.000579346               0.000000000               0.999999985              -0.000592285               0.000000000               0.999999985              -0.000605978               0.000000000               0.999999985              -0.000620339               0.000000000               0.999999985              -0.000635162               0.000000000               0.999999985              -0.000650249               0.000000000               0.999999985              -0.000665275               0.000000000               0.999999985              -0.000679838               0.000000000               0.999999985              -0.000693485              -0.000000000               0.999999985              -0.000452073               0.000107895               0.999999985              -0.000491552               0.000089859               0.999999985              -0.000509120               0.000082780               0.999999985              -0.000519582               0.000081398               0.999999985              -0.000528259               0.000082850               0.999999985              -0.000537058               0.000085924               0.999999985              -0.000546729               0.000089857               0.999999985              -0.000557436               0.000094195               0.999999985              -0.000569097               0.000098627               0.999999985              -0.000581548               0.000102785               0.999999985              -0.000594716               0.000106625               0.999999985              -0.000608417               0.000110021               0.999999985              -0.000622457               0.000112603               0.999999985              -0.000636626               0.000113969               0.999999985              -0.000650642               0.000113685               0.999999985              -0.000664181               0.000111314               0.999999985              -0.000676765               0.000106161               0.999999985              -0.000444193               0.000214583               0.999999985              -0.000475433               0.000178973               0.999999985              -0.000488199               0.000165689               0.999999985              -0.000495833               0.000163611               0.999999985              -0.000502817               0.000167092               0.999999985              -0.000510624               0.000173637               0.999999985              -0.000519529               0.000181777               0.999999985              -0.000529474               0.000190587               0.999999985              -0.000540243               0.000199324               0.999999985              -0.000551582               0.000207700               0.999999985              -0.000563352               0.000215513               0.999999985              -0.000575245               0.000222358               0.999999985              -0.000587087               0.000227622               0.999999985              -0.000598626               0.000230679               0.999999985              -0.000609646               0.000231118               0.999999985              -0.000620037               0.000228229               0.999999985              -0.000629665               0.000221022               0.999999985              -0.000431277               0.000318932               0.999999985              -0.000449630               0.000266811               0.999999985              -0.000455472               0.000248918               0.999999985              -0.000459493               0.000247250               0.999999985              -0.000464538               0.000253664               0.999999985              -0.000471189               0.000264235               0.999999985              -0.000479273               0.000276874               0.999999985              -0.000488336               0.000290165               0.999999985              -0.000497961               0.000303376               0.999999985              -0.000507790               0.000315945               0.999999985              -0.000517516               0.000327580               0.999999985              -0.000526876               0.000337738               0.999999985              -0.000535609               0.000345855               0.999999985              -0.000543625               0.000351356               0.999999985              -0.000550818               0.000353962               0.999999985              -0.000557307               0.000353217               0.999999985              -0.000563380               0.000348529               0.999999985              -0.000413665               0.000419877               0.999999985              -0.000415666               0.000353069               0.999999985              -0.000413921               0.000332442               0.999999985              -0.000414589               0.000332507               0.999999985              -0.000418197               0.000342633               0.999999985              -0.000424104               0.000357648               0.999999985              -0.000431463               0.000374977               0.999999985              -0.000439679               0.000392802               0.999999985              -0.000448044               0.000410325               0.999999985              -0.000456021               0.000426978               0.999999985              -0.000463382               0.000442360               0.999999985              -0.000469873               0.000455821               0.999999985              -0.000475297               0.000466984               0.999999985              -0.000479687               0.000475623               0.999999985              -0.000483264               0.000481643               0.999999985              -0.000486359               0.000485321               0.999999985              -0.000489315               0.000486577               0.999999985              -0.000391883               0.000516347               0.999999985              -0.000375512               0.000437538               0.999999985              -0.000366914               0.000416079               0.999999985              -0.000365348               0.000419014               0.999999985              -0.000368449               0.000433226               0.999999985              -0.000374212               0.000452767               0.999999985              -0.000381239               0.000474693               0.999999985              -0.000388662               0.000497054               0.999999985              -0.000395783               0.000518728               0.999999985              -0.000402082               0.000539157               0.999999985              -0.000407204               0.000557875               0.999999985              -0.000410877               0.000574502               0.999999985              -0.000413266               0.000588877               0.999999985              -0.000414683               0.000601292               0.999999985              -0.000415434               0.000611958               0.999999985              -0.000415798               0.000621052               0.999999985              -0.000415779               0.000628955               0.999999985              -0.000366382               0.000607459               0.999999985              -0.000331342               0.000520018               0.999999985              -0.000317626               0.000499413               0.999999985              -0.000315433               0.000505789               0.999999985              -0.000319044               0.000524195               0.999999985              -0.000325252               0.000548139               0.999999985              -0.000332386               0.000574374               0.999999985              -0.000339346               0.000600940               0.999999985              -0.000345364               0.000626424               0.999999985              -0.000349867               0.000650360               0.999999985              -0.000352654               0.000672277               0.999999985              -0.000353724               0.000692082               0.999999985              -0.000353332               0.000710201               0.999999985              -0.000351732               0.000726897               0.999999985              -0.000349212               0.000742218               0.999999985              -0.000345759               0.000756349               0.999999985              -0.000341277               0.000768999               0.999999985              -0.000337655               0.000692405               0.999999985              -0.000285314               0.000600291               0.999999985              -0.000268889               0.000581636               0.999999985              -0.000267778               0.000591475               0.999999985              -0.000272797               0.000613901               0.999999985              -0.000279994               0.000641968               0.999999985              -0.000287410               0.000672212               0.999999985              -0.000293884               0.000702599               0.999999985              -0.000298564               0.000731685               0.999999985              -0.000300917               0.000758958               0.999999985              -0.000300879               0.000784245               0.999999985              -0.000298588               0.000807776               0.999999985              -0.000294438               0.000829656               0.999999985              -0.000288806               0.000850140               0.999999985              -0.000281815               0.000869283               0.999999985              -0.000273524               0.000886890               0.999999985              -0.000263867               0.000902916               0.999999985              -0.000306887               0.000769677               0.999999985              -0.000238974               0.000678302               0.999999985              -0.000223259               0.000661731               0.999999985              -0.000224464               0.000674617               0.999999985              -0.000231526               0.000700724               0.999999985              -0.000239818               0.000732649               0.999999985              -0.000247430               0.000766727               0.999999985              -0.000253078               0.000800742               0.999999985              -0.000255713               0.000833275               0.999999985              -0.000254964               0.000863981               0.999999985              -0.000251025               0.000892747               0.999999985              -0.000244480               0.000919278               0.999999985              -0.000235783               0.000943971               0.999999985              -0.000225340               0.000967131               0.999999985              -0.000213578               0.000988763               0.999999985              -0.000200711               0.001008967               0.999999985              -0.000187107               0.001027721               0.999999985              -0.000275605               0.000842261               0.999999985              -0.000200993               0.000762905               0.999999985              -0.000182242               0.000741627               0.999999985              -0.000181962               0.000748628               0.999999985              -0.000188229               0.000769735               0.999999985              -0.000196060               0.000798062               0.999999985              -0.000203645               0.000829892               0.999999985              -0.000209684               0.000862983               0.999999985              -0.000213053               0.000895751               0.999999985              -0.000213242               0.000927539               0.999999985              -0.000210043               0.000957592               0.999999985              -0.000203744               0.000985832               0.999999985              -0.000194771               0.001012313               0.999999985              -0.000183435               0.001036997               0.999999985              -0.000170675               0.001060399               0.999999985              -0.000156987               0.001082515               0.999999985              -0.000142846               0.001103406               0.999999985              -0.000241250               0.000907954               0.999999985              -0.000165787               0.000844097               0.999999985              -0.000144094               0.000822808               0.999999985              -0.000141720               0.000825766               0.999999985              -0.000146535               0.000842740               0.999999985              -0.000153483               0.000867798               0.999999985              -0.000160493               0.000897477               0.999999985              -0.000166440               0.000929482               0.999999985              -0.000170284               0.000962246               0.999999985              -0.000171250               0.000994846               0.999999985              -0.000168899               0.001026261               0.999999985              -0.000163154               0.001055947               0.999999985              -0.000154291               0.001084030               0.999999985              -0.000142333               0.001110393               0.999999985              -0.000127940               0.001135296               0.999999985              -0.000112093               0.001159058               0.999999985              -0.000095356               0.001182061               0.999999985              -0.000204666               0.000965222               0.999999985              -0.000133305               0.000919548               0.999999985              -0.000109952               0.000901765               0.999999985              -0.000105324               0.000903331               0.999999985              -0.000108213               0.000917603               0.999999985              -0.000113769               0.000940131               0.999999985              -0.000119765               0.000967969               0.999999985              -0.000125094               0.000999049               0.999999985              -0.000128920               0.001031809               0.999999985              -0.000130316               0.001065273               0.999999985              -0.000128821               0.001098156               0.999999985              -0.000123886               0.001129747               0.999999985              -0.000115427               0.001159636               0.999999985              -0.000103371               0.001187895               0.999999985              -0.000087893               0.001214602               0.999999985              -0.000069485               0.001239907               0.999999985              -0.000048871               0.001264442               0.999999985              -0.000166144               0.001013242               0.999999985              -0.000103419               0.000986334               0.999999985              -0.000080378               0.000974698               0.999999985              -0.000074059               0.000977279               0.999999985              -0.000074953               0.000990630               0.999999985              -0.000078762               0.001011779               0.999999985              -0.000083432               0.001038380               0.999999985              -0.000087879               0.001068778               0.999999985              -0.000091147               0.001101656               0.999999985              -0.000092524               0.001136035               0.999999985              -0.000091747               0.001170566               0.999999985              -0.000087882               0.001204379               0.999999985              -0.000080256               0.001236902               0.999999985              -0.000068705               0.001267821               0.999999985              -0.000053132               0.001297110               0.999999985              -0.000033223               0.001324816               0.999999985              -0.000008910               0.001351339               0.999999985              -0.000126090               0.001051229               0.999999985              -0.000075728               0.001041576               0.999999985              -0.000055373               0.001037386               0.999999985              -0.000048523               0.001042697               0.999999985              -0.000047942               0.001056675               0.999999985              -0.000050123               0.001077528               0.999999985              -0.000053281               0.001103721               0.999999985              -0.000056498               0.001133970               0.999999985              -0.000058968               0.001167231               0.999999985              -0.000060221               0.001202515               0.999999985              -0.000059828               0.001238655               0.999999985              -0.000056914               0.001274868               0.999999985              -0.000050729               0.001310385               0.999999985              -0.000040741               0.001344636               0.999999985              -0.000026470               0.001377336               0.999999985              -0.000007251               0.001408376               0.999999985               0.000017931               0.001437885               0.999999985              -0.000084825               0.001078754               0.999999985              -0.000049629               0.001082889               0.999999985              -0.000034388               0.001085698               0.999999985              -0.000028563               0.001094284               0.999999985              -0.000027383               0.001109681               0.999999985              -0.000028355               0.001131156               0.999999985              -0.000030186               0.001157611               0.999999985              -0.000032065               0.001188129               0.999999985              -0.000033685               0.001221964               0.999999985              -0.000034611               0.001258220               0.999999985              -0.000034379               0.001295906               0.999999985              -0.000032362               0.001334262               0.999999985              -0.000027955               0.001372544               0.999999985              -0.000020598               0.001410183               0.999999985              -0.000009592               0.001446601               0.999999985               0.000005842               0.001481437               0.999999985               0.000027261               0.001514442               0.999999985              -0.000042641               0.001095518               0.999999985              -0.000024553               0.001108524               0.999999985              -0.000016393               0.001116214               0.999999985              -0.000013056               0.001127412               0.999999985              -0.000012204               0.001144116               0.999999985              -0.000012481               0.001166282               0.999999985              -0.000013241               0.001193268               0.999999985              -0.000014066               0.001224193               0.999999985              -0.000014903               0.001258525               0.999999985              -0.000015378               0.001295615               0.999999985              -0.000015242               0.001334436               0.999999985              -0.000014194               0.001374312               0.999999985              -0.000011863               0.001414571               0.999999985              -0.000007866               0.001454689               0.999999985              -0.000001997               0.001494020               0.999999985               0.000006678               0.001532002               0.999999985               0.000019115               0.001567981               0.999999985              -0.000000000               0.001101080               0.999999985              -0.000000000               0.001117163               0.999999985              -0.000000000               0.001126620               0.999999985              -0.000000000               0.001138723               0.999999985              -0.000000000               0.001156009               0.999999985               0.000000000               0.001178586               0.999999985               0.000000000               0.001205762               0.999999985              -0.000000000               0.001236862               0.999999985               0.000000000               0.001271382               0.999999985               0.000000000               0.001308826               0.999999985              -0.000000000               0.001348115               0.999999985              -0.000000000               0.001388538               0.999999985              -0.000000000               0.001429486               0.999999985               0.000000000               0.001470422               0.999999985               0.000000000               0.001510821               0.999999985              -0.000000000               0.001550012               0.999999985              -0.000000000               0.001587166               0.999999985              -0.000454699               0.000000000               0.999999985              -0.000497017               0.000000000               0.999999985              -0.000516334               0.000000000               0.999999985              -0.000527846               0.000000000               0.999999985              -0.000537154               0.000000000               0.999999985              -0.000546345               0.000000000               0.999999985              -0.000556334               0.000000000               0.999999985              -0.000567315               0.000000000               0.999999985              -0.000579346               0.000000000               0.999999985              -0.000592285               0.000000000               0.999999985              -0.000605978               0.000000000               0.999999985              -0.000620339               0.000000000               0.999999985              -0.000635162               0.000000000               0.999999985              -0.000650249               0.000000000               0.999999985              -0.000665275               0.000000000               0.999999985              -0.000679838               0.000000000               0.999999985              -0.000693485              -0.000000000               0.999999985              -0.000452073              -0.000107895               0.999999985              -0.000491552              -0.000089859               0.999999985              -0.000509120              -0.000082780               0.999999985              -0.000519582              -0.000081398               0.999999985              -0.000528259              -0.000082850               0.999999985              -0.000537058              -0.000085924               0.999999985              -0.000546729              -0.000089857               0.999999985              -0.000557436              -0.000094195               0.999999985              -0.000569097              -0.000098627               0.999999985              -0.000581548              -0.000102785               0.999999985              -0.000594716              -0.000106625               0.999999985              -0.000608417              -0.000110021               0.999999985              -0.000622457              -0.000112603               0.999999985              -0.000636626              -0.000113969               0.999999985              -0.000650642              -0.000113685               0.999999985              -0.000664181              -0.000111314               0.999999985              -0.000676765              -0.000106161               0.999999985              -0.000444193              -0.000214583               0.999999985              -0.000475433              -0.000178973               0.999999985              -0.000488199              -0.000165689               0.999999985              -0.000495833              -0.000163611               0.999999985              -0.000502817              -0.000167092               0.999999985              -0.000510624              -0.000173637               0.999999985              -0.000519529              -0.000181777               0.999999985              -0.000529474              -0.000190587               0.999999985              -0.000540243              -0.000199324               0.999999985              -0.000551582              -0.000207700               0.999999985              -0.000563352              -0.000215513               0.999999985              -0.000575245              -0.000222358               0.999999985              -0.000587087              -0.000227622               0.999999985              -0.000598626              -0.000230679               0.999999985              -0.000609646              -0.000231118               0.999999985              -0.000620037              -0.000228229               0.999999985              -0.000629665              -0.000221022               0.999999985              -0.000431277              -0.000318932               0.999999985              -0.000449630              -0.000266811               0.999999985              -0.000455472              -0.000248918               0.999999985              -0.000459493              -0.000247250               0.999999985              -0.000464538              -0.000253664               0.999999985              -0.000471189              -0.000264235               0.999999985              -0.000479273              -0.000276874               0.999999985              -0.000488336              -0.000290165               0.999999985              -0.000497961              -0.000303376               0.999999985              -0.000507790              -0.000315945               0.999999985              -0.000517516              -0.000327580               0.999999985              -0.000526876              -0.000337738               0.999999985              -0.000535609              -0.000345855               0.999999985              -0.000543625              -0.000351356               0.999999985              -0.000550818              -0.000353962               0.999999985              -0.000557307              -0.000353217               0.999999985              -0.000563380              -0.000348529               0.999999985              -0.000413665              -0.000419877               0.999999985              -0.000415666              -0.000353069               0.999999985              -0.000413921              -0.000332442               0.999999985              -0.000414589              -0.000332507               0.999999985              -0.000418197              -0.000342633               0.999999985              -0.000424104              -0.000357648               0.999999985              -0.000431463              -0.000374977               0.999999985              -0.000439679              -0.000392802               0.999999985              -0.000448044              -0.000410325               0.999999985              -0.000456021              -0.000426978               0.999999985              -0.000463382              -0.000442360               0.999999985              -0.000469873              -0.000455821               0.999999985              -0.000475297              -0.000466984               0.999999985              -0.000479687              -0.000475623               0.999999985              -0.000483264              -0.000481643               0.999999985              -0.000486359              -0.000485321               0.999999985              -0.000489315              -0.000486577               0.999999985              -0.000391883              -0.000516347               0.999999985              -0.000375512              -0.000437538               0.999999985              -0.000366914              -0.000416079               0.999999985              -0.000365348              -0.000419014               0.999999985              -0.000368449              -0.000433226               0.999999985              -0.000374212              -0.000452767               0.999999985              -0.000381239              -0.000474693               0.999999985              -0.000388662              -0.000497054               0.999999985              -0.000395783              -0.000518728               0.999999985              -0.000402082              -0.000539157               0.999999985              -0.000407204              -0.000557875               0.999999985              -0.000410877              -0.000574502               0.999999985              -0.000413266              -0.000588877               0.999999985              -0.000414683              -0.000601292               0.999999985              -0.000415434              -0.000611958               0.999999985              -0.000415798              -0.000621052               0.999999985              -0.000415779              -0.000628955               0.999999985              -0.000366382              -0.000607459               0.999999985              -0.000331342              -0.000520018               0.999999985              -0.000317626              -0.000499413               0.999999985              -0.000315433              -0.000505789               0.999999985              -0.000319044              -0.000524195               0.999999985              -0.000325252              -0.000548139               0.999999985              -0.000332386              -0.000574374               0.999999985              -0.000339346              -0.000600940               0.999999985              -0.000345364              -0.000626424               0.999999985              -0.000349867              -0.000650360               0.999999985              -0.000352654              -0.000672277               0.999999985              -0.000353724              -0.000692082               0.999999985              -0.000353332              -0.000710201               0.999999985              -0.000351732              -0.000726897               0.999999985              -0.000349212              -0.000742218               0.999999985              -0.000345759              -0.000756349               0.999999985              -0.000341277              -0.000768999               0.999999985              -0.000337655              -0.000692405               0.999999985              -0.000285314              -0.000600291               0.999999985              -0.000268889              -0.000581636               0.999999985              -0.000267778              -0.000591475               0.999999985              -0.000272797              -0.000613901               0.999999985              -0.000279994              -0.000641968               0.999999985              -0.000287410              -0.000672212               0.999999985              -0.000293884              -0.000702599               0.999999985              -0.000298564              -0.000731685               0.999999985              -0.000300917              -0.000758958               0.999999985              -0.000300879              -0.000784245               0.999999985              -0.000298588              -0.000807776               0.999999985              -0.000294438              -0.000829656               0.999999985              -0.000288806              -0.000850140               0.999999985              -0.000281815              -0.000869283               0.999999985              -0.000273524              -0.000886890               0.999999985              -0.000263867              -0.000902916               0.999999985              -0.000306887              -0.000769677               0.999999985              -0.000238974              -0.000678302               0.999999985              -0.000223259              -0.000661731               0.999999985              -0.000224464              -0.000674617               0.999999985              -0.000231526              -0.000700724               0.999999985              -0.000239818              -0.000732649               0.999999985              -0.000247430              -0.000766727               0.999999985              -0.000253078              -0.000800742               0.999999985              -0.000255713              -0.000833275               0.999999985              -0.000254964              -0.000863981               0.999999985              -0.000251025              -0.000892747               0.999999985              -0.000244480              -0.000919278               0.999999985              -0.000235783              -0.000943971               0.999999985              -0.000225340              -0.000967131               0.999999985              -0.000213578              -0.000988763               0.999999985              -0.000200711              -0.001008967               0.999999985              -0.000187107              -0.001027721               0.999999985              -0.000275605              -0.000842261               0.999999985              -0.000200993              -0.000762905               0.999999985              -0.000182242              -0.000741627               0.999999985              -0.000181962              -0.000748628               0.999999985              -0.000188229              -0.000769735               0.999999985              -0.000196060              -0.000798062               0.999999985              -0.000203645              -0.000829892               0.999999985              -0.000209684              -0.000862983               0.999999985              -0.000213053              -0.000895751               0.999999985              -0.000213242              -0.000927539               0.999999985              -0.000210043              -0.000957592               0.999999985              -0.000203744              -0.000985832               0.999999985              -0.000194771              -0.001012313               0.999999985              -0.000183435              -0.001036997               0.999999985              -0.000170675              -0.001060399               0.999999985              -0.000156987              -0.001082515               0.999999985              -0.000142846              -0.001103406               0.999999985              -0.000241250              -0.000907954               0.999999985              -0.000165787              -0.000844097               0.999999985              -0.000144094              -0.000822808               0.999999985              -0.000141720              -0.000825766               0.999999985              -0.000146535              -0.000842740               0.999999985              -0.000153483              -0.000867798               0.999999985              -0.000160493              -0.000897477               0.999999985              -0.000166440              -0.000929482               0.999999985              -0.000170284              -0.000962246               0.999999985              -0.000171250              -0.000994846               0.999999985              -0.000168899              -0.001026261               0.999999985              -0.000163154              -0.001055947               0.999999985              -0.000154291              -0.001084030               0.999999985              -0.000142333              -0.001110393               0.999999985              -0.000127940              -0.001135296               0.999999985              -0.000112093              -0.001159058               0.999999985              -0.000095356              -0.001182061               0.999999985              -0.000204666              -0.000965222               0.999999985              -0.000133305              -0.000919548               0.999999985              -0.000109952              -0.000901765               0.999999985              -0.000105324              -0.000903331               0.999999985              -0.000108213              -0.000917603               0.999999985              -0.000113769              -0.000940131               0.999999985              -0.000119765              -0.000967969               0.999999985              -0.000125094              -0.000999049               0.999999985              -0.000128920              -0.001031809               0.999999985              -0.000130316              -0.001065273               0.999999985              -0.000128821              -0.001098156               0.999999985              -0.000123886              -0.001129747               0.999999985              -0.000115427              -0.001159636               0.999999985              -0.000103371              -0.001187895               0.999999985              -0.000087893              -0.001214602               0.999999985              -0.000069485              -0.001239907               0.999999985              -0.000048871              -0.001264442               0.999999985              -0.000166144              -0.001013242               0.999999985              -0.000103419              -0.000986334               0.999999985              -0.000080378              -0.000974698               0.999999985              -0.000074059              -0.000977279               0.999999985              -0.000074953              -0.000990630               0.999999985              -0.000078762              -0.001011779               0.999999985              -0.000083432              -0.001038380               0.999999985              -0.000087879              -0.001068778               0.999999985              -0.000091147              -0.001101656               0.999999985              -0.000092524              -0.001136035               0.999999985              -0.000091747              -0.001170566               0.999999985              -0.000087882              -0.001204379               0.999999985              -0.000080256              -0.001236902               0.999999985              -0.000068705              -0.001267821               0.999999985              -0.000053132              -0.001297110               0.999999985              -0.000033223              -0.001324816               0.999999985              -0.000008910              -0.001351339               0.999999985              -0.000126090              -0.001051229               0.999999985              -0.000075728              -0.001041576               0.999999985              -0.000055373              -0.001037386               0.999999985              -0.000048523              -0.001042697               0.999999985              -0.000047942              -0.001056675               0.999999985              -0.000050123              -0.001077528               0.999999985              -0.000053281              -0.001103721               0.999999985              -0.000056498              -0.001133970               0.999999985              -0.000058968              -0.001167231               0.999999985              -0.000060221              -0.001202515               0.999999985              -0.000059828              -0.001238655               0.999999985              -0.000056914              -0.001274868               0.999999985              -0.000050729              -0.001310385               0.999999985              -0.000040741              -0.001344636               0.999999985              -0.000026470              -0.001377336               0.999999985              -0.000007251              -0.001408376               0.999999985               0.000017931              -0.001437885               0.999999985              -0.000084825              -0.001078754               0.999999985              -0.000049629              -0.001082889               0.999999985              -0.000034388              -0.001085698               0.999999985              -0.000028563              -0.001094284               0.999999985              -0.000027383              -0.001109681               0.999999985              -0.000028355              -0.001131156               0.999999985              -0.000030186              -0.001157611               0.999999985              -0.000032065              -0.001188129               0.999999985              -0.000033685              -0.001221964               0.999999985              -0.000034611              -0.001258220               0.999999985              -0.000034379              -0.001295906               0.999999985              -0.000032362              -0.001334262               0.999999985              -0.000027955              -0.001372544               0.999999985              -0.000020598              -0.001410183               0.999999985              -0.000009592              -0.001446601               0.999999985               0.000005842              -0.001481437               0.999999985               0.000027261              -0.001514442               0.999999985              -0.000042641              -0.001095518               0.999999985              -0.000024553              -0.001108524               0.999999985              -0.000016393              -0.001116214               0.999999985              -0.000013056              -0.001127412               0.999999985              -0.000012204              -0.001144116               0.999999985              -0.000012481              -0.001166282               0.999999985              -0.000013241              -0.001193268               0.999999985              -0.000014066              -0.001224193               0.999999985              -0.000014903              -0.001258525               0.999999985              -0.000015378              -0.001295615               0.999999985              -0.000015242              -0.001334436               0.999999985              -0.000014194              -0.001374312               0.999999985              -0.000011863              -0.001414571               0.999999985              -0.000007866              -0.001454689               0.999999985              -0.000001997              -0.001494020               0.999999985               0.000006678              -0.001532002               0.999999985               0.000019115              -0.001567981               0.999999985              -0.000000000              -0.001101080               0.999999985               0.000000000              -0.001117163               0.999999985               0.000000000              -0.001126620               0.999999985              -0.000000000              -0.001138723               0.999999985               0.000000000              -0.001156009               0.999999985              -0.000000000              -0.001178586               0.999999985               0.000000000              -0.001205762               0.999999985               0.000000000              -0.001236862               0.999999985               0.000000000              -0.001271382               0.999999985              -0.000000000              -0.001308826               0.999999985              -0.000000000              -0.001348115               0.999999985               0.000000000              -0.001388538               0.999999985              -0.000000000              -0.001429486               0.999999985              -0.000000000              -0.001470422               0.999999985              -0.000000000              -0.001510821               0.999999985              -0.000000000              -0.001550012               0.999999985               0.000000000              -0.001587166               0.999999985               0.000454699               0.000000000               0.999999985               0.000497017               0.000000000               0.999999985               0.000516334               0.000000000               0.999999985               0.000527846              -0.000000000               0.999999985               0.000537154              -0.000000000               0.999999985               0.000546345              -0.000000000               0.999999985               0.000556334              -0.000000000               0.999999985               0.000567315               0.000000000               0.999999985               0.000579346              -0.000000000               0.999999985               0.000592285               0.000000000               0.999999985               0.000605978               0.000000000               0.999999985               0.000620339              -0.000000000               0.999999985               0.000635162              -0.000000000               0.999999985               0.000650249              -0.000000000               0.999999985               0.000665275              -0.000000000               0.999999985               0.000679838               0.000000000               0.999999985               0.000693485               0.000000000               0.999999985               0.000452073              -0.000107895               0.999999985               0.000491552              -0.000089859               0.999999985               0.000509120              -0.000082780               0.999999985               0.000519582              -0.000081398               0.999999985               0.000528259              -0.000082850               0.999999985               0.000537058              -0.000085924               0.999999985               0.000546729              -0.000089857               0.999999985               0.000557436              -0.000094195               0.999999985               0.000569097              -0.000098627               0.999999985               0.000581548              -0.000102785               0.999999985               0.000594716              -0.000106625               0.999999985               0.000608417              -0.000110021               0.999999985               0.000622457              -0.000112603               0.999999985               0.000636626              -0.000113969               0.999999985               0.000650642              -0.000113685               0.999999985               0.000664181              -0.000111314               0.999999985               0.000676765              -0.000106161               0.999999985               0.000444193              -0.000214583               0.999999985               0.000475433              -0.000178973               0.999999985               0.000488199              -0.000165689               0.999999985               0.000495833              -0.000163611               0.999999985               0.000502817              -0.000167092               0.999999985               0.000510624              -0.000173637               0.999999985               0.000519529              -0.000181777               0.999999985               0.000529474              -0.000190587               0.999999985               0.000540243              -0.000199324               0.999999985               0.000551582              -0.000207700               0.999999985               0.000563352              -0.000215513               0.999999985               0.000575245              -0.000222358               0.999999985               0.000587087              -0.000227622               0.999999985               0.000598626              -0.000230679               0.999999985               0.000609646              -0.000231118               0.999999985               0.000620037              -0.000228229               0.999999985               0.000629665              -0.000221022               0.999999985               0.000431277              -0.000318932               0.999999985               0.000449630              -0.000266811               0.999999985               0.000455472              -0.000248918               0.999999985               0.000459493              -0.000247250               0.999999985               0.000464538              -0.000253664               0.999999985               0.000471189              -0.000264235               0.999999985               0.000479273              -0.000276874               0.999999985               0.000488336              -0.000290165               0.999999985               0.000497961              -0.000303376               0.999999985               0.000507790              -0.000315945               0.999999985               0.000517516              -0.000327580               0.999999985               0.000526876              -0.000337738               0.999999985               0.000535609              -0.000345855               0.999999985               0.000543625              -0.000351356               0.999999985               0.000550818              -0.000353962               0.999999985               0.000557307              -0.000353217               0.999999985               0.000563380              -0.000348529               0.999999985               0.000413665              -0.000419877               0.999999985               0.000415666              -0.000353069               0.999999985               0.000413921              -0.000332442               0.999999985               0.000414589              -0.000332507               0.999999985               0.000418197              -0.000342633               0.999999985               0.000424104              -0.000357648               0.999999985               0.000431463              -0.000374977               0.999999985               0.000439679              -0.000392802               0.999999985               0.000448044              -0.000410325               0.999999985               0.000456021              -0.000426978               0.999999985               0.000463382              -0.000442360               0.999999985               0.000469873              -0.000455821               0.999999985               0.000475297              -0.000466984               0.999999985               0.000479687              -0.000475623               0.999999985               0.000483264              -0.000481643               0.999999985               0.000486359              -0.000485321               0.999999985               0.000489315              -0.000486577               0.999999985               0.000391883              -0.000516347               0.999999985               0.000375512              -0.000437538               0.999999985               0.000366914              -0.000416079               0.999999985               0.000365348              -0.000419014               0.999999985               0.000368449              -0.000433226               0.999999985               0.000374212              -0.000452767               0.999999985               0.000381239              -0.000474693               0.999999985               0.000388662              -0.000497054               0.999999985               0.000395783              -0.000518728               0.999999985               0.000402082              -0.000539157               0.999999985               0.000407204              -0.000557875               0.999999985               0.000410877              -0.000574502               0.999999985               0.000413266              -0.000588877               0.999999985               0.000414683              -0.000601292               0.999999985               0.000415434              -0.000611958               0.999999985               0.000415798              -0.000621052               0.999999985               0.000415779              -0.000628955               0.999999985               0.000366382              -0.000607459               0.999999985               0.000331342              -0.000520018               0.999999985               0.000317626              -0.000499413               0.999999985               0.000315433              -0.000505789               0.999999985               0.000319044              -0.000524195               0.999999985               0.000325252              -0.000548139               0.999999985               0.000332386              -0.000574374               0.999999985               0.000339346              -0.000600940               0.999999985               0.000345364              -0.000626424               0.999999985               0.000349867              -0.000650360               0.999999985               0.000352654              -0.000672277               0.999999985               0.000353724              -0.000692082               0.999999985               0.000353332              -0.000710201               0.999999985               0.000351732              -0.000726897               0.999999985               0.000349212              -0.000742218               0.999999985               0.000345759              -0.000756349               0.999999985               0.000341277              -0.000768999               0.999999985               0.000337655              -0.000692405               0.999999985               0.000285314              -0.000600291               0.999999985               0.000268889              -0.000581636               0.999999985               0.000267778              -0.000591475               0.999999985               0.000272797              -0.000613901               0.999999985               0.000279994              -0.000641968               0.999999985               0.000287410              -0.000672212               0.999999985               0.000293884              -0.000702599               0.999999985               0.000298564              -0.000731685               0.999999985               0.000300917              -0.000758958               0.999999985               0.000300879              -0.000784245               0.999999985               0.000298588              -0.000807776               0.999999985               0.000294438              -0.000829656               0.999999985               0.000288806              -0.000850140               0.999999985               0.000281815              -0.000869283               0.999999985               0.000273524              -0.000886890               0.999999985               0.000263867              -0.000902916               0.999999985               0.000306887              -0.000769677               0.999999985               0.000238974              -0.000678302               0.999999985               0.000223259              -0.000661731               0.999999985               0.000224464              -0.000674617               0.999999985               0.000231526              -0.000700724               0.999999985               0.000239818              -0.000732649               0.999999985               0.000247430              -0.000766727               0.999999985               0.000253078              -0.000800742               0.999999985               0.000255713              -0.000833275               0.999999985               0.000254964              -0.000863981               0.999999985               0.000251025              -0.000892747               0.999999985               0.000244480              -0.000919278               0.999999985               0.000235783              -0.000943971               0.999999985               0.000225340              -0.000967131               0.999999985               0.000213578              -0.000988763               0.999999985               0.000200711              -0.001008967               0.999999985               0.000187107              -0.001027721               0.999999985               0.000275605              -0.000842261               0.999999985               0.000200993              -0.000762905               0.999999985               0.000182242              -0.000741627               0.999999985               0.000181962              -0.000748628               0.999999985               0.000188229              -0.000769735               0.999999985               0.000196060              -0.000798062               0.999999985               0.000203645              -0.000829892               0.999999985               0.000209684              -0.000862983               0.999999985               0.000213053              -0.000895751               0.999999985               0.000213242              -0.000927539               0.999999985               0.000210043              -0.000957592               0.999999985               0.000203744              -0.000985832               0.999999985               0.000194771              -0.001012313               0.999999985               0.000183435              -0.001036997               0.999999985               0.000170675              -0.001060399               0.999999985               0.000156987              -0.001082515               0.999999985               0.000142846              -0.001103406               0.999999985               0.000241250              -0.000907954               0.999999985               0.000165787              -0.000844097               0.999999985               0.000144094              -0.000822808               0.999999985               0.000141720              -0.000825766               0.999999985               0.000146535              -0.000842740               0.999999985               0.000153483              -0.000867798               0.999999985               0.000160493              -0.000897477               0.999999985               0.000166440              -0.000929482               0.999999985               0.000170284              -0.000962246               0.999999985               0.000171250              -0.000994846               0.999999985               0.000168899              -0.001026261               0.999999985               0.000163154              -0.001055947               0.999999985               0.000154291              -0.001084030               0.999999985               0.000142333              -0.001110393               0.999999985               0.000127940              -0.001135296               0.999999985               0.000112093              -0.001159058               0.999999985               0.000095356              -0.001182061               0.999999985               0.000204666              -0.000965222               0.999999985               0.000133305              -0.000919548               0.999999985               0.000109952              -0.000901765               0.999999985               0.000105324              -0.000903331               0.999999985               0.000108213              -0.000917603               0.999999985               0.000113769              -0.000940131               0.999999985               0.000119765              -0.000967969               0.999999985               0.000125094              -0.000999049               0.999999985               0.000128920              -0.001031809               0.999999985               0.000130316              -0.001065273               0.999999985               0.000128821              -0.001098156               0.999999985               0.000123886              -0.001129747               0.999999985               0.000115427              -0.001159636               0.999999985               0.000103371              -0.001187895               0.999999985               0.000087893              -0.001214602               0.999999985               0.000069485              -0.001239907               0.999999985               0.000048871              -0.001264442               0.999999985               0.000166144              -0.001013242               0.999999985               0.000103419              -0.000986334               0.999999985               0.000080378              -0.000974698               0.999999985               0.000074059              -0.000977279               0.999999985               0.000074953              -0.000990630               0.999999985               0.000078762              -0.001011779               0.999999985               0.000083432              -0.001038380               0.999999985               0.000087879              -0.001068778               0.999999985               0.000091147              -0.001101656               0.999999985               0.000092524              -0.001136035               0.999999985               0.000091747              -0.001170566               0.999999985               0.000087882              -0.001204379               0.999999985               0.000080256              -0.001236902               0.999999985               0.000068705              -0.001267821               0.999999985               0.000053132              -0.001297110               0.999999985               0.000033223              -0.001324816               0.999999985               0.000008910              -0.001351339               0.999999985               0.000126090              -0.001051229               0.999999985               0.000075728              -0.001041576               0.999999985               0.000055373              -0.001037386               0.999999985               0.000048523              -0.001042697               0.999999985               0.000047942              -0.001056675               0.999999985               0.000050123              -0.001077528               0.999999985               0.000053281              -0.001103721               0.999999985               0.000056498              -0.001133970               0.999999985               0.000058968              -0.001167231               0.999999985               0.000060221              -0.001202515               0.999999985               0.000059828              -0.001238655               0.999999985               0.000056914              -0.001274868               0.999999985               0.000050729              -0.001310385               0.999999985               0.000040741              -0.001344636               0.999999985               0.000026470              -0.001377336               0.999999985               0.000007251              -0.001408376               0.999999985              -0.000017931              -0.001437885               0.999999985               0.000084825              -0.001078754               0.999999985               0.000049629              -0.001082889               0.999999985               0.000034388              -0.001085698               0.999999985               0.000028563              -0.001094284               0.999999985               0.000027383              -0.001109681               0.999999985               0.000028355              -0.001131156               0.999999985               0.000030186              -0.001157611               0.999999985               0.000032065              -0.001188129               0.999999985               0.000033685              -0.001221964               0.999999985               0.000034611              -0.001258220               0.999999985               0.000034379              -0.001295906               0.999999985               0.000032362              -0.001334262               0.999999985               0.000027955              -0.001372544               0.999999985               0.000020598              -0.001410183               0.999999985               0.000009592              -0.001446601               0.999999985              -0.000005842              -0.001481437               0.999999985              -0.000027261              -0.001514442               0.999999985               0.000042641              -0.001095518               0.999999985               0.000024553              -0.001108524               0.999999985               0.000016393              -0.001116214               0.999999985               0.000013056              -0.001127412               0.999999985               0.000012204              -0.001144116               0.999999985               0.000012481              -0.001166282               0.999999985               0.000013241              -0.001193268               0.999999985               0.000014066              -0.001224193               0.999999985               0.000014903              -0.001258525               0.999999985               0.000015378              -0.001295615               0.999999985               0.000015242              -0.001334436               0.999999985               0.000014194              -0.001374312               0.999999985               0.000011863              -0.001414571               0.999999985               0.000007866              -0.001454689               0.999999985               0.000001997              -0.001494020               0.999999985              -0.000006678              -0.001532002               0.999999985              -0.000019115              -0.001567981               0.999999985              -0.000000000              -0.001101080               0.999999985               0.000000000              -0.001117163               0.999999985               0.000000000              -0.001126620               0.999999985              -0.000000000              -0.001138723               0.999999985               0.000000000              -0.001156009               0.999999985              -0.000000000              -0.001178586               0.999999985               0.000000000              -0.001205762               0.999999985               0.000000000              -0.001236862               0.999999985               0.000000000              -0.001271382               0.999999985              -0.000000000              -0.001308826               0.999999985              -0.000000000              -0.001348115               0.999999985               0.000000000              -0.001388538               0.999999985              -0.000000000              -0.001429486               0.999999985              -0.000000000              -0.001470422               0.999999985              -0.000000000              -0.001510821               0.999999985              -0.000000000              -0.001550012               0.999999985               0.000000000              -0.001587166               0.999999985               0.000454699               0.000000000               0.999999985               0.000497017               0.000000000               0.999999985               0.000516334               0.000000000               0.999999985               0.000527846              -0.000000000               0.999999985               0.000537154              -0.000000000               0.999999985               0.000546345              -0.000000000               0.999999985               0.000556334              -0.000000000               0.999999985               0.000567315               0.000000000               0.999999985               0.000579346              -0.000000000               0.999999985               0.000592285               0.000000000               0.999999985               0.000605978               0.000000000               0.999999985               0.000620339              -0.000000000               0.999999985               0.000635162              -0.000000000               0.999999985               0.000650249              -0.000000000               0.999999985               0.000665275              -0.000000000               0.999999985               0.000679838               0.000000000               0.999999985               0.000693485               0.000000000               0.999999985               0.000452073               0.000107895               0.999999985               0.000491552               0.000089859               0.999999985               0.000509120               0.000082780               0.999999985               0.000519582               0.000081398               0.999999985               0.000528259               0.000082850               0.999999985               0.000537058               0.000085924               0.999999985               0.000546729               0.000089857               0.999999985               0.000557436               0.000094195               0.999999985               0.000569097               0.000098627               0.999999985               0.000581548               0.000102785               0.999999985               0.000594716               0.000106625               0.999999985               0.000608417               0.000110021               0.999999985               0.000622457               0.000112603               0.999999985               0.000636626               0.000113969               0.999999985               0.000650642               0.000113685               0.999999985               0.000664181               0.000111314               0.999999985               0.000676765               0.000106161               0.999999985               0.000444193               0.000214583               0.999999985               0.000475433               0.000178973               0.999999985               0.000488199               0.000165689               0.999999985               0.000495833               0.000163611               0.999999985               0.000502817               0.000167092               0.999999985               0.000510624               0.000173637               0.999999985               0.000519529               0.000181777               0.999999985               0.000529474               0.000190587               0.999999985               0.000540243               0.000199324               0.999999985               0.000551582               0.000207700               0.999999985               0.000563352               0.000215513               0.999999985               0.000575245               0.000222358               0.999999985               0.000587087               0.000227622               0.999999985               0.000598626               0.000230679               0.999999985               0.000609646               0.000231118               0.999999985               0.000620037               0.000228229               0.999999985               0.000629665               0.000221022               0.999999985               0.000431277               0.000318932               0.999999985               0.000449630               0.000266811               0.999999985               0.000455472               0.000248918               0.999999985               0.000459493               0.000247250               0.999999985               0.000464538               0.000253664               0.999999985               0.000471189               0.000264235               0.999999985               0.000479273               0.000276874               0.999999985               0.000488336               0.000290165               0.999999985               0.000497961               0.000303376               0.999999985               0.000507790               0.000315945               0.999999985               0.000517516               0.000327580               0.999999985               0.000526876               0.000337738               0.999999985               0.000535609               0.000345855               0.999999985               0.000543625               0.000351356               0.999999985               0.000550818               0.000353962               0.999999985               0.000557307               0.000353217               0.999999985               0.000563380               0.000348529               0.999999985               0.000413665               0.000419877               0.999999985               0.000415666               0.000353069               0.999999985               0.000413921               0.000332442               0.999999985               0.000414589               0.000332507               0.999999985               0.000418197               0.000342633               0.999999985               0.000424104               0.000357648               0.999999985               0.000431463               0.000374977               0.999999985               0.000439679               0.000392802               0.999999985               0.000448044               0.000410325               0.999999985               0.000456021               0.000426978               0.999999985               0.000463382               0.000442360               0.999999985               0.000469873               0.000455821               0.999999985               0.000475297               0.000466984               0.999999985               0.000479687               0.000475623               0.999999985               0.000483264               0.000481643               0.999999985               0.000486359               0.000485321               0.999999985               0.000489315               0.000486577               0.999999985               0.000391883               0.000516347               0.999999985               0.000375512               0.000437538               0.999999985               0.000366914               0.000416079               0.999999985               0.000365348               0.000419014               0.999999985               0.000368449               0.000433226               0.999999985               0.000374212               0.000452767               0.999999985               0.000381239               0.000474693               0.999999985               0.000388662               0.000497054               0.999999985               0.000395783               0.000518728               0.999999985               0.000402082               0.000539157               0.999999985               0.000407204               0.000557875               0.999999985               0.000410877               0.000574502               0.999999985               0.000413266               0.000588877               0.999999985               0.000414683               0.000601292               0.999999985               0.000415434               0.000611958               0.999999985               0.000415798               0.000621052               0.999999985               0.000415779               0.000628955               0.999999985               0.000366382               0.000607459               0.999999985               0.000331342               0.000520018               0.999999985               0.000317626               0.000499413               0.999999985               0.000315433               0.000505789               0.999999985               0.000319044               0.000524195               0.999999985               0.000325252               0.000548139               0.999999985               0.000332386               0.000574374               0.999999985               0.000339346               0.000600940               0.999999985               0.000345364               0.000626424               0.999999985               0.000349867               0.000650360               0.999999985               0.000352654               0.000672277               0.999999985               0.000353724               0.000692082               0.999999985               0.000353332               0.000710201               0.999999985               0.000351732               0.000726897               0.999999985               0.000349212               0.000742218               0.999999985               0.000345759               0.000756349               0.999999985               0.000341277               0.000768999               0.999999985               0.000337655               0.000692405               0.999999985               0.000285314               0.000600291               0.999999985               0.000268889               0.000581636               0.999999985               0.000267778               0.000591475               0.999999985               0.000272797               0.000613901               0.999999985               0.000279994               0.000641968               0.999999985               0.000287410               0.000672212               0.999999985               0.000293884               0.000702599               0.999999985               0.000298564               0.000731685               0.999999985               0.000300917               0.000758958               0.999999985               0.000300879               0.000784245               0.999999985               0.000298588               0.000807776               0.999999985               0.000294438               0.000829656               0.999999985               0.000288806               0.000850140               0.999999985               0.000281815               0.000869283               0.999999985               0.000273524               0.000886890               0.999999985               0.000263867               0.000902916               0.999999985               0.000306887               0.000769677               0.999999985               0.000238974               0.000678302               0.999999985               0.000223259               0.000661731               0.999999985               0.000224464               0.000674617               0.999999985               0.000231526               0.000700724               0.999999985               0.000239818               0.000732649               0.999999985               0.000247430               0.000766727               0.999999985               0.000253078               0.000800742               0.999999985               0.000255713               0.000833275               0.999999985               0.000254964               0.000863981               0.999999985               0.000251025               0.000892747               0.999999985               0.000244480               0.000919278               0.999999985               0.000235783               0.000943971               0.999999985               0.000225340               0.000967131               0.999999985               0.000213578               0.000988763               0.999999985               0.000200711               0.001008967               0.999999985               0.000187107               0.001027721               0.999999985               0.000275605               0.000842261               0.999999985               0.000200993               0.000762905               0.999999985               0.000182242               0.000741627               0.999999985               0.000181962               0.000748628               0.999999985               0.000188229               0.000769735               0.999999985               0.000196060               0.000798062               0.999999985               0.000203645               0.000829892               0.999999985               0.000209684               0.000862983               0.999999985               0.000213053               0.000895751               0.999999985               0.000213242               0.000927539               0.999999985               0.000210043               0.000957592               0.999999985               0.000203744               0.000985832               0.999999985               0.000194771               0.001012313               0.999999985               0.000183435               0.001036997               0.999999985               0.000170675               0.001060399               0.999999985               0.000156987               0.001082515               0.999999985               0.000142846               0.001103406               0.999999985               0.000241250               0.000907954               0.999999985               0.000165787               0.000844097               0.999999985               0.000144094               0.000822808               0.999999985               0.000141720               0.000825766               0.999999985               0.000146535               0.000842740               0.999999985               0.000153483               0.000867798               0.999999985               0.000160493               0.000897477               0.999999985               0.000166440               0.000929482               0.999999985               0.000170284               0.000962246               0.999999985               0.000171250               0.000994846               0.999999985               0.000168899               0.001026261               0.999999985               0.000163154               0.001055947               0.999999985               0.000154291               0.001084030               0.999999985               0.000142333               0.001110393               0.999999985               0.000127940               0.001135296               0.999999985               0.000112093               0.001159058               0.999999985               0.000095356               0.001182061               0.999999985               0.000204666               0.000965222               0.999999985               0.000133305               0.000919548               0.999999985               0.000109952               0.000901765               0.999999985               0.000105324               0.000903331               0.999999985               0.000108213               0.000917603               0.999999985               0.000113769               0.000940131               0.999999985               0.000119765               0.000967969               0.999999985               0.000125094               0.000999049               0.999999985               0.000128920               0.001031809               0.999999985               0.000130316               0.001065273               0.999999985               0.000128821               0.001098156               0.999999985               0.000123886               0.001129747               0.999999985               0.000115427               0.001159636               0.999999985               0.000103371               0.001187895               0.999999985               0.000087893               0.001214602               0.999999985               0.000069485               0.001239907               0.999999985               0.000048871               0.001264442               0.999999985               0.000166144               0.001013242               0.999999985               0.000103419               0.000986334               0.999999985               0.000080378               0.000974698               0.999999985               0.000074059               0.000977279               0.999999985               0.000074953               0.000990630               0.999999985               0.000078762               0.001011779               0.999999985               0.000083432               0.001038380               0.999999985               0.000087879               0.001068778               0.999999985               0.000091147               0.001101656               0.999999985               0.000092524               0.001136035               0.999999985               0.000091747               0.001170566               0.999999985               0.000087882               0.001204379               0.999999985               0.000080256               0.001236902               0.999999985               0.000068705               0.001267821               0.999999985               0.000053132               0.001297110               0.999999985               0.000033223               0.001324816               0.999999985               0.000008910               0.001351339               0.999999985               0.000126090               0.001051229               0.999999985               0.000075728               0.001041576               0.999999985               0.000055373               0.001037386               0.999999985               0.000048523               0.001042697               0.999999985               0.000047942               0.001056675               0.999999985               0.000050123               0.001077528               0.999999985               0.000053281               0.001103721               0.999999985               0.000056498               0.001133970               0.999999985               0.000058968               0.001167231               0.999999985               0.000060221               0.001202515               0.999999985               0.000059828               0.001238655               0.999999985               0.000056914               0.001274868               0.999999985               0.000050729               0.001310385               0.999999985               0.000040741               0.001344636               0.999999985               0.000026470               0.001377336               0.999999985               0.000007251               0.001408376               0.999999985              -0.000017931               0.001437885               0.999999985               0.000084825               0.001078754               0.999999985               0.000049629               0.001082889               0.999999985               0.000034388               0.001085698               0.999999985               0.000028563               0.001094284               0.999999985               0.000027383               0.001109681               0.999999985               0.000028355               0.001131156               0.999999985               0.000030186               0.001157611               0.999999985               0.000032065               0.001188129               0.999999985               0.000033685               0.001221964               0.999999985               0.000034611               0.001258220               0.999999985               0.000034379               0.001295906               0.999999985               0.000032362               0.001334262               0.999999985               0.000027955               0.001372544               0.999999985               0.000020598               0.001410183               0.999999985               0.000009592               0.001446601               0.999999985              -0.000005842               0.001481437               0.999999985              -0.000027261               0.001514442               0.999999985               0.000042641               0.001095518               0.999999985               0.000024553               0.001108524               0.999999985               0.000016393               0.001116214               0.999999985               0.000013056               0.001127412               0.999999985               0.000012204               0.001144116               0.999999985               0.000012481               0.001166282               0.999999985               0.000013241               0.001193268               0.999999985               0.000014066               0.001224193               0.999999985               0.000014903               0.001258525               0.999999985               0.000015378               0.001295615               0.999999985               0.000015242               0.001334436               0.999999985               0.000014194               0.001374312               0.999999985               0.000011863               0.001414571               0.999999985               0.000007866               0.001454689               0.999999985               0.000001997               0.001494020               0.999999985              -0.000006678               0.001532002               0.999999985              -0.000019115               0.001567981               0.999999985              -0.000000000               0.001101080               0.999999985              -0.000000000               0.001117163               0.999999985              -0.000000000               0.001126620               0.999999985              -0.000000000               0.001138723               0.999999985              -0.000000000               0.001156009               0.999999985               0.000000000               0.001178586               0.999999985               0.000000000               0.001205762               0.999999985              -0.000000000               0.001236862               0.999999985               0.000000000               0.001271382               0.999999985               0.000000000               0.001308826               0.999999985              -0.000000000               0.001348115               0.999999985              -0.000000000               0.001388538               0.999999985              -0.000000000               0.001429486               0.999999985               0.000000000               0.001470422               0.999999985               0.000000000               0.001510821               0.999999985              -0.000000000               0.001550012               0.999999985              -0.000000000               0.001587166               0.999999985 </DataArray>
<DataArray type="Float64"                                    Name="stress"                                                      NumberOfComponents="10" format="ascii">
              0.001785527               0.019839863               0.000000000              -0.001810406               0.007216690               0.005406284               0.000000000               0.000000000               0.000000000               0.000000000               0.001797221               0.015715510              -0.000000000              -0.001290478               0.005668610               0.004378132               0.000000000               0.000000000               0.000000000               0.000000000               0.002374559               0.012389061              -0.000000000              -0.000658172               0.004349036               0.003690865               0.000000000               0.000000000               0.000000000               0.000000000               0.002299826               0.010541917               0.000000000              -0.000455304               0.003665705               0.003210401               0.000000000               0.000000000               0.000000000               0.000000000               0.002037426               0.009399227               0.000000000              -0.000410868               0.003270000               0.002859133               0.000000000               0.000000000               0.000000000               0.000000000               0.001736303               0.008630183              -0.000000000              -0.000427658               0.003019252               0.002591593               0.000000000               0.000000000               0.000000000               0.000000000               0.001446315               0.008072008              -0.000000000              -0.000466632               0.002846186               0.002379555               0.000000000               0.000000000               0.000000000               0.000000000               0.001186569               0.007638862               0.000000000              -0.000509893               0.002716226               0.002206333               0.000000000               0.000000000               0.000000000               0.000000000               0.000958905               0.007278914               0.000000000              -0.000550273               0.002609705               0.002059432               0.000000000               0.000000000               0.000000000               0.000000000               0.000759272               0.006956858               0.000000000              -0.000584879               0.002513889               0.001929010               0.000000000               0.000000000               0.000000000               0.000000000               0.000581228               0.006657806               0.000000000              -0.000614264               0.002424001               0.001809737               0.000000000               0.000000000               0.000000000               0.000000000               0.000425264               0.006370104              -0.000000000              -0.000636788               0.002335609               0.001698822               0.000000000               0.000000000               0.000000000               0.000000000               0.000289793               0.006074702               0.000000000              -0.000650664               0.002241768               0.001591104               0.000000000               0.000000000               0.000000000               0.000000000               0.000175616               0.005754295               0.000000000              -0.000653429               0.002135889               0.001482460               0.000000000               0.000000000               0.000000000               0.000000000               0.000088485               0.005395775              -0.000000000              -0.000641289               0.002012337               0.001371048               0.000000000               0.000000000               0.000000000               0.000000000               0.000033149               0.004986584              -0.000000000              -0.000610891               0.001865808               0.001254918               0.000000000               0.000000000               0.000000000               0.000000000              -0.000018394               0.004673798              -0.000000000              -0.000591121               0.001754957               0.001163836               0.000000000               0.000000000               0.000000000               0.000000000               0.001856116               0.019437003              -0.001371772              -0.001733578               0.007056795               0.005323218               0.000000000               0.000000000               0.000000000               0.000000000               0.001771456               0.015449600              -0.000720742              -0.001266901               0.005572116               0.004305215               0.000000000               0.000000000               0.000000000               0.000000000               0.002247525               0.012268843              -0.000069937              -0.000690782               0.004319834               0.003629052               0.000000000               0.000000000               0.000000000               0.000000000               0.002133406               0.010496176               0.000204650              -0.000511994               0.003669355               0.003157361               0.000000000               0.000000000               0.000000000               0.000000000               0.001860145               0.009393800               0.000316146              -0.000476670               0.003290125               0.002813456               0.000000000               0.000000000               0.000000000               0.000000000               0.001564950               0.008647299               0.000356267              -0.000494055               0.003047089               0.002553034               0.000000000               0.000000000               0.000000000               0.000000000               0.001288723               0.008101353               0.000363372              -0.000529397               0.002876890               0.002347493               0.000000000               0.000000000               0.000000000               0.000000000               0.001045905               0.007672428               0.000355252              -0.000566838               0.002746396               0.002179558               0.000000000               0.000000000               0.000000000               0.000000000               0.000837020               0.007310805               0.000339482              -0.000599967               0.002636899               0.002036933               0.000000000               0.000000000               0.000000000               0.000000000               0.000654132               0.006990271               0.000322485              -0.000628483               0.002539561               0.001911078               0.000000000               0.000000000               0.000000000               0.000000000               0.000493484               0.006695421               0.000306655              -0.000651870               0.002449074               0.001797205               0.000000000               0.000000000               0.000000000               0.000000000               0.000355545               0.006411226               0.000286684              -0.000668072               0.002359745               0.001691672               0.000000000               0.000000000               0.000000000               0.000000000               0.000236634               0.006120543               0.000257583              -0.000676328               0.002265603               0.001589275               0.000000000               0.000000000               0.000000000               0.000000000               0.000138141               0.005811579               0.000218732              -0.000674643               0.002162055               0.001487412               0.000000000               0.000000000               0.000000000               0.000000000               0.000063714               0.005478103               0.000167664              -0.000660868               0.002046305               0.001385437               0.000000000               0.000000000               0.000000000               0.000000000               0.000019868               0.005111671               0.000096195              -0.000631507               0.001914376               0.001282869               0.000000000               0.000000000               0.000000000               0.000000000              -0.000021173               0.004838988               0.000059344              -0.000612812               0.001817250               0.001204439               0.000000000               0.000000000               0.000000000               0.000000000               0.002033412               0.018288875              -0.002558198              -0.001523577               0.006604090               0.005080512               0.000000000               0.000000000               0.000000000               0.000000000               0.001684344               0.014700514              -0.001347765              -0.001205933               0.005302100               0.004096167               0.000000000               0.000000000               0.000000000               0.000000000               0.001883259               0.011934649              -0.000148290              -0.000785607               0.004240046               0.003454438               0.000000000               0.000000000               0.000000000               0.000000000               0.001672404               0.010367231               0.000342907              -0.000668751               0.003678626               0.003009875               0.000000000               0.000000000               0.000000000               0.000000000               0.001379920               0.009373893               0.000536926              -0.000654265               0.003342688               0.002688423               0.000000000               0.000000000               0.000000000               0.000000000               0.001103745               0.008684211               0.000604312              -0.000671621               0.003118582               0.002446961               0.000000000               0.000000000               0.000000000               0.000000000               0.000868455               0.008166204               0.000613066              -0.000695103               0.002953742               0.002258639               0.000000000               0.000000000               0.000000000               0.000000000               0.000672694               0.007746190               0.000594386              -0.000716012               0.002820708               0.002104696               0.000000000               0.000000000               0.000000000               0.000000000               0.000513471               0.007388455               0.000565171              -0.000731004               0.002706462               0.001975458               0.000000000               0.000000000               0.000000000               0.000000000               0.000380220               0.007071902               0.000536417              -0.000741403               0.002604411               0.001863008               0.000000000               0.000000000               0.000000000               0.000000000               0.000270184               0.006781093               0.000507638              -0.000746316               0.002509114               0.001762798               0.000000000               0.000000000               0.000000000               0.000000000               0.000182105               0.006502150               0.000470261              -0.000744478               0.002415521               0.001671043               0.000000000               0.000000000               0.000000000               0.000000000               0.000111337               0.006227041               0.000418649              -0.000736627               0.002321202               0.001584575               0.000000000               0.000000000               0.000000000               0.000000000               0.000060505               0.005954635               0.000353880              -0.000721638               0.002225405               0.001503766               0.000000000               0.000000000               0.000000000               0.000000000               0.000026193               0.005686638               0.000271303              -0.000701006               0.002129196               0.001428190               0.000000000               0.000000000               0.000000000               0.000000000               0.000006913               0.005423812               0.000155739              -0.000675382               0.002033047               0.001357664               0.000000000               0.000000000               0.000000000               0.000000000              -0.000014738               0.005248063               0.000093743              -0.000661533               0.001969848               0.001308315               0.000000000               0.000000000               0.000000000               0.000000000               0.002230598               0.016553946              -0.003422812              -0.001232768               0.005928849               0.004696081               0.000000000               0.000000000               0.000000000               0.000000000               0.001518749               0.013588644              -0.001819614              -0.001129048               0.004905852               0.003776804               0.000000000               0.000000000               0.000000000               0.000000000               0.001330880               0.011440080              -0.000250823              -0.000930928               0.004123631               0.003192703               0.000000000               0.000000000               0.000000000               0.000000000               0.001006646               0.010165040               0.000363609              -0.000893136               0.003686024               0.002792889               0.000000000               0.000000000               0.000000000               0.000000000               0.000716898               0.009319181               0.000597445              -0.000896059               0.003405049               0.002508990               0.000000000               0.000000000               0.000000000               0.000000000               0.000485954               0.008701351               0.000674889              -0.000905434               0.003202233               0.002296799               0.000000000               0.000000000               0.000000000               0.000000000               0.000312651               0.008215677               0.000682070              -0.000909713               0.003041769               0.002132056               0.000000000               0.000000000               0.000000000               0.000000000               0.000187898               0.007808840               0.000658266              -0.000905641               0.002904801               0.001999160               0.000000000               0.000000000               0.000000000               0.000000000               0.000102304               0.007459626               0.000624761              -0.000894087               0.002784546               0.001890459               0.000000000               0.000000000               0.000000000               0.000000000               0.000042307               0.007148620               0.000591064              -0.000877710               0.002675420               0.001797709               0.000000000               0.000000000               0.000000000               0.000000000               0.000001701               0.006861789               0.000554610              -0.000857084               0.002572935               0.001715851               0.000000000               0.000000000               0.000000000               0.000000000              -0.000019545               0.006591680               0.000507526              -0.000831287               0.002474300               0.001643013               0.000000000               0.000000000               0.000000000               0.000000000              -0.000027289               0.006340233               0.000446304              -0.000802761               0.002380977               0.001578216               0.000000000               0.000000000               0.000000000               0.000000000              -0.000023892               0.006114216               0.000371204              -0.000773235               0.002295797               0.001522562               0.000000000               0.000000000               0.000000000               0.000000000              -0.000014446               0.005919560               0.000279284              -0.000745360               0.002221620               0.001476260               0.000000000               0.000000000               0.000000000               0.000000000              -0.000007579               0.005768632               0.000157635              -0.000723919               0.002164165               0.001440245               0.000000000               0.000000000               0.000000000               0.000000000              -0.000008712               0.005694338               0.000089780              -0.000715057               0.002136446               0.001421389               0.000000000               0.000000000               0.000000000               0.000000000               0.002341966               0.014437549              -0.003897860              -0.000926457               0.005121286               0.004194829               0.000000000               0.000000000               0.000000000               0.000000000               0.001254593               0.012256217              -0.002116760              -0.001061553               0.004439215               0.003377662               0.000000000               0.000000000               0.000000000               0.000000000               0.000664094               0.010843236              -0.000394620              -0.001106367               0.003983165               0.002876798               0.000000000               0.000000000               0.000000000               0.000000000               0.000260405               0.009895836               0.000248183              -0.001139325               0.003678354               0.002539029               0.000000000               0.000000000               0.000000000               0.000000000               0.000009025               0.009197941               0.000487677              -0.001146355               0.003448068               0.002301713               0.000000000               0.000000000               0.000000000               0.000000000              -0.000141388               0.008650303               0.000568013              -0.001134306               0.003261507               0.002127202               0.000000000               0.000000000               0.000000000               0.000000000              -0.000230096               0.008198050               0.000578439              -0.001111039               0.003103002               0.001991963               0.000000000               0.000000000               0.000000000               0.000000000              -0.000272385               0.007810300               0.000557387              -0.001078429               0.002962884               0.001884454               0.000000000               0.000000000               0.000000000               0.000000000              -0.000273256               0.007470106               0.000528246              -0.001036232               0.002835421               0.001799189               0.000000000               0.000000000               0.000000000               0.000000000              -0.000252174               0.007163945               0.000496669              -0.000990056               0.002717977               0.001727921               0.000000000               0.000000000               0.000000000               0.000000000              -0.000219949               0.006881349               0.000458774              -0.000942647               0.002607976               0.001665329               0.000000000               0.000000000               0.000000000               0.000000000              -0.000176484               0.006623863               0.000410394              -0.000894162               0.002505986               0.001611824               0.000000000               0.000000000               0.000000000               0.000000000              -0.000128343               0.006398711               0.000351596              -0.000847965               0.002415537               0.001567572               0.000000000               0.000000000               0.000000000               0.000000000              -0.000082545               0.006217335               0.000280627              -0.000808119               0.002341797               0.001533678               0.000000000               0.000000000               0.000000000               0.000000000              -0.000045391               0.006084606               0.000199653              -0.000777595               0.002287380               0.001509785               0.000000000               0.000000000               0.000000000               0.000000000              -0.000019543               0.006006717               0.000106279              -0.000758166               0.002254941               0.001496775               0.000000000               0.000000000               0.000000000               0.000000000              -0.000006496               0.005986891               0.000054448              -0.000750796               0.002245876               0.001495080               0.000000000               0.000000000               0.000000000               0.000000000               0.002276240               0.012160089              -0.003985794              -0.000666423               0.004275463               0.003609039               0.000000000               0.000000000               0.000000000               0.000000000               0.000887946               0.010841905              -0.002252699              -0.001022257               0.003954684               0.002932427               0.000000000               0.000000000               0.000000000               0.000000000              -0.000036036               0.010194457              -0.000586231              -0.001287817               0.003827391               0.002539573               0.000000000               0.000000000               0.000000000               0.000000000              -0.000450941               0.009557479               0.000013294              -0.001363784               0.003640389               0.002276605               0.000000000               0.000000000               0.000000000               0.000000000              -0.000621808               0.008993202               0.000241522              -0.001357325               0.003450145               0.002092821               0.000000000               0.000000000               0.000000000               0.000000000              -0.000670572               0.008508299               0.000328656              -0.001314999               0.003274404               0.001959405               0.000000000               0.000000000               0.000000000               0.000000000              -0.000658763               0.008087593               0.000351818              -0.001257982               0.003115165               0.001857182               0.000000000               0.000000000               0.000000000               0.000000000              -0.000611706               0.007718952               0.000341748              -0.001194256               0.002971044               0.001776788               0.000000000               0.000000000               0.000000000               0.000000000              -0.000537362               0.007387536               0.000321264              -0.001124950               0.002837471               0.001712521               0.000000000               0.000000000               0.000000000               0.000000000              -0.000447280               0.007087168               0.000297037              -0.001053623               0.002713574               0.001659950               0.000000000               0.000000000               0.000000000               0.000000000              -0.000348817               0.006814148               0.000266781              -0.000982572               0.002598884               0.001616312               0.000000000               0.000000000               0.000000000               0.000000000              -0.000252112               0.006576254               0.000228836              -0.000916571               0.002497587               0.001581015               0.000000000               0.000000000               0.000000000               0.000000000              -0.000170169               0.006383164               0.000185807              -0.000861707               0.002414936               0.001553229               0.000000000               0.000000000               0.000000000               0.000000000              -0.000106695               0.006237612               0.000138708              -0.000819710               0.002352420               0.001532710               0.000000000               0.000000000               0.000000000               0.000000000              -0.000061803               0.006134550               0.000088513              -0.000789993               0.002308161               0.001518168               0.000000000               0.000000000               0.000000000               0.000000000              -0.000028419               0.006067152               0.000041151              -0.000769049               0.002278713               0.001509664               0.000000000               0.000000000               0.000000000               0.000000000              -0.000018427               0.006034031               0.000022289              -0.000761162               0.002265044               0.001503882               0.000000000               0.000000000               0.000000000               0.000000000               0.001971480               0.009914924              -0.003748187              -0.000500063               0.003471628               0.002971565               0.000000000               0.000000000               0.000000000               0.000000000               0.000433825               0.009458248              -0.002263756              -0.001019596               0.003492582               0.002472987               0.000000000               0.000000000               0.000000000               0.000000000              -0.000693032               0.009518590              -0.000823557              -0.001449707               0.003656067               0.002206360               0.000000000               0.000000000               0.000000000               0.000000000              -0.001041491               0.009144377              -0.000302916              -0.001533603               0.003559296               0.002025694               0.000000000               0.000000000               0.000000000               0.000000000              -0.001094789               0.008700058              -0.000084888              -0.001498049               0.003399340               0.001901291               0.000000000               0.000000000               0.000000000               0.000000000              -0.001035693               0.008274637               0.000016150              -0.001422711               0.003232422               0.001809711               0.000000000               0.000000000               0.000000000               0.000000000              -0.000932400               0.007884458               0.000061747              -0.001335204               0.003073194               0.001737990               0.000000000               0.000000000               0.000000000               0.000000000              -0.000804989               0.007532942               0.000073376              -0.001243486               0.002925451               0.001681965               0.000000000               0.000000000               0.000000000               0.000000000              -0.000662292               0.007216714               0.000071790              -0.001150446               0.002789029               0.001638583               0.000000000               0.000000000               0.000000000               0.000000000              -0.000518190               0.006933158               0.000066750              -0.001060963               0.002664684               0.001603721               0.000000000               0.000000000               0.000000000               0.000000000              -0.000383035               0.006684466               0.000056172              -0.000979194               0.002554531               0.001575337               0.000000000               0.000000000               0.000000000               0.000000000              -0.000265499               0.006477339               0.000044427              -0.000909227               0.002462167               0.001552940               0.000000000               0.000000000               0.000000000               0.000000000              -0.000175333               0.006308006               0.000035185              -0.000854248               0.002387397               0.001533149               0.000000000               0.000000000               0.000000000               0.000000000              -0.000113558               0.006167415               0.000025882              -0.000813509               0.002326954               0.001513445               0.000000000               0.000000000               0.000000000               0.000000000              -0.000071658               0.006047926               0.000017638              -0.000782861               0.002276909               0.001494048               0.000000000               0.000000000               0.000000000               0.000000000              -0.000035678               0.005942187               0.000010505              -0.000756151               0.002232760               0.001476609               0.000000000               0.000000000               0.000000000               0.000000000              -0.000034701               0.005868016               0.000015963              -0.000746513               0.002204823               0.001458310               0.000000000               0.000000000               0.000000000               0.000000000               0.001446565               0.007832080              -0.003268451              -0.000436551               0.002756183               0.002319632               0.000000000               0.000000000               0.000000000               0.000000000              -0.000082549               0.008183601              -0.002192267              -0.001053905               0.003079141               0.002025236               0.000000000               0.000000000               0.000000000               0.000000000              -0.001240253               0.008827922              -0.001101701              -0.001568581               0.003465471               0.001896890               0.000000000               0.000000000               0.000000000               0.000000000              -0.001453515               0.008662822              -0.000657689              -0.001627917               0.003430217               0.001802300               0.000000000               0.000000000               0.000000000               0.000000000              -0.001376429               0.008324837              -0.000434797              -0.001556762               0.003293838               0.001737077               0.000000000               0.000000000               0.000000000               0.000000000              -0.001218238               0.007960112              -0.000308433              -0.001451850               0.003137294               0.001685444               0.000000000               0.000000000               0.000000000               0.000000000              -0.001038620               0.007609021              -0.000232395              -0.001340607               0.002983184               0.001642577               0.000000000               0.000000000               0.000000000               0.000000000              -0.000848812               0.007283862              -0.000188342              -0.001228784               0.002837524               0.001608740               0.000000000               0.000000000               0.000000000               0.000000000              -0.000657491               0.006992117              -0.000158200              -0.001120571               0.002704206               0.001583635               0.000000000               0.000000000               0.000000000               0.000000000              -0.000481946               0.006735290              -0.000131381              -0.001022639               0.002585954               0.001563315               0.000000000               0.000000000               0.000000000               0.000000000              -0.000336073               0.006511119              -0.000107339              -0.000939915               0.002483656               0.001543741               0.000000000               0.000000000               0.000000000               0.000000000              -0.000227419               0.006308837              -0.000082568              -0.000873885               0.002394220               0.001520335               0.000000000               0.000000000               0.000000000               0.000000000              -0.000160000               0.006120238              -0.000054676              -0.000825028               0.002315068               0.001490040               0.000000000               0.000000000               0.000000000               0.000000000              -0.000121229               0.005944679              -0.000026843              -0.000788544               0.002244388               0.001455844               0.000000000               0.000000000               0.000000000               0.000000000              -0.000092111               0.005783531              -0.000005512              -0.000757481               0.002180318               0.001422837               0.000000000               0.000000000               0.000000000               0.000000000              -0.000056406               0.005639300               0.000005653              -0.000726063               0.002121769               0.001395706               0.000000000               0.000000000               0.000000000               0.000000000              -0.000048490               0.005546832               0.000017597              -0.000711536               0.002086104               0.001374568               0.000000000               0.000000000               0.000000000               0.000000000               0.000798599               0.006059947              -0.002641964              -0.000458020               0.002172635               0.001714614               0.000000000               0.000000000               0.000000000               0.000000000              -0.000575330               0.007044857              -0.002087883              -0.001096354               0.002713713               0.001617359               0.000000000               0.000000000               0.000000000               0.000000000              -0.001637560               0.008155139              -0.001425970              -0.001633474               0.003262843               0.001629370               0.000000000               0.000000000               0.000000000               0.000000000              -0.001703187               0.008201817              -0.001033474              -0.001663918               0.003288551               0.001624633               0.000000000               0.000000000               0.000000000               0.000000000              -0.001521973               0.007981671              -0.000787280              -0.001568445               0.003183345               0.001614900               0.000000000               0.000000000               0.000000000               0.000000000              -0.001290119               0.007692064              -0.000624401              -0.001445299               0.003045762               0.001600463               0.000000000               0.000000000               0.000000000               0.000000000              -0.001053007               0.007394546              -0.000513960              -0.001319193               0.002904555               0.001585362               0.000000000               0.000000000               0.000000000               0.000000000              -0.000816630               0.007105650              -0.000432349              -0.001194440               0.002766673               0.001572233               0.000000000               0.000000000               0.000000000               0.000000000              -0.000591172               0.006842373              -0.000362782              -0.001076983               0.002639763               0.001562779               0.000000000               0.000000000               0.000000000               0.000000000              -0.000396084               0.006606652              -0.000298995              -0.000974361               0.002526982               0.001552622               0.000000000               0.000000000               0.000000000               0.000000000              -0.000256354               0.006372535              -0.000240766              -0.000892697               0.002421723               0.001529026               0.000000000               0.000000000               0.000000000               0.000000000              -0.000170949               0.006141827              -0.000185447              -0.000831832               0.002324533               0.001492700               0.000000000               0.000000000               0.000000000               0.000000000              -0.000130193               0.005921770              -0.000127736              -0.000789042               0.002236917               0.001447876               0.000000000               0.000000000               0.000000000               0.000000000              -0.000126920               0.005706833              -0.000072272              -0.000760947               0.002155908               0.001394960               0.000000000               0.000000000               0.000000000               0.000000000              -0.000134187               0.005507915              -0.000029464              -0.000738808               0.002082222               0.001343415               0.000000000               0.000000000               0.000000000               0.000000000              -0.000135837               0.005329211              -0.000003638              -0.000717089               0.002015416               0.001298327               0.000000000               0.000000000               0.000000000               0.000000000              -0.000133626               0.005232856               0.000007223              -0.000704215               0.001979006               0.001274791               0.000000000               0.000000000               0.000000000               0.000000000               0.000002962               0.004397420              -0.001963998              -0.000548567               0.001648647               0.001100080               0.000000000               0.000000000               0.000000000               0.000000000              -0.000969100               0.005730820              -0.001966840              -0.001079763               0.002270175               0.001190411               0.000000000               0.000000000               0.000000000               0.000000000              -0.001832554               0.007173915              -0.001777172              -0.001583944               0.002919262               0.001335318               0.000000000               0.000000000               0.000000000               0.000000000              -0.001822412               0.007518883              -0.001448489              -0.001623261               0.003047356               0.001424095               0.000000000               0.000000000               0.000000000               0.000000000              -0.001601166               0.007501877              -0.001176140              -0.001538168               0.003013323               0.001475155               0.000000000               0.000000000               0.000000000               0.000000000              -0.001340552               0.007361389              -0.000971872              -0.001422877               0.002928064               0.001505187               0.000000000               0.000000000               0.000000000               0.000000000              -0.001086711               0.007176111              -0.000821968              -0.001304528               0.002826855               0.001522328               0.000000000               0.000000000               0.000000000               0.000000000              -0.000843502               0.006968478              -0.000700859              -0.001187370               0.002718593               0.001531223               0.000000000               0.000000000               0.000000000               0.000000000              -0.000612002               0.006763678              -0.000595060              -0.001074958               0.002612856               0.001537898               0.000000000               0.000000000               0.000000000               0.000000000              -0.000411844               0.006552449              -0.000497413              -0.000973495               0.002508626               0.001535131               0.000000000               0.000000000               0.000000000               0.000000000              -0.000265919               0.006315193              -0.000403126              -0.000889117               0.002401415               0.001512299               0.000000000               0.000000000               0.000000000               0.000000000              -0.000175509               0.006076236              -0.000312664              -0.000825344               0.002300506               0.001475163               0.000000000               0.000000000               0.000000000               0.000000000              -0.000138050               0.005835696              -0.000222354              -0.000781229               0.002205622               0.001424393               0.000000000               0.000000000               0.000000000               0.000000000              -0.000147944               0.005602268              -0.000138277              -0.000755761               0.002119324               0.001363564               0.000000000               0.000000000               0.000000000               0.000000000              -0.000187394               0.005387773              -0.000071238              -0.000743742               0.002043821               0.001300078               0.000000000               0.000000000               0.000000000               0.000000000              -0.000237479               0.005188546              -0.000023407              -0.000737621               0.001975371               0.001237751               0.000000000               0.000000000               0.000000000               0.000000000              -0.000262713               0.005091447              -0.000003703              -0.000734946               0.001942114               0.001207168               0.000000000               0.000000000               0.000000000               0.000000000              -0.001058285               0.002876314              -0.001274226              -0.000756395               0.001210893               0.000454498               0.000000000               0.000000000               0.000000000               0.000000000              -0.001416790               0.004412836              -0.001780710              -0.001082899               0.001831896               0.000748997               0.000000000               0.000000000               0.000000000               0.000000000              -0.001943653               0.006046686              -0.002051400              -0.001484703               0.002510442               0.001025739               0.000000000               0.000000000               0.000000000               0.000000000              -0.001867906               0.006677557              -0.001843292              -0.001535156               0.002737548               0.001202392               0.000000000               0.000000000               0.000000000               0.000000000              -0.001631266               0.006896228              -0.001575125              -0.001473750               0.002789969               0.001316219               0.000000000               0.000000000               0.000000000               0.000000000              -0.001362696               0.006937062              -0.001341338              -0.001378141               0.002771711               0.001393570               0.000000000               0.000000000               0.000000000               0.000000000              -0.001109013               0.006889563              -0.001154722              -0.001277072               0.002722189               0.001445116               0.000000000               0.000000000               0.000000000               0.000000000              -0.000870753               0.006789326              -0.001001618              -0.001175195               0.002654818               0.001479622               0.000000000               0.000000000               0.000000000               0.000000000              -0.000638987               0.006667258              -0.000867418              -0.001073025               0.002580072               0.001507047               0.000000000               0.000000000               0.000000000               0.000000000              -0.000432501               0.006510125              -0.000743280              -0.000975951               0.002495337               0.001519386               0.000000000               0.000000000               0.000000000               0.000000000              -0.000268434               0.006304554              -0.000624561              -0.000888730               0.002397740               0.001509010               0.000000000               0.000000000               0.000000000               0.000000000              -0.000153635               0.006080051              -0.000507519              -0.000817618               0.002299203               0.001481585               0.000000000               0.000000000               0.000000000               0.000000000              -0.000092368               0.005844944              -0.000386656              -0.000765254               0.002203380               0.001438126               0.000000000               0.000000000               0.000000000               0.000000000              -0.000084681               0.005609817              -0.000267560              -0.000732981               0.002114247               0.001381267               0.000000000               0.000000000               0.000000000               0.000000000              -0.000132250               0.005384972              -0.000161676              -0.000722713               0.002035877               0.001313164               0.000000000               0.000000000               0.000000000               0.000000000              -0.000222453               0.005183129              -0.000071687              -0.000731309               0.001971462               0.001240153               0.000000000               0.000000000               0.000000000               0.000000000              -0.000291527               0.005080315              -0.000023867              -0.000744360               0.001941542               0.001197181               0.000000000               0.000000000               0.000000000               0.000000000              -0.002310370               0.001610065              -0.000622924              -0.001067645               0.000892564              -0.000175081               0.000000000               0.000000000               0.000000000               0.000000000              -0.001968238               0.003168654              -0.001504113              -0.001134169               0.001434263               0.000300094               0.000000000               0.000000000               0.000000000               0.000000000              -0.002008918               0.004794282              -0.002149562              -0.001352627               0.002048953               0.000696326               0.000000000               0.000000000               0.000000000               0.000000000              -0.001811217               0.005631099              -0.002097029              -0.001383091               0.002338044               0.000954952               0.000000000               0.000000000               0.000000000               0.000000000              -0.001550610               0.006068906              -0.001877767              -0.001340089               0.002469644               0.001129555               0.000000000               0.000000000               0.000000000               0.000000000              -0.001283350               0.006298588              -0.001645651              -0.001268577               0.002522367               0.001253790               0.000000000               0.000000000               0.000000000               0.000000000              -0.001032389               0.006407811              -0.001442347              -0.001188120               0.002531955               0.001343835               0.000000000               0.000000000               0.000000000               0.000000000              -0.000800756               0.006438626              -0.001270446              -0.001105110               0.002514557               0.001409447               0.000000000               0.000000000               0.000000000               0.000000000              -0.000581065               0.006423262              -0.001117424              -0.001020805               0.002481334               0.001460529               0.000000000               0.000000000               0.000000000               0.000000000              -0.000379932               0.006348846              -0.000978587              -0.000936078               0.002428287               0.001492209               0.000000000               0.000000000               0.000000000               0.000000000              -0.000203964               0.006206456              -0.000846979              -0.000852292               0.002352895               0.001500604               0.000000000               0.000000000               0.000000000               0.000000000              -0.000065260               0.006022784              -0.000713040              -0.000777319               0.002266681               0.001489362               0.000000000               0.000000000               0.000000000               0.000000000               0.000023313               0.005815299              -0.000572402              -0.000718168               0.002177803               0.001459635               0.000000000               0.000000000               0.000000000               0.000000000               0.000063813               0.005601558              -0.000426826              -0.000676263               0.002092588               0.001416325               0.000000000               0.000000000               0.000000000               0.000000000               0.000046020               0.005383300              -0.000281361              -0.000655654               0.002012967               0.001357313               0.000000000               0.000000000               0.000000000               0.000000000              -0.000038976               0.005180270              -0.000137791              -0.000662148               0.001947455               0.001285307               0.000000000               0.000000000               0.000000000               0.000000000              -0.000124449               0.005071004              -0.000057416              -0.000680542               0.001917165               0.001236623               0.000000000               0.000000000               0.000000000               0.000000000              -0.003658138               0.000663571              -0.000093484              -0.001454747               0.000706101              -0.000748646               0.000000000               0.000000000               0.000000000               0.000000000              -0.002590885               0.002065259              -0.001169375              -0.001229737               0.001098324              -0.000131413               0.000000000               0.000000000               0.000000000               0.000000000              -0.002055655               0.003518330              -0.002046180              -0.001210660               0.001576317               0.000365657               0.000000000               0.000000000               0.000000000               0.000000000              -0.001675649               0.004461813              -0.002138853              -0.001186093               0.001882619               0.000696526               0.000000000               0.000000000               0.000000000               0.000000000              -0.001363545               0.005072606              -0.001996481              -0.001145403               0.002072652               0.000927249               0.000000000               0.000000000               0.000000000               0.000000000              -0.001092577               0.005471531              -0.001798865              -0.001093656               0.002188377               0.001094721               0.000000000               0.000000000               0.000000000               0.000000000              -0.000850923               0.005734648              -0.001607354              -0.001035925               0.002256838               0.001220913               0.000000000               0.000000000               0.000000000               0.000000000              -0.000629754               0.005907207              -0.001434639              -0.000974557               0.002293901               0.001319344               0.000000000               0.000000000               0.000000000               0.000000000              -0.000422036               0.006015646              -0.001277799              -0.000910217               0.002308601               0.001398383               0.000000000               0.000000000               0.000000000               0.000000000              -0.000228576               0.006043800              -0.001139784              -0.000841189               0.002294976               0.001453787               0.000000000               0.000000000               0.000000000               0.000000000              -0.000052699               0.005988439              -0.001008487              -0.000768316               0.002252231               0.001483916               0.000000000               0.000000000               0.000000000               0.000000000               0.000103406               0.005878281              -0.000868233              -0.000696006               0.002191409               0.001495403               0.000000000               0.000000000               0.000000000               0.000000000               0.000227205               0.005727713              -0.000720973              -0.000630761               0.002119472               0.001488711               0.000000000               0.000000000               0.000000000               0.000000000               0.000312996               0.005553174              -0.000566539              -0.000576772               0.002043297               0.001466525               0.000000000               0.000000000               0.000000000               0.000000000               0.000351628               0.005363859              -0.000397239              -0.000538621               0.001967475               0.001428855               0.000000000               0.000000000               0.000000000               0.000000000               0.000328489               0.005176367              -0.000206718              -0.000523861               0.001900059               0.001376198               0.000000000               0.000000000               0.000000000               0.000000000               0.000279944               0.005075249              -0.000100027              -0.000529426               0.001868208               0.001338782               0.000000000               0.000000000               0.000000000               0.000000000              -0.004961994               0.000035187               0.000239087              -0.001865145               0.000633439              -0.001231705               0.000000000               0.000000000               0.000000000               0.000000000              -0.003224949               0.001168865              -0.000821850              -0.001355462               0.000841436              -0.000514026               0.000000000               0.000000000               0.000000000               0.000000000              -0.002100712               0.002340451              -0.001739686              -0.001080322               0.001140248               0.000059927               0.000000000               0.000000000               0.000000000               0.000000000              -0.001498026               0.003296723              -0.001925507              -0.000973849               0.001423512               0.000449663               0.000000000               0.000000000               0.000000000               0.000000000              -0.001107215               0.004016712              -0.001861287              -0.000917294               0.001644655               0.000727361               0.000000000               0.000000000               0.000000000               0.000000000              -0.000817236               0.004549964              -0.001718417              -0.000875208               0.001808375               0.000933167               0.000000000               0.000000000               0.000000000               0.000000000              -0.000581598               0.004950199              -0.001561944              -0.000836873               0.001929007               0.001092134               0.000000000               0.000000000               0.000000000               0.000000000              -0.000376297               0.005254361              -0.001412260              -0.000797905               0.002017404               0.001219499               0.000000000               0.000000000               0.000000000               0.000000000              -0.000180043               0.005481719              -0.001275971              -0.000752730               0.002078131               0.001325401               0.000000000               0.000000000               0.000000000               0.000000000               0.000004528               0.005616461              -0.001154254              -0.000700358               0.002105587               0.001405229               0.000000000               0.000000000               0.000000000               0.000000000               0.000173827               0.005663740              -0.001034562              -0.000642781               0.002102155               0.001459373               0.000000000               0.000000000               0.000000000               0.000000000               0.000337118               0.005645817              -0.000905875              -0.000579307               0.002075022               0.001495716               0.000000000               0.000000000               0.000000000               0.000000000               0.000493511               0.005571108              -0.000769552              -0.000511321               0.002027458               0.001516137               0.000000000               0.000000000               0.000000000               0.000000000               0.000636449               0.005455986              -0.000623221              -0.000443329               0.001966420               0.001523091               0.000000000               0.000000000               0.000000000               0.000000000               0.000756924               0.005313885              -0.000455333              -0.000380388               0.001898073               0.001517685               0.000000000               0.000000000               0.000000000               0.000000000               0.000846737               0.005160226              -0.000248511              -0.000327501               0.001829225               0.001501724               0.000000000               0.000000000               0.000000000               0.000000000               0.000892284               0.005085326              -0.000134224              -0.000301058               0.001795444               0.001494386               0.000000000               0.000000000               0.000000000               0.000000000              -0.006069498              -0.000328050               0.000336411              -0.002235054               0.000635664              -0.001599390               0.000000000               0.000000000               0.000000000               0.000000000              -0.003785187               0.000518064              -0.000506545              -0.001484201               0.000667417              -0.000816784               0.000000000               0.000000000               0.000000000               0.000000000              -0.002145984               0.001385548              -0.001261904              -0.000977936               0.000787822              -0.000190114               0.000000000               0.000000000               0.000000000               0.000000000              -0.001321781               0.002293761              -0.001458386              -0.000782387               0.001025374               0.000242987               0.000000000               0.000000000               0.000000000               0.000000000              -0.000842515               0.003069792              -0.001446256              -0.000699666               0.001256475               0.000556809               0.000000000               0.000000000               0.000000000               0.000000000              -0.000525703               0.003695011              -0.001359838              -0.000659014               0.001451329               0.000792315               0.000000000               0.000000000               0.000000000               0.000000000              -0.000288955               0.004194411              -0.001252203              -0.000632659               0.001609009               0.000976350               0.000000000               0.000000000               0.000000000               0.000000000              -0.000090354               0.004601035              -0.001145484              -0.000609011               0.001736666               0.001127655               0.000000000               0.000000000               0.000000000               0.000000000               0.000095794               0.004928105              -0.001048135              -0.000580089               0.001836048               0.001255959               0.000000000               0.000000000               0.000000000               0.000000000               0.000267077               0.005157865              -0.000957178              -0.000544578               0.001900797               0.001356219               0.000000000               0.000000000               0.000000000               0.000000000               0.000428844               0.005297160              -0.000865360              -0.000501327               0.001932811               0.001431484               0.000000000               0.000000000               0.000000000               0.000000000               0.000596419               0.005365057              -0.000766868              -0.000446974               0.001937326               0.001490352               0.000000000               0.000000000               0.000000000               0.000000000               0.000777371               0.005373121              -0.000661523              -0.000380125               0.001917731               0.001537605               0.000000000               0.000000000               0.000000000               0.000000000               0.000973740               0.005330950              -0.000546430              -0.000301216               0.001877371               0.001576155               0.000000000               0.000000000               0.000000000               0.000000000               0.001186645               0.005247550              -0.000410737              -0.000210952               0.001819483               0.001608531               0.000000000               0.000000000               0.000000000               0.000000000               0.001411805               0.005134059              -0.000231179              -0.000112330               0.001748779               0.001636449               0.000000000               0.000000000               0.000000000               0.000000000               0.001580204               0.005090076              -0.000133202              -0.000043683               0.001711236               0.001667553               0.000000000               0.000000000               0.000000000               0.000000000              -0.006818307              -0.000506865               0.000229290              -0.002493505               0.000662209              -0.001831296               0.000000000               0.000000000               0.000000000               0.000000000              -0.004172681               0.000122457              -0.000236770              -0.001580061               0.000567502              -0.001012559               0.000000000               0.000000000               0.000000000               0.000000000              -0.002182005               0.000759995              -0.000661566              -0.000913250               0.000557744              -0.000355506               0.000000000               0.000000000               0.000000000               0.000000000              -0.001195298               0.001610958              -0.000784955              -0.000649605               0.000753515               0.000103910               0.000000000               0.000000000               0.000000000               0.000000000              -0.000647348               0.002406166              -0.000791031              -0.000543525               0.000983222               0.000439697               0.000000000               0.000000000               0.000000000               0.000000000              -0.000303531               0.003084742              -0.000752044              -0.000499416               0.001194709               0.000695293               0.000000000               0.000000000               0.000000000               0.000000000              -0.000059701               0.003643596              -0.000698218              -0.000477837               0.001373798               0.000895962               0.000000000               0.000000000               0.000000000               0.000000000               0.000139369               0.004111269              -0.000644679              -0.000461645               0.001524291               0.001062646               0.000000000               0.000000000               0.000000000               0.000000000               0.000317349               0.004505838              -0.000594411              -0.000444223               0.001650005               0.001205782               0.000000000               0.000000000               0.000000000               0.000000000               0.000478545               0.004801531              -0.000545543              -0.000420736               0.001740740               0.001320004               0.000000000               0.000000000               0.000000000               0.000000000               0.000634743               0.005000349              -0.000496169              -0.000387014               0.001795771               0.001408757               0.000000000               0.000000000               0.000000000               0.000000000               0.000806102               0.005128544              -0.000442769              -0.000338779               0.001822424               0.001483645               0.000000000               0.000000000               0.000000000               0.000000000               0.001005805               0.005199739              -0.000384173              -0.000272790               0.001824159               0.001551369               0.000000000               0.000000000               0.000000000               0.000000000               0.001241952               0.005219276              -0.000321795              -0.000186677               0.001801967               0.001615290               0.000000000               0.000000000               0.000000000               0.000000000               0.001522363               0.005188464              -0.000245691              -0.000077672               0.001755361               0.001677689               0.000000000               0.000000000               0.000000000               0.000000000               0.001858126               0.005109407              -0.000138877               0.000058121               0.001683745               0.001741866               0.000000000               0.000000000               0.000000000               0.000000000               0.002133668               0.005090385              -0.000082499               0.000163826               0.001642170               0.001805995               0.000000000               0.000000000               0.000000000               0.000000000              -0.007081739              -0.000558570              -0.000000000              -0.002585829               0.000675748              -0.001910081               0.000000000               0.000000000               0.000000000               0.000000000              -0.004310330              -0.000009659              -0.000000000              -0.001615165               0.000535165              -0.001080000               0.000000000               0.000000000               0.000000000               0.000000000              -0.002196363               0.000540078               0.000000000              -0.000891145               0.000477071              -0.000414074               0.000000000               0.000000000               0.000000000               0.000000000              -0.001150418               0.001367876               0.000000000              -0.000602390               0.000656751               0.000054360               0.000000000               0.000000000               0.000000000               0.000000000              -0.000575782               0.002171257               0.000000000              -0.000487324               0.000886186               0.000398862               0.000000000               0.000000000               0.000000000               0.000000000              -0.000220146               0.002864747              -0.000000000              -0.000440647               0.001101788               0.000661141               0.000000000               0.000000000               0.000000000               0.000000000               0.000028361               0.003440782              -0.000000000              -0.000419461               0.001286736               0.000867275               0.000000000               0.000000000               0.000000000               0.000000000               0.000228024               0.003929048               0.000000000              -0.000405621               0.001444876               0.001039255               0.000000000               0.000000000               0.000000000               0.000000000               0.000401519               0.004347952               0.000000000              -0.000392923               0.001580277               0.001187354               0.000000000               0.000000000               0.000000000               0.000000000               0.000559444               0.004668508              -0.000000000              -0.000373771               0.001680744               0.001306973               0.000000000               0.000000000               0.000000000               0.000000000               0.000713716               0.004886851              -0.000000000              -0.000343212               0.001743338               0.001400126               0.000000000               0.000000000               0.000000000               0.000000000               0.000886155               0.005034700              -0.000000000              -0.000297029               0.001777226               0.001480197               0.000000000               0.000000000               0.000000000               0.000000000               0.001093324               0.005127291               0.000000000              -0.000230914               0.001786051               0.001555137               0.000000000               0.000000000               0.000000000               0.000000000               0.001345881               0.005171650               0.000000000              -0.000141751               0.001771116               0.001629366               0.000000000               0.000000000               0.000000000               0.000000000               0.001649200               0.005163629              -0.000000000              -0.000027004               0.001730194               0.001703190               0.000000000               0.000000000               0.000000000               0.000000000               0.002027896               0.005099238              -0.000000000               0.000123055               0.001658711               0.001781766               0.000000000               0.000000000               0.000000000               0.000000000               0.002346199               0.005090129              -0.000000000               0.000243556               0.001615508               0.001859063               0.000000000               0.000000000               0.000000000               0.000000000               0.000000000               0.000000000               0.000000000               0.000000000               0.000000000               0.000000000               0.000000000               0.000000000               0.000000000               0.000000000               0.000000000               0.000000000               0.000000000               0.000000000               0.000000000               0.000000000               0.000000000               0.000000000               0.000000000               0.000000000               0.000000000               0.000000000               0.000000000               0.000000000               0.000000000               0.000000000               0.000000000               0.000000000               0.000000000               0.000000000               0.000000000               0.000000000               0.000000000               0.000000000               0.000000000               0.000000000               0.000000000               0.000000000               0.000000000               0.000000000               0.000000000               0.000000000               0.000000000               0.000000000               0.000000000               0.000000000               0.000000000               0.000000000               0.000000000               0.000000000               0.000000000               0.000000000               0.000000000               0.000000000               0.000000000               0.000000000               0.000000000               0.000000000               0.000000000               0.000000000               0.000000000               0.000000000               0.000000000               0.000000000               0.000000000               0.000000000               0.000000000               0.000000000               0.000000000               0.000000000               0.000000000               0.000000000               0.000000000               0.000000000               0.000000000               0.000000000               0.000000000               0.000000000               0.000000000               0.000000000               0.000000000               0.000000000               0.000000000               0.000000000               0.000000000               0.000000000               0.000000000               0.000000000               0.000000000               0.000000000               0.000000000               0.000000000               0.000000000               0.000000000               0.000000000               0.000000000               0.000000000               0.000000000               0.000000000               0.000000000               0.000000000               0.000000000               0.000000000               0.000000000               0.000000000               0.000000000               0.000000000               0.000000000               0.000000000               0.000000000               0.000000000               0.000000000               0.000000000               0.000000000               0.000000000               0.000000000               0.000000000               0.000000000               0.000000000               0.000000000               0.000000000               0.000000000               0.000000000               0.000000000               0.000000000               0.000000000               0.000000000               0.000000000               0.000000000               0.000000000               0.000000000               0.000000000               0.000000000               0.000000000               0.000000000               0.000000000               0.000000000               0.000000000               0.000000000               0.000000000               0.000000000               0.000000000               0.000000000               0.000000000               0.000000000               0.000000000               0.000000000               0.000000000               0.000000000               0.000000000               0.000000000               0.000000000               0.000000000               0.000000000               0.000000000               0.000000000               0.000000000               0.000000000               0.000000000               0.000000000               0.000000000               0.000000000               0.000000000               0.000000000               0.000000000               0.000000000               0.000000000               0.000000000               0.000000000               0.000000000               0.001856116               0.019437003               0.001371772              -0.001733578               0.007056795               0.005323218               0.000000000               0.000000000               0.000000000               0.000000000               0.001771456               0.015449600               0.000720742              -0.001266901               0.005572116               0.004305215               0.000000000               0.000000000               0.000000000               0.000000000               0.002247525               0.012268843               0.000069937              -0.000690782               0.004319834               0.003629052               0.000000000               0.000000000               0.000000000               0.000000000               0.002133406               0.010496176              -0.000204650              -0.000511994               0.003669355               0.003157361               0.000000000               0.000000000               0.000000000               0.000000000               0.001860145               0.009393800              -0.000316146              -0.000476670               0.003290125               0.002813456               0.000000000               0.000000000               0.000000000               0.000000000               0.001564950               0.008647299              -0.000356267              -0.000494055               0.003047089               0.002553034               0.000000000               0.000000000               0.000000000               0.000000000               0.001288723               0.008101353              -0.000363372              -0.000529397               0.002876890               0.002347493               0.000000000               0.000000000               0.000000000               0.000000000               0.001045905               0.007672428              -0.000355252              -0.000566838               0.002746396               0.002179558               0.000000000               0.000000000               0.000000000               0.000000000               0.000837020               0.007310805              -0.000339482              -0.000599967               0.002636899               0.002036933               0.000000000               0.000000000               0.000000000               0.000000000               0.000654132               0.006990271              -0.000322485              -0.000628483               0.002539561               0.001911078               0.000000000               0.000000000               0.000000000               0.000000000               0.000493484               0.006695421              -0.000306655              -0.000651870               0.002449074               0.001797205               0.000000000               0.000000000               0.000000000               0.000000000               0.000355545               0.006411226              -0.000286684              -0.000668072               0.002359745               0.001691672               0.000000000               0.000000000               0.000000000               0.000000000               0.000236634               0.006120543              -0.000257583              -0.000676328               0.002265603               0.001589275               0.000000000               0.000000000               0.000000000               0.000000000               0.000138141               0.005811579              -0.000218732              -0.000674643               0.002162055               0.001487412               0.000000000               0.000000000               0.000000000               0.000000000               0.000063714               0.005478103              -0.000167664              -0.000660868               0.002046305               0.001385437               0.000000000               0.000000000               0.000000000               0.000000000               0.000019868               0.005111671              -0.000096195              -0.000631507               0.001914376               0.001282869               0.000000000               0.000000000               0.000000000               0.000000000              -0.000021173               0.004838988              -0.000059344              -0.000612812               0.001817250               0.001204439               0.000000000               0.000000000               0.000000000               0.000000000               0.002033412               0.018288875               0.002558198              -0.001523577               0.006604090               0.005080512               0.000000000               0.000000000               0.000000000               0.000000000               0.001684344               0.014700514               0.001347765              -0.001205933               0.005302100               0.004096167               0.000000000               0.000000000               0.000000000               0.000000000               0.001883259               0.011934649               0.000148290              -0.000785607               0.004240046               0.003454438               0.000000000               0.000000000               0.000000000               0.000000000               0.001672404               0.010367231              -0.000342907              -0.000668751               0.003678626               0.003009875               0.000000000               0.000000000               0.000000000               0.000000000               0.001379920               0.009373893              -0.000536926              -0.000654265               0.003342688               0.002688423               0.000000000               0.000000000               0.000000000               0.000000000               0.001103745               0.008684211              -0.000604312              -0.000671621               0.003118582               0.002446961               0.000000000               0.000000000               0.000000000               0.000000000               0.000868455               0.008166204              -0.000613066              -0.000695103               0.002953742               0.002258639               0.000000000               0.000000000               0.000000000               0.000000000               0.000672694               0.007746190              -0.000594386              -0.000716012               0.002820708               0.002104696               0.000000000               0.000000000               0.000000000               0.000000000               0.000513471               0.007388455              -0.000565171              -0.000731004               0.002706462               0.001975458               0.000000000               0.000000000               0.000000000               0.000000000               0.000380220               0.007071902              -0.000536417              -0.000741403               0.002604411               0.001863008               0.000000000               0.000000000               0.000000000               0.000000000               0.000270184               0.006781093              -0.000507638              -0.000746316               0.002509114               0.001762798               0.000000000               0.000000000               0.000000000               0.000000000               0.000182105               0.006502150              -0.000470261              -0.000744478               0.002415521               0.001671043               0.000000000               0.000000000               0.000000000               0.000000000               0.000111337               0.006227041              -0.000418649              -0.000736627               0.002321202               0.001584575               0.000000000               0.000000000               0.000000000               0.000000000               0.000060505               0.005954635              -0.000353880              -0.000721638               0.002225405               0.001503766               0.000000000               0.000000000               0.000000000               0.000000000               0.000026193               0.005686638              -0.000271303              -0.000701006               0.002129196               0.001428190               0.000000000               0.000000000               0.000000000               0.000000000               0.000006913               0.005423812              -0.000155739              -0.000675382               0.002033047               0.001357664               0.000000000               0.000000000               0.000000000               0.000000000              -0.000014738               0.005248063              -0.000093743              -0.000661533               0.001969848               0.001308315               0.000000000               0.000000000               0.000000000               0.000000000               0.002230598               0.016553946               0.003422812              -0.001232768               0.005928849               0.004696081               0.000000000               0.000000000               0.000000000               0.000000000               0.001518749               0.013588644               0.001819614              -0.001129048               0.004905852               0.003776804               0.000000000               0.000000000               0.000000000               0.000000000               0.001330880               0.011440080               0.000250823              -0.000930928               0.004123631               0.003192703               0.000000000               0.000000000               0.000000000               0.000000000               0.001006646               0.010165040              -0.000363609              -0.000893136               0.003686024               0.002792889               0.000000000               0.000000000               0.000000000               0.000000000               0.000716898               0.009319181              -0.000597445              -0.000896059               0.003405049               0.002508990               0.000000000               0.000000000               0.000000000               0.000000000               0.000485954               0.008701351              -0.000674889              -0.000905434               0.003202233               0.002296799               0.000000000               0.000000000               0.000000000               0.000000000               0.000312651               0.008215677              -0.000682070              -0.000909713               0.003041769               0.002132056               0.000000000               0.000000000               0.000000000               0.000000000               0.000187898               0.007808840              -0.000658266              -0.000905641               0.002904801               0.001999160               0.000000000               0.000000000               0.000000000               0.000000000               0.000102304               0.007459626              -0.000624761              -0.000894087               0.002784546               0.001890459               0.000000000               0.000000000               0.000000000               0.000000000               0.000042307               0.007148620              -0.000591064              -0.000877710               0.002675420               0.001797709               0.000000000               0.000000000               0.000000000               0.000000000               0.000001701               0.006861789              -0.000554610              -0.000857084               0.002572935               0.001715851               0.000000000               0.000000000               0.000000000               0.000000000              -0.000019545               0.006591680              -0.000507526              -0.000831287               0.002474300               0.001643013               0.000000000               0.000000000               0.000000000               0.000000000              -0.000027289               0.006340233              -0.000446304              -0.000802761               0.002380977               0.001578216               0.000000000               0.000000000               0.000000000               0.000000000              -0.000023892               0.006114216              -0.000371204              -0.000773235               0.002295797               0.001522562               0.000000000               0.000000000               0.000000000               0.000000000              -0.000014446               0.005919560              -0.000279284              -0.000745360               0.002221620               0.001476260               0.000000000               0.000000000               0.000000000               0.000000000              -0.000007579               0.005768632              -0.000157635              -0.000723919               0.002164165               0.001440245               0.000000000               0.000000000               0.000000000               0.000000000              -0.000008712               0.005694338              -0.000089780              -0.000715057               0.002136446               0.001421389               0.000000000               0.000000000               0.000000000               0.000000000               0.002341966               0.014437549               0.003897860              -0.000926457               0.005121286               0.004194829               0.000000000               0.000000000               0.000000000               0.000000000               0.001254593               0.012256217               0.002116760              -0.001061553               0.004439215               0.003377662               0.000000000               0.000000000               0.000000000               0.000000000               0.000664094               0.010843236               0.000394620              -0.001106367               0.003983165               0.002876798               0.000000000               0.000000000               0.000000000               0.000000000               0.000260405               0.009895836              -0.000248183              -0.001139325               0.003678354               0.002539029               0.000000000               0.000000000               0.000000000               0.000000000               0.000009025               0.009197941              -0.000487677              -0.001146355               0.003448068               0.002301713               0.000000000               0.000000000               0.000000000               0.000000000              -0.000141388               0.008650303              -0.000568013              -0.001134306               0.003261507               0.002127202               0.000000000               0.000000000               0.000000000               0.000000000              -0.000230096               0.008198050              -0.000578439              -0.001111039               0.003103002               0.001991963               0.000000000               0.000000000               0.000000000               0.000000000              -0.000272385               0.007810300              -0.000557387              -0.001078429               0.002962884               0.001884454               0.000000000               0.000000000               0.000000000               0.000000000              -0.000273256               0.007470106              -0.000528246              -0.001036232               0.002835421               0.001799189               0.000000000               0.000000000               0.000000000               0.000000000              -0.000252174               0.007163945              -0.000496669              -0.000990056               0.002717977               0.001727921               0.000000000               0.000000000               0.000000000               0.000000000              -0.000219949               0.006881349              -0.000458774              -0.000942647               0.002607976               0.001665329               0.000000000               0.000000000               0.000000000               0.000000000              -0.000176484               0.006623863              -0.000410394              -0.000894162               0.002505986               0.001611824               0.000000000               0.000000000               0.000000000               0.000000000              -0.000128343               0.006398711              -0.000351596              -0.000847965               0.002415537               0.001567572               0.000000000               0.000000000               0.000000000               0.000000000              -0.000082545               0.006217335              -0.000280627              -0.000808119               0.002341797               0.001533678               0.000000000               0.000000000               0.000000000               0.000000000              -0.000045391               0.006084606              -0.000199653              -0.000777595               0.002287380               0.001509785               0.000000000               0.000000000               0.000000000               0.000000000              -0.000019543               0.006006717              -0.000106279              -0.000758166               0.002254941               0.001496775               0.000000000               0.000000000               0.000000000               0.000000000              -0.000006496               0.005986891              -0.000054448              -0.000750796               0.002245876               0.001495080               0.000000000               0.000000000               0.000000000               0.000000000               0.002276240               0.012160089               0.003985794              -0.000666423               0.004275463               0.003609039               0.000000000               0.000000000               0.000000000               0.000000000               0.000887946               0.010841905               0.002252699              -0.001022257               0.003954684               0.002932427               0.000000000               0.000000000               0.000000000               0.000000000              -0.000036036               0.010194457               0.000586231              -0.001287817               0.003827391               0.002539573               0.000000000               0.000000000               0.000000000               0.000000000              -0.000450941               0.009557479              -0.000013294              -0.001363784               0.003640389               0.002276605               0.000000000               0.000000000               0.000000000               0.000000000              -0.000621808               0.008993202              -0.000241522              -0.001357325               0.003450145               0.002092821               0.000000000               0.000000000               0.000000000               0.000000000              -0.000670572               0.008508299              -0.000328656              -0.001314999               0.003274404               0.001959405               0.000000000               0.000000000               0.000000000               0.000000000              -0.000658763               0.008087593              -0.000351818              -0.001257982               0.003115165               0.001857182               0.000000000               0.000000000               0.000000000               0.000000000              -0.000611706               0.007718952              -0.000341748              -0.001194256               0.002971044               0.001776788               0.000000000               0.000000000               0.000000000               0.000000000              -0.000537362               0.007387536              -0.000321264              -0.001124950               0.002837471               0.001712521               0.000000000               0.000000000               0.000000000               0.000000000              -0.000447280               0.007087168              -0.000297037              -0.001053623               0.002713574               0.001659950               0.000000000               0.000000000               0.000000000               0.000000000              -0.000348817               0.006814148              -0.000266781              -0.000982572               0.002598884               0.001616312               0.000000000               0.000000000               0.000000000               0.000000000              -0.000252112               0.006576254              -0.000228836              -0.000916571               0.002497587               0.001581015               0.000000000               0.000000000               0.000000000               0.000000000              -0.000170169               0.006383164              -0.000185807              -0.000861707               0.002414936               0.001553229               0.000000000               0.000000000               0.000000000               0.000000000              -0.000106695               0.006237612              -0.000138708              -0.000819710               0.002352420               0.001532710               0.000000000               0.000000000               0.000000000               0.000000000              -0.000061803               0.006134550              -0.000088513              -0.000789993               0.002308161               0.001518168               0.000000000               0.000000000               0.000000000               0.000000000              -0.000028419               0.006067152              -0.000041151              -0.000769049               0.002278713               0.001509664               0.000000000               0.000000000               0.000000000               0.000000000              -0.000018427               0.006034031              -0.000022289              -0.000761162               0.002265044               0.001503882               0.000000000               0.000000000               0.000000000               0.000000000               0.001971480               0.009914924               0.003748187              -0.000500063               0.003471628               0.002971565               0.000000000               0.000000000               0.000000000               0.000000000               0.000433825               0.009458248               0.002263756              -0.001019596               0.003492582               0.002472987               0.000000000               0.000000000               0.000000000               0.000000000              -0.000693032               0.009518590               0.000823557              -0.001449707               0.003656067               0.002206360               0.000000000               0.000000000               0.000000000               0.000000000              -0.001041491               0.009144377               0.000302916              -0.001533603               0.003559296               0.002025694               0.000000000               0.000000000               0.000000000               0.000000000              -0.001094789               0.008700058               0.000084888              -0.001498049               0.003399340               0.001901291               0.000000000               0.000000000               0.000000000               0.000000000              -0.001035693               0.008274637              -0.000016150              -0.001422711               0.003232422               0.001809711               0.000000000               0.000000000               0.000000000               0.000000000              -0.000932400               0.007884458              -0.000061747              -0.001335204               0.003073194               0.001737990               0.000000000               0.000000000               0.000000000               0.000000000              -0.000804989               0.007532942              -0.000073376              -0.001243486               0.002925451               0.001681965               0.000000000               0.000000000               0.000000000               0.000000000              -0.000662292               0.007216714              -0.000071790              -0.001150446               0.002789029               0.001638583               0.000000000               0.000000000               0.000000000               0.000000000              -0.000518190               0.006933158              -0.000066750              -0.001060963               0.002664684               0.001603721               0.000000000               0.000000000               0.000000000               0.000000000              -0.000383035               0.006684466              -0.000056172              -0.000979194               0.002554531               0.001575337               0.000000000               0.000000000               0.000000000               0.000000000              -0.000265499               0.006477339              -0.000044427              -0.000909227               0.002462167               0.001552940               0.000000000               0.000000000               0.000000000               0.000000000              -0.000175333               0.006308006              -0.000035185              -0.000854248               0.002387397               0.001533149               0.000000000               0.000000000               0.000000000               0.000000000              -0.000113558               0.006167415              -0.000025882              -0.000813509               0.002326954               0.001513445               0.000000000               0.000000000               0.000000000               0.000000000              -0.000071658               0.006047926              -0.000017638              -0.000782861               0.002276909               0.001494048               0.000000000               0.000000000               0.000000000               0.000000000              -0.000035678               0.005942187              -0.000010505              -0.000756151               0.002232760               0.001476609               0.000000000               0.000000000               0.000000000               0.000000000              -0.000034701               0.005868016              -0.000015963              -0.000746513               0.002204823               0.001458310               0.000000000               0.000000000               0.000000000               0.000000000               0.001446565               0.007832080               0.003268451              -0.000436551               0.002756183               0.002319632               0.000000000               0.000000000               0.000000000               0.000000000              -0.000082549               0.008183601               0.002192267              -0.001053905               0.003079141               0.002025236               0.000000000               0.000000000               0.000000000               0.000000000              -0.001240253               0.008827922               0.001101701              -0.001568581               0.003465471               0.001896890               0.000000000               0.000000000               0.000000000               0.000000000              -0.001453515               0.008662822               0.000657689              -0.001627917               0.003430217               0.001802300               0.000000000               0.000000000               0.000000000               0.000000000              -0.001376429               0.008324837               0.000434797              -0.001556762               0.003293838               0.001737077               0.000000000               0.000000000               0.000000000               0.000000000              -0.001218238               0.007960112               0.000308433              -0.001451850               0.003137294               0.001685444               0.000000000               0.000000000               0.000000000               0.000000000              -0.001038620               0.007609021               0.000232395              -0.001340607               0.002983184               0.001642577               0.000000000               0.000000000               0.000000000               0.000000000              -0.000848812               0.007283862               0.000188342              -0.001228784               0.002837524               0.001608740               0.000000000               0.000000000               0.000000000               0.000000000              -0.000657491               0.006992117               0.000158200              -0.001120571               0.002704206               0.001583635               0.000000000               0.000000000               0.000000000               0.000000000              -0.000481946               0.006735290               0.000131381              -0.001022639               0.002585954               0.001563315               0.000000000               0.000000000               0.000000000               0.000000000              -0.000336073               0.006511119               0.000107339              -0.000939915               0.002483656               0.001543741               0.000000000               0.000000000               0.000000000               0.000000000              -0.000227419               0.006308837               0.000082568              -0.000873885               0.002394220               0.001520335               0.000000000               0.000000000               0.000000000               0.000000000              -0.000160000               0.006120238               0.000054676              -0.000825028               0.002315068               0.001490040               0.000000000               0.000000000               0.000000000               0.000000000              -0.000121229               0.005944679               0.000026843              -0.000788544               0.002244388               0.001455844               0.000000000               0.000000000               0.000000000               0.000000000              -0.000092111               0.005783531               0.000005512              -0.000757481               0.002180318               0.001422837               0.000000000               0.000000000               0.000000000               0.000000000              -0.000056406               0.005639300              -0.000005653              -0.000726063               0.002121769               0.001395706               0.000000000               0.000000000               0.000000000               0.000000000              -0.000048490               0.005546832              -0.000017597              -0.000711536               0.002086104               0.001374568               0.000000000               0.000000000               0.000000000               0.000000000               0.000798599               0.006059947               0.002641964              -0.000458020               0.002172635               0.001714614               0.000000000               0.000000000               0.000000000               0.000000000              -0.000575330               0.007044857               0.002087883              -0.001096354               0.002713713               0.001617359               0.000000000               0.000000000               0.000000000               0.000000000              -0.001637560               0.008155139               0.001425970              -0.001633474               0.003262843               0.001629370               0.000000000               0.000000000               0.000000000               0.000000000              -0.001703187               0.008201817               0.001033474              -0.001663918               0.003288551               0.001624633               0.000000000               0.000000000               0.000000000               0.000000000              -0.001521973               0.007981671               0.000787280              -0.001568445               0.003183345               0.001614900               0.000000000               0.000000000               0.000000000               0.000000000              -0.001290119               0.007692064               0.000624401              -0.001445299               0.003045762               0.001600463               0.000000000               0.000000000               0.000000000               0.000000000              -0.001053007               0.007394546               0.000513960              -0.001319193               0.002904555               0.001585362               0.000000000               0.000000000               0.000000000               0.000000000              -0.000816630               0.007105650               0.000432349              -0.001194440               0.002766673               0.001572233               0.000000000               0.000000000               0.000000000               0.000000000              -0.000591172               0.006842373               0.000362782              -0.001076983               0.002639763               0.001562779               0.000000000               0.000000000               0.000000000               0.000000000              -0.000396084               0.006606652               0.000298995              -0.000974361               0.002526982               0.001552622               0.000000000               0.000000000               0.000000000               0.000000000              -0.000256354               0.006372535               0.000240766              -0.000892697               0.002421723               0.001529026               0.000000000               0.000000000               0.000000000               0.000000000              -0.000170949               0.006141827               0.000185447              -0.000831832               0.002324533               0.001492700               0.000000000               0.000000000               0.000000000               0.000000000              -0.000130193               0.005921770               0.000127736              -0.000789042               0.002236917               0.001447876               0.000000000               0.000000000               0.000000000               0.000000000              -0.000126920               0.005706833               0.000072272              -0.000760947               0.002155908               0.001394960               0.000000000               0.000000000               0.000000000               0.000000000              -0.000134187               0.005507915               0.000029464              -0.000738808               0.002082222               0.001343415               0.000000000               0.000000000               0.000000000               0.000000000              -0.000135837               0.005329211               0.000003638              -0.000717089               0.002015416               0.001298327               0.000000000               0.000000000               0.000000000               0.000000000              -0.000133626               0.005232856              -0.000007223              -0.000704215               0.001979006               0.001274791               0.000000000               0.000000000               0.000000000               0.000000000               0.000002962               0.004397420               0.001963998              -0.000548567               0.001648647               0.001100080               0.000000000               0.000000000               0.000000000               0.000000000              -0.000969100               0.005730820               0.001966840              -0.001079763               0.002270175               0.001190411               0.000000000               0.000000000               0.000000000               0.000000000              -0.001832554               0.007173915               0.001777172              -0.001583944               0.002919262               0.001335318               0.000000000               0.000000000               0.000000000               0.000000000              -0.001822412               0.007518883               0.001448489              -0.001623261               0.003047356               0.001424095               0.000000000               0.000000000               0.000000000               0.000000000              -0.001601166               0.007501877               0.001176140              -0.001538168               0.003013323               0.001475155               0.000000000               0.000000000               0.000000000               0.000000000              -0.001340552               0.007361389               0.000971872              -0.001422877               0.002928064               0.001505187               0.000000000               0.000000000               0.000000000               0.000000000              -0.001086711               0.007176111               0.000821968              -0.001304528               0.002826855               0.001522328               0.000000000               0.000000000               0.000000000               0.000000000              -0.000843502               0.006968478               0.000700859              -0.001187370               0.002718593               0.001531223               0.000000000               0.000000000               0.000000000               0.000000000              -0.000612002               0.006763678               0.000595060              -0.001074958               0.002612856               0.001537898               0.000000000               0.000000000               0.000000000               0.000000000              -0.000411844               0.006552449               0.000497413              -0.000973495               0.002508626               0.001535131               0.000000000               0.000000000               0.000000000               0.000000000              -0.000265919               0.006315193               0.000403126              -0.000889117               0.002401415               0.001512299               0.000000000               0.000000000               0.000000000               0.000000000              -0.000175509               0.006076236               0.000312664              -0.000825344               0.002300506               0.001475163               0.000000000               0.000000000               0.000000000               0.000000000              -0.000138050               0.005835696               0.000222354              -0.000781229               0.002205622               0.001424393               0.000000000               0.000000000               0.000000000               0.000000000              -0.000147944               0.005602268               0.000138277              -0.000755761               0.002119324               0.001363564               0.000000000               0.000000000               0.000000000               0.000000000              -0.000187394               0.005387773               0.000071238              -0.000743742               0.002043821               0.001300078               0.000000000               0.000000000               0.000000000               0.000000000              -0.000237479               0.005188546               0.000023407              -0.000737621               0.001975371               0.001237751               0.000000000               0.000000000               0.000000000               0.000000000              -0.000262713               0.005091447               0.000003703              -0.000734946               0.001942114               0.001207168               0.000000000               0.000000000               0.000000000               0.000000000              -0.001058285               0.002876314               0.001274226              -0.000756395               0.001210893               0.000454498               0.000000000               0.000000000               0.000000000               0.000000000              -0.001416790               0.004412836               0.001780710              -0.001082899               0.001831896               0.000748997               0.000000000               0.000000000               0.000000000               0.000000000              -0.001943653               0.006046686               0.002051400              -0.001484703               0.002510442               0.001025739               0.000000000               0.000000000               0.000000000               0.000000000              -0.001867906               0.006677557               0.001843292              -0.001535156               0.002737548               0.001202392               0.000000000               0.000000000               0.000000000               0.000000000              -0.001631266               0.006896228               0.001575125              -0.001473750               0.002789969               0.001316219               0.000000000               0.000000000               0.000000000               0.000000000              -0.001362696               0.006937062               0.001341338              -0.001378141               0.002771711               0.001393570               0.000000000               0.000000000               0.000000000               0.000000000              -0.001109013               0.006889563               0.001154722              -0.001277072               0.002722189               0.001445116               0.000000000               0.000000000               0.000000000               0.000000000              -0.000870753               0.006789326               0.001001618              -0.001175195               0.002654818               0.001479622               0.000000000               0.000000000               0.000000000               0.000000000              -0.000638987               0.006667258               0.000867418              -0.001073025               0.002580072               0.001507047               0.000000000               0.000000000               0.000000000               0.000000000              -0.000432501               0.006510125               0.000743280              -0.000975951               0.002495337               0.001519386               0.000000000               0.000000000               0.000000000               0.000000000              -0.000268434               0.006304554               0.000624561              -0.000888730               0.002397740               0.001509010               0.000000000               0.000000000               0.000000000               0.000000000              -0.000153635               0.006080051               0.000507519              -0.000817618               0.002299203               0.001481585               0.000000000               0.000000000               0.000000000               0.000000000              -0.000092368               0.005844944               0.000386656              -0.000765254               0.002203380               0.001438126               0.000000000               0.000000000               0.000000000               0.000000000              -0.000084681               0.005609817               0.000267560              -0.000732981               0.002114247               0.001381267               0.000000000               0.000000000               0.000000000               0.000000000              -0.000132250               0.005384972               0.000161676              -0.000722713               0.002035877               0.001313164               0.000000000               0.000000000               0.000000000               0.000000000              -0.000222453               0.005183129               0.000071687              -0.000731309               0.001971462               0.001240153               0.000000000               0.000000000               0.000000000               0.000000000              -0.000291527               0.005080315               0.000023867              -0.000744360               0.001941542               0.001197181               0.000000000               0.000000000               0.000000000               0.000000000              -0.002310370               0.001610065               0.000622924              -0.001067645               0.000892564              -0.000175081               0.000000000               0.000000000               0.000000000               0.000000000              -0.001968238               0.003168654               0.001504113              -0.001134169               0.001434263               0.000300094               0.000000000               0.000000000               0.000000000               0.000000000              -0.002008918               0.004794282               0.002149562              -0.001352627               0.002048953               0.000696326               0.000000000               0.000000000               0.000000000               0.000000000              -0.001811217               0.005631099               0.002097029              -0.001383091               0.002338044               0.000954952               0.000000000               0.000000000               0.000000000               0.000000000              -0.001550610               0.006068906               0.001877767              -0.001340089               0.002469644               0.001129555               0.000000000               0.000000000               0.000000000               0.000000000              -0.001283350               0.006298588               0.001645651              -0.001268577               0.002522367               0.001253790               0.000000000               0.000000000               0.000000000               0.000000000              -0.001032389               0.006407811               0.001442347              -0.001188120               0.002531955               0.001343835               0.000000000               0.000000000               0.000000000               0.000000000              -0.000800756               0.006438626               0.001270446              -0.001105110               0.002514557               0.001409447               0.000000000               0.000000000               0.000000000               0.000000000              -0.000581065               0.006423262               0.001117424              -0.001020805               0.002481334               0.001460529               0.000000000               0.000000000               0.000000000               0.000000000              -0.000379932               0.006348846               0.000978587              -0.000936078               0.002428287               0.001492209               0.000000000               0.000000000               0.000000000               0.000000000              -0.000203964               0.006206456               0.000846979              -0.000852292               0.002352895               0.001500604               0.000000000               0.000000000               0.000000000               0.000000000              -0.000065260               0.006022784               0.000713040              -0.000777319               0.002266681               0.001489362               0.000000000               0.000000000               0.000000000               0.000000000               0.000023313               0.005815299               0.000572402              -0.000718168               0.002177803               0.001459635               0.000000000               0.000000000               0.000000000               0.000000000               0.000063813               0.005601558               0.000426826              -0.000676263               0.002092588               0.001416325               0.000000000               0.000000000               0.000000000               0.000000000               0.000046020               0.005383300               0.000281361              -0.000655654               0.002012967               0.001357313               0.000000000               0.000000000               0.000000000               0.000000000              -0.000038976               0.005180270               0.000137791              -0.000662148               0.001947455               0.001285307               0.000000000               0.000000000               0.000000000               0.000000000              -0.000124449               0.005071004               0.000057416              -0.000680542               0.001917165               0.001236623               0.000000000               0.000000000               0.000000000               0.000000000              -0.003658138               0.000663571               0.000093484              -0.001454747               0.000706101              -0.000748646               0.000000000               0.000000000               0.000000000               0.000000000              -0.002590885               0.002065259               0.001169375              -0.001229737               0.001098324              -0.000131413               0.000000000               0.000000000               0.000000000               0.000000000              -0.002055655               0.003518330               0.002046180              -0.001210660               0.001576317               0.000365657               0.000000000               0.000000000               0.000000000               0.000000000              -0.001675649               0.004461813               0.002138853              -0.001186093               0.001882619               0.000696526               0.000000000               0.000000000               0.000000000               0.000000000              -0.001363545               0.005072606               0.001996481              -0.001145403               0.002072652               0.000927249               0.000000000               0.000000000               0.000000000               0.000000000              -0.001092577               0.005471531               0.001798865              -0.001093656               0.002188377               0.001094721               0.000000000               0.000000000               0.000000000               0.000000000              -0.000850923               0.005734648               0.001607354              -0.001035925               0.002256838               0.001220913               0.000000000               0.000000000               0.000000000               0.000000000              -0.000629754               0.005907207               0.001434639              -0.000974557               0.002293901               0.001319344               0.000000000               0.000000000               0.000000000               0.000000000              -0.000422036               0.006015646               0.001277799              -0.000910217               0.002308601               0.001398383               0.000000000               0.000000000               0.000000000               0.000000000              -0.000228576               0.006043800               0.001139784              -0.000841189               0.002294976               0.001453787               0.000000000               0.000000000               0.000000000               0.000000000              -0.000052699               0.005988439               0.001008487              -0.000768316               0.002252231               0.001483916               0.000000000               0.000000000               0.000000000               0.000000000               0.000103406               0.005878281               0.000868233              -0.000696006               0.002191409               0.001495403               0.000000000               0.000000000               0.000000000               0.000000000               0.000227205               0.005727713               0.000720973              -0.000630761               0.002119472               0.001488711               0.000000000               0.000000000               0.000000000               0.000000000               0.000312996               0.005553174               0.000566539              -0.000576772               0.002043297               0.001466525               0.000000000               0.000000000               0.000000000               0.000000000               0.000351628               0.005363859               0.000397239              -0.000538621               0.001967475               0.001428855               0.000000000               0.000000000               0.000000000               0.000000000               0.000328489               0.005176367               0.000206718              -0.000523861               0.001900059               0.001376198               0.000000000               0.000000000               0.000000000               0.000000000               0.000279944               0.005075249               0.000100027              -0.000529426               0.001868208               0.001338782               0.000000000               0.000000000               0.000000000               0.000000000              -0.004961994               0.000035187              -0.000239087              -0.001865145               0.000633439              -0.001231705               0.000000000               0.000000000               0.000000000               0.000000000              -0.003224949               0.001168865               0.000821850              -0.001355462               0.000841436              -0.000514026               0.000000000               0.000000000               0.000000000               0.000000000              -0.002100712               0.002340451               0.001739686              -0.001080322               0.001140248               0.000059927               0.000000000               0.000000000               0.000000000               0.000000000              -0.001498026               0.003296723               0.001925507              -0.000973849               0.001423512               0.000449663               0.000000000               0.000000000               0.000000000               0.000000000              -0.001107215               0.004016712               0.001861287              -0.000917294               0.001644655               0.000727361               0.000000000               0.000000000               0.000000000               0.000000000              -0.000817236               0.004549964               0.001718417              -0.000875208               0.001808375               0.000933167               0.000000000               0.000000000               0.000000000               0.000000000              -0.000581598               0.004950199               0.001561944              -0.000836873               0.001929007               0.001092134               0.000000000               0.000000000               0.000000000               0.000000000              -0.000376297               0.005254361               0.001412260              -0.000797905               0.002017404               0.001219499               0.000000000               0.000000000               0.000000000               0.000000000              -0.000180043               0.005481719               0.001275971              -0.000752730               0.002078131               0.001325401               0.000000000               0.000000000               0.000000000               0.000000000               0.000004528               0.005616461               0.001154254              -0.000700358               0.002105587               0.001405229               0.000000000               0.000000000               0.000000000               0.000000000               0.000173827               0.005663740               0.001034562              -0.000642781               0.002102155               0.001459373               0.000000000               0.000000000               0.000000000               0.000000000               0.000337118               0.005645817               0.000905875              -0.000579307               0.002075022               0.001495716               0.000000000               0.000000000               0.000000000               0.000000000               0.000493511               0.005571108               0.000769552              -0.000511321               0.002027458               0.001516137               0.000000000               0.000000000               0.000000000               0.000000000               0.000636449               0.005455986               0.000623221              -0.000443329               0.001966420               0.001523091               0.000000000               0.000000000               0.000000000               0.000000000               0.000756924               0.005313885               0.000455333              -0.000380388               0.001898073               0.001517685               0.000000000               0.000000000               0.000000000               0.000000000               0.000846737               0.005160226               0.000248511              -0.000327501               0.001829225               0.001501724               0.000000000               0.000000000               0.000000000               0.000000000               0.000892284               0.005085326               0.000134224              -0.000301058               0.001795444               0.001494386               0.000000000               0.000000000               0.000000000               0.000000000              -0.006069498              -0.000328050              -0.000336411              -0.002235054               0.000635664              -0.001599390               0.000000000               0.000000000               0.000000000               0.000000000              -0.003785187               0.000518064               0.000506545              -0.001484201               0.000667417              -0.000816784               0.000000000               0.000000000               0.000000000               0.000000000              -0.002145984               0.001385548               0.001261904              -0.000977936               0.000787822              -0.000190114               0.000000000               0.000000000               0.000000000               0.000000000              -0.001321781               0.002293761               0.001458386              -0.000782387               0.001025374               0.000242987               0.000000000               0.000000000               0.000000000               0.000000000              -0.000842515               0.003069792               0.001446256              -0.000699666               0.001256475               0.000556809               0.000000000               0.000000000               0.000000000               0.000000000              -0.000525703               0.003695011               0.001359838              -0.000659014               0.001451329               0.000792315               0.000000000               0.000000000               0.000000000               0.000000000              -0.000288955               0.004194411               0.001252203              -0.000632659               0.001609009               0.000976350               0.000000000               0.000000000               0.000000000               0.000000000              -0.000090354               0.004601035               0.001145484              -0.000609011               0.001736666               0.001127655               0.000000000               0.000000000               0.000000000               0.000000000               0.000095794               0.004928105               0.001048135              -0.000580089               0.001836048               0.001255959               0.000000000               0.000000000               0.000000000               0.000000000               0.000267077               0.005157865               0.000957178              -0.000544578               0.001900797               0.001356219               0.000000000               0.000000000               0.000000000               0.000000000               0.000428844               0.005297160               0.000865360              -0.000501327               0.001932811               0.001431484               0.000000000               0.000000000               0.000000000               0.000000000               0.000596419               0.005365057               0.000766868              -0.000446974               0.001937326               0.001490352               0.000000000               0.000000000               0.000000000               0.000000000               0.000777371               0.005373121               0.000661523              -0.000380125               0.001917731               0.001537605               0.000000000               0.000000000               0.000000000               0.000000000               0.000973740               0.005330950               0.000546430              -0.000301216               0.001877371               0.001576155               0.000000000               0.000000000               0.000000000               0.000000000               0.001186645               0.005247550               0.000410737              -0.000210952               0.001819483               0.001608531               0.000000000               0.000000000               0.000000000               0.000000000               0.001411805               0.005134059               0.000231179              -0.000112330               0.001748779               0.001636449               0.000000000               0.000000000               0.000000000               0.000000000               0.001580204               0.005090076               0.000133202              -0.000043683               0.001711236               0.001667553               0.000000000               0.000000000               0.000000000               0.000000000              -0.006818307              -0.000506865              -0.000229290              -0.002493505               0.000662209              -0.001831296               0.000000000               0.000000000               0.000000000               0.000000000              -0.004172681               0.000122457               0.000236770              -0.001580061               0.000567502              -0.001012559               0.000000000               0.000000000               0.000000000               0.000000000              -0.002182005               0.000759995               0.000661566              -0.000913250               0.000557744              -0.000355506               0.000000000               0.000000000               0.000000000               0.000000000              -0.001195298               0.001610958               0.000784955              -0.000649605               0.000753515               0.000103910               0.000000000               0.000000000               0.000000000               0.000000000              -0.000647348               0.002406166               0.000791031              -0.000543525               0.000983222               0.000439697               0.000000000               0.000000000               0.000000000               0.000000000              -0.000303531               0.003084742               0.000752044              -0.000499416               0.001194709               0.000695293               0.000000000               0.000000000               0.000000000               0.000000000              -0.000059701               0.003643596               0.000698218              -0.000477837               0.001373798               0.000895962               0.000000000               0.000000000               0.000000000               0.000000000               0.000139369               0.004111269               0.000644679              -0.000461645               0.001524291               0.001062646               0.000000000               0.000000000               0.000000000               0.000000000               0.000317349               0.004505838               0.000594411              -0.000444223               0.001650005               0.001205782               0.000000000               0.000000000               0.000000000               0.000000000               0.000478545               0.004801531               0.000545543              -0.000420736               0.001740740               0.001320004               0.000000000               0.000000000               0.000000000               0.000000000               0.000634743               0.005000349               0.000496169              -0.000387014               0.001795771               0.001408757               0.000000000               0.000000000               0.000000000               0.000000000               0.000806102               0.005128544               0.000442769              -0.000338779               0.001822424               0.001483645               0.000000000               0.000000000               0.000000000               0.000000000               0.001005805               0.005199739               0.000384173              -0.000272790               0.001824159               0.001551369               0.000000000               0.000000000               0.000000000               0.000000000               0.001241952               0.005219276               0.000321795              -0.000186677               0.001801967               0.001615290               0.000000000               0.000000000               0.000000000               0.000000000               0.001522363               0.005188464               0.000245691              -0.000077672               0.001755361               0.001677689               0.000000000               0.000000000               0.000000000               0.000000000               0.001858126               0.005109407               0.000138877               0.000058121               0.001683745               0.001741866               0.000000000               0.000000000               0.000000000               0.000000000               0.002133668               0.005090385               0.000082499               0.000163826               0.001642170               0.001805995               0.000000000               0.000000000               0.000000000               0.000000000              -0.007081739              -0.000558570               0.000000000              -0.002585829               0.000675748              -0.001910081               0.000000000               0.000000000               0.000000000               0.000000000              -0.004310330              -0.000009659              -0.000000000              -0.001615165               0.000535165              -0.001080000               0.000000000               0.000000000               0.000000000               0.000000000              -0.002196363               0.000540078              -0.000000000              -0.000891145               0.000477071              -0.000414074               0.000000000               0.000000000               0.000000000               0.000000000              -0.001150418               0.001367876              -0.000000000              -0.000602390               0.000656751               0.000054360               0.000000000               0.000000000               0.000000000               0.000000000              -0.000575782               0.002171257              -0.000000000              -0.000487324               0.000886186               0.000398862               0.000000000               0.000000000               0.000000000               0.000000000              -0.000220146               0.002864747              -0.000000000              -0.000440647               0.001101788               0.000661141               0.000000000               0.000000000               0.000000000               0.000000000               0.000028361               0.003440782              -0.000000000              -0.000419461               0.001286736               0.000867275               0.000000000               0.000000000               0.000000000               0.000000000               0.000228024               0.003929048               0.000000000              -0.000405621               0.001444876               0.001039255               0.000000000               0.000000000               0.000000000               0.000000000               0.000401519               0.004347952               0.000000000              -0.000392923               0.001580277               0.001187354               0.000000000               0.000000000               0.000000000               0.000000000               0.000559444               0.004668508               0.000000000              -0.000373771               0.001680744               0.001306973               0.000000000               0.000000000               0.000000000               0.000000000               0.000713716               0.004886851               0.000000000              -0.000343212               0.001743338               0.001400126               0.000000000               0.000000000               0.000000000               0.000000000               0.000886155               0.005034700               0.000000000              -0.000297029               0.001777226               0.001480197               0.000000000               0.000000000               0.000000000               0.000000000               0.001093324               0.005127291               0.000000000              -0.000230914               0.001786051               0.001555137               0.000000000               0.000000000               0.000000000               0.000000000               0.001345881               0.005171650              -0.000000000              -0.000141751               0.001771116               0.001629366               0.000000000               0.000000000               0.000000000               0.000000000               0.001649200               0.005163629              -0.000000000              -0.000027004               0.001730194               0.001703190               0.000000000               0.000000000               0.000000000               0.000000000               0.002027896               0.005099238              -0.000000000               0.000123055               0.001658711               0.001781766               0.000000000               0.000000000               0.000000000               0.000000000               0.002346199               0.005090129              -0.000000000               0.000243556               0.001615508               0.001859063               0.000000000               0.000000000               0.000000000               0.000000000               0.001785527               0.019839863               0.000000000              -0.001810406               0.007216690               0.005406284               0.000000000               0.000000000               0.000000000               0.000000000               0.001797221               0.015715510               0.000000000              -0.001290478               0.005668610               0.004378132               0.000000000               0.000000000               0.000000000               0.000000000               0.002374559               0.012389061               0.000000000              -0.000658172               0.004349036               0.003690865               0.000000000               0.000000000               0.000000000               0.000000000               0.002299826               0.010541917               0.000000000              -0.000455304               0.003665705               0.003210401               0.000000000               0.000000000               0.000000000               0.000000000               0.002037426               0.009399227              -0.000000000              -0.000410868               0.003270000               0.002859133               0.000000000               0.000000000               0.000000000               0.000000000               0.001736303               0.008630183              -0.000000000              -0.000427658               0.003019252               0.002591593               0.000000000               0.000000000               0.000000000               0.000000000               0.001446315               0.008072008              -0.000000000              -0.000466632               0.002846186               0.002379555               0.000000000               0.000000000               0.000000000               0.000000000               0.001186569               0.007638862              -0.000000000              -0.000509893               0.002716226               0.002206333               0.000000000               0.000000000               0.000000000               0.000000000               0.000958905               0.007278914              -0.000000000              -0.000550273               0.002609705               0.002059432               0.000000000               0.000000000               0.000000000               0.000000000               0.000759272               0.006956858              -0.000000000              -0.000584879               0.002513889               0.001929010               0.000000000               0.000000000               0.000000000               0.000000000               0.000581228               0.006657806              -0.000000000              -0.000614264               0.002424001               0.001809737               0.000000000               0.000000000               0.000000000               0.000000000               0.000425264               0.006370104               0.000000000              -0.000636788               0.002335609               0.001698822               0.000000000               0.000000000               0.000000000               0.000000000               0.000289793               0.006074702               0.000000000              -0.000650664               0.002241768               0.001591104               0.000000000               0.000000000               0.000000000               0.000000000               0.000175616               0.005754295              -0.000000000              -0.000653429               0.002135889               0.001482460               0.000000000               0.000000000               0.000000000               0.000000000               0.000088485               0.005395775              -0.000000000              -0.000641289               0.002012337               0.001371048               0.000000000               0.000000000               0.000000000               0.000000000               0.000033149               0.004986584              -0.000000000              -0.000610891               0.001865808               0.001254918               0.000000000               0.000000000               0.000000000               0.000000000              -0.000018394               0.004673798              -0.000000000              -0.000591121               0.001754957               0.001163836               0.000000000               0.000000000               0.000000000               0.000000000               0.001856116               0.019437003              -0.001371772              -0.001733578               0.007056795               0.005323218               0.000000000               0.000000000               0.000000000               0.000000000               0.001771456               0.015449600              -0.000720742              -0.001266901               0.005572116               0.004305215               0.000000000               0.000000000               0.000000000               0.000000000               0.002247525               0.012268843              -0.000069937              -0.000690782               0.004319834               0.003629052               0.000000000               0.000000000               0.000000000               0.000000000               0.002133406               0.010496176               0.000204650              -0.000511994               0.003669355               0.003157361               0.000000000               0.000000000               0.000000000               0.000000000               0.001860145               0.009393800               0.000316146              -0.000476670               0.003290125               0.002813456               0.000000000               0.000000000               0.000000000               0.000000000               0.001564950               0.008647299               0.000356267              -0.000494055               0.003047089               0.002553034               0.000000000               0.000000000               0.000000000               0.000000000               0.001288723               0.008101353               0.000363372              -0.000529397               0.002876890               0.002347493               0.000000000               0.000000000               0.000000000               0.000000000               0.001045905               0.007672428               0.000355252              -0.000566838               0.002746396               0.002179558               0.000000000               0.000000000               0.000000000               0.000000000               0.000837020               0.007310805               0.000339482              -0.000599967               0.002636899               0.002036933               0.000000000               0.000000000               0.000000000               0.000000000               0.000654132               0.006990271               0.000322485              -0.000628483               0.002539561               0.001911078               0.000000000               0.000000000               0.000000000               0.000000000               0.000493484               0.006695421               0.000306655              -0.000651870               0.002449074               0.001797205               0.000000000               0.000000000               0.000000000               0.000000000               0.000355545               0.006411226               0.000286684              -0.000668072               0.002359745               0.001691672               0.000000000               0.000000000               0.000000000               0.000000000               0.000236634               0.006120543               0.000257583              -0.000676328               0.002265603               0.001589275               0.000000000               0.000000000               0.000000000               0.000000000               0.000138141               0.005811579               0.000218732              -0.000674643               0.002162055               0.001487412               0.000000000               0.000000000               0.000000000               0.000000000               0.000063714               0.005478103               0.000167664              -0.000660868               0.002046305               0.001385437               0.000000000               0.000000000               0.000000000               0.000000000               0.000019868               0.005111671               0.000096195              -0.000631507               0.001914376               0.001282869               0.000000000               0.000000000               0.000000000               0.000000000              -0.000021173               0.004838988               0.000059344              -0.000612812               0.001817250               0.001204439               0.000000000               0.000000000               0.000000000               0.000000000               0.002033412               0.018288875              -0.002558198              -0.001523577               0.006604090               0.005080512               0.000000000               0.000000000               0.000000000               0.000000000               0.001684344               0.014700514              -0.001347765              -0.001205933               0.005302100               0.004096167               0.000000000               0.000000000               0.000000000               0.000000000               0.001883259               0.011934649              -0.000148290              -0.000785607               0.004240046               0.003454438               0.000000000               0.000000000               0.000000000               0.000000000               0.001672404               0.010367231               0.000342907              -0.000668751               0.003678626               0.003009875               0.000000000               0.000000000               0.000000000               0.000000000               0.001379920               0.009373893               0.000536926              -0.000654265               0.003342688               0.002688423               0.000000000               0.000000000               0.000000000               0.000000000               0.001103745               0.008684211               0.000604312              -0.000671621               0.003118582               0.002446961               0.000000000               0.000000000               0.000000000               0.000000000               0.000868455               0.008166204               0.000613066              -0.000695103               0.002953742               0.002258639               0.000000000               0.000000000               0.000000000               0.000000000               0.000672694               0.007746190               0.000594386              -0.000716012               0.002820708               0.002104696               0.000000000               0.000000000               0.000000000               0.000000000               0.000513471               0.007388455               0.000565171              -0.000731004               0.002706462               0.001975458               0.000000000               0.000000000               0.000000000               0.000000000               0.000380220               0.007071902               0.000536417              -0.000741403               0.002604411               0.001863008               0.000000000               0.000000000               0.000000000               0.000000000               0.000270184               0.006781093               0.000507638              -0.000746316               0.002509114               0.001762798               0.000000000               0.000000000               0.000000000               0.000000000               0.000182105               0.006502150               0.000470261              -0.000744478               0.002415521               0.001671043               0.000000000               0.000000000               0.000000000               0.000000000               0.000111337               0.006227041               0.000418649              -0.000736627               0.002321202               0.001584575               0.000000000               0.000000000               0.000000000               0.000000000               0.000060505               0.005954635               0.000353880              -0.000721638               0.002225405               0.001503766               0.000000000               0.000000000               0.000000000               0.000000000               0.000026193               0.005686638               0.000271303              -0.000701006               0.002129196               0.001428190               0.000000000               0.000000000               0.000000000               0.000000000               0.000006913               0.005423812               0.000155739              -0.000675382               0.002033047               0.001357664               0.000000000               0.000000000               0.000000000               0.000000000              -0.000014738               0.005248063               0.000093743              -0.000661533               0.001969848               0.001308315               0.000000000               0.000000000               0.000000000               0.000000000               0.002230598               0.016553946              -0.003422812              -0.001232768               0.005928849               0.004696081               0.000000000               0.000000000               0.000000000               0.000000000               0.001518749               0.013588644              -0.001819614              -0.001129048               0.004905852               0.003776804               0.000000000               0.000000000               0.000000000               0.000000000               0.001330880               0.011440080              -0.000250823              -0.000930928               0.004123631               0.003192703               0.000000000               0.000000000               0.000000000               0.000000000               0.001006646               0.010165040               0.000363609              -0.000893136               0.003686024               0.002792889               0.000000000               0.000000000               0.000000000               0.000000000               0.000716898               0.009319181               0.000597445              -0.000896059               0.003405049               0.002508990               0.000000000               0.000000000               0.000000000               0.000000000               0.000485954               0.008701351               0.000674889              -0.000905434               0.003202233               0.002296799               0.000000000               0.000000000               0.000000000               0.000000000               0.000312651               0.008215677               0.000682070              -0.000909713               0.003041769               0.002132056               0.000000000               0.000000000               0.000000000               0.000000000               0.000187898               0.007808840               0.000658266              -0.000905641               0.002904801               0.001999160               0.000000000               0.000000000               0.000000000               0.000000000               0.000102304               0.007459626               0.000624761              -0.000894087               0.002784546               0.001890459               0.000000000               0.000000000               0.000000000               0.000000000               0.000042307               0.007148620               0.000591064              -0.000877710               0.002675420               0.001797709               0.000000000               0.000000000               0.000000000               0.000000000               0.000001701               0.006861789               0.000554610              -0.000857084               0.002572935               0.001715851               0.000000000               0.000000000               0.000000000               0.000000000              -0.000019545               0.006591680               0.000507526              -0.000831287               0.002474300               0.001643013               0.000000000               0.000000000               0.000000000               0.000000000              -0.000027289               0.006340233               0.000446304              -0.000802761               0.002380977               0.001578216               0.000000000               0.000000000               0.000000000               0.000000000              -0.000023892               0.006114216               0.000371204              -0.000773235               0.002295797               0.001522562               0.000000000               0.000000000               0.000000000               0.000000000              -0.000014446               0.005919560               0.000279284              -0.000745360               0.002221620               0.001476260               0.000000000               0.000000000               0.000000000               0.000000000              -0.000007579               0.005768632               0.000157635              -0.000723919               0.002164165               0.001440245               0.000000000               0.000000000               0.000000000               0.000000000              -0.000008712               0.005694338               0.000089780              -0.000715057               0.002136446               0.001421389               0.000000000               0.000000000               0.000000000               0.000000000               0.002341966               0.014437549              -0.003897860              -0.000926457               0.005121286               0.004194829               0.000000000               0.000000000               0.000000000               0.000000000               0.001254593               0.012256217              -0.002116760              -0.001061553               0.004439215               0.003377662               0.000000000               0.000000000               0.000000000               0.000000000               0.000664094               0.010843236              -0.000394620              -0.001106367               0.003983165               0.002876798               0.000000000               0.000000000               0.000000000               0.000000000               0.000260405               0.009895836               0.000248183              -0.001139325               0.003678354               0.002539029               0.000000000               0.000000000               0.000000000               0.000000000               0.000009025               0.009197941               0.000487677              -0.001146355               0.003448068               0.002301713               0.000000000               0.000000000               0.000000000               0.000000000              -0.000141388               0.008650303               0.000568013              -0.001134306               0.003261507               0.002127202               0.000000000               0.000000000               0.000000000               0.000000000              -0.000230096               0.008198050               0.000578439              -0.001111039               0.003103002               0.001991963               0.000000000               0.000000000               0.000000000               0.000000000              -0.000272385               0.007810300               0.000557387              -0.001078429               0.002962884               0.001884454               0.000000000               0.000000000               0.000000000               0.000000000              -0.000273256               0.007470106               0.000528246              -0.001036232               0.002835421               0.001799189               0.000000000               0.000000000               0.000000000               0.000000000              -0.000252174               0.007163945               0.000496669              -0.000990056               0.002717977               0.001727921               0.000000000               0.000000000               0.000000000               0.000000000              -0.000219949               0.006881349               0.000458774              -0.000942647               0.002607976               0.001665329               0.000000000               0.000000000               0.000000000               0.000000000              -0.000176484               0.006623863               0.000410394              -0.000894162               0.002505986               0.001611824               0.000000000               0.000000000               0.000000000               0.000000000              -0.000128343               0.006398711               0.000351596              -0.000847965               0.002415537               0.001567572               0.000000000               0.000000000               0.000000000               0.000000000              -0.000082545               0.006217335               0.000280627              -0.000808119               0.002341797               0.001533678               0.000000000               0.000000000               0.000000000               0.000000000              -0.000045391               0.006084606               0.000199653              -0.000777595               0.002287380               0.001509785               0.000000000               0.000000000               0.000000000               0.000000000              -0.000019543               0.006006717               0.000106279              -0.000758166               0.002254941               0.001496775               0.000000000               0.000000000               0.000000000               0.000000000              -0.000006496               0.005986891               0.000054448              -0.000750796               0.002245876               0.001495080               0.000000000               0.000000000               0.000000000               0.000000000               0.002276240               0.012160089              -0.003985794              -0.000666423               0.004275463               0.003609039               0.000000000               0.000000000               0.000000000               0.000000000               0.000887946               0.010841905              -0.002252699              -0.001022257               0.003954684               0.002932427               0.000000000               0.000000000               0.000000000               0.000000000              -0.000036036               0.010194457              -0.000586231              -0.001287817               0.003827391               0.002539573               0.000000000               0.000000000               0.000000000               0.000000000              -0.000450941               0.009557479               0.000013294              -0.001363784               0.003640389               0.002276605               0.000000000               0.000000000               0.000000000               0.000000000              -0.000621808               0.008993202               0.000241522              -0.001357325               0.003450145               0.002092821               0.000000000               0.000000000               0.000000000               0.000000000              -0.000670572               0.008508299               0.000328656              -0.001314999               0.003274404               0.001959405               0.000000000               0.000000000               0.000000000               0.000000000              -0.000658763               0.008087593               0.000351818              -0.001257982               0.003115165               0.001857182               0.000000000               0.000000000               0.000000000               0.000000000              -0.000611706               0.007718952               0.000341748              -0.001194256               0.002971044               0.001776788               0.000000000               0.000000000               0.000000000               0.000000000              -0.000537362               0.007387536               0.000321264              -0.001124950               0.002837471               0.001712521               0.000000000               0.000000000               0.000000000               0.000000000              -0.000447280               0.007087168               0.000297037              -0.001053623               0.002713574               0.001659950               0.000000000               0.000000000               0.000000000               0.000000000              -0.000348817               0.006814148               0.000266781              -0.000982572               0.002598884               0.001616312               0.000000000               0.000000000               0.000000000               0.000000000              -0.000252112               0.006576254               0.000228836              -0.000916571               0.002497587               0.001581015               0.000000000               0.000000000               0.000000000               0.000000000              -0.000170169               0.006383164               0.000185807              -0.000861707               0.002414936               0.001553229               0.000000000               0.000000000               0.000000000               0.000000000              -0.000106695               0.006237612               0.000138708              -0.000819710               0.002352420               0.001532710               0.000000000               0.000000000               0.000000000               0.000000000              -0.000061803               0.006134550               0.000088513              -0.000789993               0.002308161               0.001518168               0.000000000               0.000000000               0.000000000               0.000000000              -0.000028419               0.006067152               0.000041151              -0.000769049               0.002278713               0.001509664               0.000000000               0.000000000               0.000000000               0.000000000              -0.000018427               0.006034031               0.000022289              -0.000761162               0.002265044               0.001503882               0.000000000               0.000000000               0.000000000               0.000000000               0.001971480               0.009914924              -0.003748187              -0.000500063               0.003471628               0.002971565               0.000000000               0.000000000               0.000000000               0.000000000               0.000433825               0.009458248              -0.002263756              -0.001019596               0.003492582               0.002472987               0.000000000               0.000000000               0.000000000               0.000000000              -0.000693032               0.009518590              -0.000823557              -0.001449707               0.003656067               0.002206360               0.000000000               0.000000000               0.000000000               0.000000000              -0.001041491               0.009144377              -0.000302916              -0.001533603               0.003559296               0.002025694               0.000000000               0.000000000               0.000000000               0.000000000              -0.001094789               0.008700058              -0.000084888              -0.001498049               0.003399340               0.001901291               0.000000000               0.000000000               0.000000000               0.000000000              -0.001035693               0.008274637               0.000016150              -0.001422711               0.003232422               0.001809711               0.000000000               0.000000000               0.000000000               0.000000000              -0.000932400               0.007884458               0.000061747              -0.001335204               0.003073194               0.001737990               0.000000000               0.000000000               0.000000000               0.000000000              -0.000804989               0.007532942               0.000073376              -0.001243486               0.002925451               0.001681965               0.000000000               0.000000000               0.000000000               0.000000000              -0.000662292               0.007216714               0.000071790              -0.001150446               0.002789029               0.001638583               0.000000000               0.000000000               0.000000000               0.000000000              -0.000518190               0.006933158               0.000066750              -0.001060963               0.002664684               0.001603721               0.000000000               0.000000000               0.000000000               0.000000000              -0.000383035               0.006684466               0.000056172              -0.000979194               0.002554531               0.001575337               0.000000000               0.000000000               0.000000000               0.000000000              -0.000265499               0.006477339               0.000044427              -0.000909227               0.002462167               0.001552940               0.000000000               0.000000000               0.000000000               0.000000000              -0.000175333               0.006308006               0.000035185              -0.000854248               0.002387397               0.001533149               0.000000000               0.000000000               0.000000000               0.000000000              -0.000113558               0.006167415               0.000025882              -0.000813509               0.002326954               0.001513445               0.000000000               0.000000000               0.000000000               0.000000000              -0.000071658               0.006047926               0.000017638              -0.000782861               0.002276909               0.001494048               0.000000000               0.000000000               0.000000000               0.000000000              -0.000035678               0.005942187               0.000010505              -0.000756151               0.002232760               0.001476609               0.000000000               0.000000000               0.000000000               0.000000000              -0.000034701               0.005868016               0.000015963              -0.000746513               0.002204823               0.001458310               0.000000000               0.000000000               0.000000000               0.000000000               0.001446565               0.007832080              -0.003268451              -0.000436551               0.002756183               0.002319632               0.000000000               0.000000000               0.000000000               0.000000000              -0.000082549               0.008183601              -0.002192267              -0.001053905               0.003079141               0.002025236               0.000000000               0.000000000               0.000000000               0.000000000              -0.001240253               0.008827922              -0.001101701              -0.001568581               0.003465471               0.001896890               0.000000000               0.000000000               0.000000000               0.000000000              -0.001453515               0.008662822              -0.000657689              -0.001627917               0.003430217               0.001802300               0.000000000               0.000000000               0.000000000               0.000000000              -0.001376429               0.008324837              -0.000434797              -0.001556762               0.003293838               0.001737077               0.000000000               0.000000000               0.000000000               0.000000000              -0.001218238               0.007960112              -0.000308433              -0.001451850               0.003137294               0.001685444               0.000000000               0.000000000               0.000000000               0.000000000              -0.001038620               0.007609021              -0.000232395              -0.001340607               0.002983184               0.001642577               0.000000000               0.000000000               0.000000000               0.000000000              -0.000848812               0.007283862              -0.000188342              -0.001228784               0.002837524               0.001608740               0.000000000               0.000000000               0.000000000               0.000000000              -0.000657491               0.006992117              -0.000158200              -0.001120571               0.002704206               0.001583635               0.000000000               0.000000000               0.000000000               0.000000000              -0.000481946               0.006735290              -0.000131381              -0.001022639               0.002585954               0.001563315               0.000000000               0.000000000               0.000000000               0.000000000              -0.000336073               0.006511119              -0.000107339              -0.000939915               0.002483656               0.001543741               0.000000000               0.000000000               0.000000000               0.000000000              -0.000227419               0.006308837              -0.000082568              -0.000873885               0.002394220               0.001520335               0.000000000               0.000000000               0.000000000               0.000000000              -0.000160000               0.006120238              -0.000054676              -0.000825028               0.002315068               0.001490040               0.000000000               0.000000000               0.000000000               0.000000000              -0.000121229               0.005944679              -0.000026843              -0.000788544               0.002244388               0.001455844               0.000000000               0.000000000               0.000000000               0.000000000              -0.000092111               0.005783531              -0.000005512              -0.000757481               0.002180318               0.001422837               0.000000000               0.000000000               0.000000000               0.000000000              -0.000056406               0.005639300               0.000005653              -0.000726063               0.002121769               0.001395706               0.000000000               0.000000000               0.000000000               0.000000000              -0.000048490               0.005546832               0.000017597              -0.000711536               0.002086104               0.001374568               0.000000000               0.000000000               0.000000000               0.000000000               0.000798599               0.006059947              -0.002641964              -0.000458020               0.002172635               0.001714614               0.000000000               0.000000000               0.000000000               0.000000000              -0.000575330               0.007044857              -0.002087883              -0.001096354               0.002713713               0.001617359               0.000000000               0.000000000               0.000000000               0.000000000              -0.001637560               0.008155139              -0.001425970              -0.001633474               0.003262843               0.001629370               0.000000000               0.000000000               0.000000000               0.000000000              -0.001703187               0.008201817              -0.001033474              -0.001663918               0.003288551               0.001624633               0.000000000               0.000000000               0.000000000               0.000000000              -0.001521973               0.007981671              -0.000787280              -0.001568445               0.003183345               0.001614900               0.000000000               0.000000000               0.000000000               0.000000000              -0.001290119               0.007692064              -0.000624401              -0.001445299               0.003045762               0.001600463               0.000000000               0.000000000               0.000000000               0.000000000              -0.001053007               0.007394546              -0.000513960              -0.001319193               0.002904555               0.001585362               0.000000000               0.000000000               0.000000000               0.000000000              -0.000816630               0.007105650              -0.000432349              -0.001194440               0.002766673               0.001572233               0.000000000               0.000000000               0.000000000               0.000000000              -0.000591172               0.006842373              -0.000362782              -0.001076983               0.002639763               0.001562779               0.000000000               0.000000000               0.000000000               0.000000000              -0.000396084               0.006606652              -0.000298995              -0.000974361               0.002526982               0.001552622               0.000000000               0.000000000               0.000000000               0.000000000              -0.000256354               0.006372535              -0.000240766              -0.000892697               0.002421723               0.001529026               0.000000000               0.000000000               0.000000000               0.000000000              -0.000170949               0.006141827              -0.000185447              -0.000831832               0.002324533               0.001492700               0.000000000               0.000000000               0.000000000               0.000000000              -0.000130193               0.005921770              -0.000127736              -0.000789042               0.002236917               0.001447876               0.000000000               0.000000000               0.000000000               0.000000000              -0.000126920               0.005706833              -0.000072272              -0.000760947               0.002155908               0.001394960               0.000000000               0.000000000               0.000000000               0.000000000              -0.000134187               0.005507915              -0.000029464              -0.000738808               0.002082222               0.001343415               0.000000000               0.000000000               0.000000000               0.000000000              -0.000135837               0.005329211              -0.000003638              -0.000717089               0.002015416               0.001298327               0.000000000               0.000000000               0.000000000               0.000000000              -0.000133626               0.005232856               0.000007223              -0.000704215               0.001979006               0.001274791               0.000000000               0.000000000               0.000000000               0.000000000               0.000002962               0.004397420              -0.001963998              -0.000548567               0.001648647               0.001100080               0.000000000               0.000000000               0.000000000               0.000000000              -0.000969100               0.005730820              -0.001966840              -0.001079763               0.002270175               0.001190411               0.000000000               0.000000000               0.000000000               0.000000000              -0.001832554               0.007173915              -0.001777172              -0.001583944               0.002919262               0.001335318               0.000000000               0.000000000               0.000000000               0.000000000              -0.001822412               0.007518883              -0.001448489              -0.001623261               0.003047356               0.001424095               0.000000000               0.000000000               0.000000000               0.000000000              -0.001601166               0.007501877              -0.001176140              -0.001538168               0.003013323               0.001475155               0.000000000               0.000000000               0.000000000               0.000000000              -0.001340552               0.007361389              -0.000971872              -0.001422877               0.002928064               0.001505187               0.000000000               0.000000000               0.000000000               0.000000000              -0.001086711               0.007176111              -0.000821968              -0.001304528               0.002826855               0.001522328               0.000000000               0.000000000               0.000000000               0.000000000              -0.000843502               0.006968478              -0.000700859              -0.001187370               0.002718593               0.001531223               0.000000000               0.000000000               0.000000000               0.000000000              -0.000612002               0.006763678              -0.000595060              -0.001074958               0.002612856               0.001537898               0.000000000               0.000000000               0.000000000               0.000000000              -0.000411844               0.006552449              -0.000497413              -0.000973495               0.002508626               0.001535131               0.000000000               0.000000000               0.000000000               0.000000000              -0.000265919               0.006315193              -0.000403126              -0.000889117               0.002401415               0.001512299               0.000000000               0.000000000               0.000000000               0.000000000              -0.000175509               0.006076236              -0.000312664              -0.000825344               0.002300506               0.001475163               0.000000000               0.000000000               0.000000000               0.000000000              -0.000138050               0.005835696              -0.000222354              -0.000781229               0.002205622               0.001424393               0.000000000               0.000000000               0.000000000               0.000000000              -0.000147944               0.005602268              -0.000138277              -0.000755761               0.002119324               0.001363564               0.000000000               0.000000000               0.000000000               0.000000000              -0.000187394               0.005387773              -0.000071238              -0.000743742               0.002043821               0.001300078               0.000000000               0.000000000               0.000000000               0.000000000              -0.000237479               0.005188546              -0.000023407              -0.000737621               0.001975371               0.001237751               0.000000000               0.000000000               0.000000000               0.000000000              -0.000262713               0.005091447              -0.000003703              -0.000734946               0.001942114               0.001207168               0.000000000               0.000000000               0.000000000               0.000000000              -0.001058285               0.002876314              -0.001274226              -0.000756395               0.001210893               0.000454498               0.000000000               0.000000000               0.000000000               0.000000000              -0.001416790               0.004412836              -0.001780710              -0.001082899               0.001831896               0.000748997               0.000000000               0.000000000               0.000000000               0.000000000              -0.001943653               0.006046686              -0.002051400              -0.001484703               0.002510442               0.001025739               0.000000000               0.000000000               0.000000000               0.000000000              -0.001867906               0.006677557              -0.001843292              -0.001535156               0.002737548               0.001202392               0.000000000               0.000000000               0.000000000               0.000000000              -0.001631266               0.006896228              -0.001575125              -0.001473750               0.002789969               0.001316219               0.000000000               0.000000000               0.000000000               0.000000000              -0.001362696               0.006937062              -0.001341338              -0.001378141               0.002771711               0.001393570               0.000000000               0.000000000               0.000000000               0.000000000              -0.001109013               0.006889563              -0.001154722              -0.001277072               0.002722189               0.001445116               0.000000000               0.000000000               0.000000000               0.000000000              -0.000870753               0.006789326              -0.001001618              -0.001175195               0.002654818               0.001479622               0.000000000               0.000000000               0.000000000               0.000000000              -0.000638987               0.006667258              -0.000867418              -0.001073025               0.002580072               0.001507047               0.000000000               0.000000000               0.000000000               0.000000000              -0.000432501               0.006510125              -0.000743280              -0.000975951               0.002495337               0.001519386               0.000000000               0.000000000               0.000000000               0.000000000              -0.000268434               0.006304554              -0.000624561              -0.000888730               0.002397740               0.001509010               0.000000000               0.000000000               0.000000000               0.000000000              -0.000153635               0.006080051              -0.000507519              -0.000817618               0.002299203               0.001481585               0.000000000               0.000000000               0.000000000               0.000000000              -0.000092368               0.005844944              -0.000386656              -0.000765254               0.002203380               0.001438126               0.000000000               0.000000000               0.000000000               0.000000000              -0.000084681               0.005609817              -0.000267560              -0.000732981               0.002114247               0.001381267               0.000000000               0.000000000               0.000000000               0.000000000              -0.000132250               0.005384972              -0.000161676              -0.000722713               0.002035877               0.001313164               0.000000000               0.000000000               0.000000000               0.000000000              -0.000222453               0.005183129              -0.000071687              -0.000731309               0.001971462               0.001240153               0.000000000               0.000000000               0.000000000               0.000000000              -0.000291527               0.005080315              -0.000023867              -0.000744360               0.001941542               0.001197181               0.000000000               0.000000000               0.000000000               0.000000000              -0.002310370               0.001610065              -0.000622924              -0.001067645               0.000892564              -0.000175081               0.000000000               0.000000000               0.000000000               0.000000000              -0.001968238               0.003168654              -0.001504113              -0.001134169               0.001434263               0.000300094               0.000000000               0.000000000               0.000000000               0.000000000              -0.002008918               0.004794282              -0.002149562              -0.001352627               0.002048953               0.000696326               0.000000000               0.000000000               0.000000000               0.000000000              -0.001811217               0.005631099              -0.002097029              -0.001383091               0.002338044               0.000954952               0.000000000               0.000000000               0.000000000               0.000000000              -0.001550610               0.006068906              -0.001877767              -0.001340089               0.002469644               0.001129555               0.000000000               0.000000000               0.000000000               0.000000000              -0.001283350               0.006298588              -0.001645651              -0.001268577               0.002522367               0.001253790               0.000000000               0.000000000               0.000000000               0.000000000              -0.001032389               0.006407811              -0.001442347              -0.001188120               0.002531955               0.001343835               0.000000000               0.000000000               0.000000000               0.000000000              -0.000800756               0.006438626              -0.001270446              -0.001105110               0.002514557               0.001409447               0.000000000               0.000000000               0.000000000               0.000000000              -0.000581065               0.006423262              -0.001117424              -0.001020805               0.002481334               0.001460529               0.000000000               0.000000000               0.000000000               0.000000000              -0.000379932               0.006348846              -0.000978587              -0.000936078               0.002428287               0.001492209               0.000000000               0.000000000               0.000000000               0.000000000              -0.000203964               0.006206456              -0.000846979              -0.000852292               0.002352895               0.001500604               0.000000000               0.000000000               0.000000000               0.000000000              -0.000065260               0.006022784              -0.000713040              -0.000777319               0.002266681               0.001489362               0.000000000               0.000000000               0.000000000               0.000000000               0.000023313               0.005815299              -0.000572402              -0.000718168               0.002177803               0.001459635               0.000000000               0.000000000               0.000000000               0.000000000               0.000063813               0.005601558              -0.000426826              -0.000676263               0.002092588               0.001416325               0.000000000               0.000000000               0.000000000               0.000000000               0.000046020               0.005383300              -0.000281361              -0.000655654               0.002012967               0.001357313               0.000000000               0.000000000               0.000000000               0.000000000              -0.000038976               0.005180270              -0.000137791              -0.000662148               0.001947455               0.001285307               0.000000000               0.000000000               0.000000000               0.000000000              -0.000124449               0.005071004              -0.000057416              -0.000680542               0.001917165               0.001236623               0.000000000               0.000000000               0.000000000               0.000000000              -0.003658138               0.000663571              -0.000093484              -0.001454747               0.000706101              -0.000748646               0.000000000               0.000000000               0.000000000               0.000000000              -0.002590885               0.002065259              -0.001169375              -0.001229737               0.001098324              -0.000131413               0.000000000               0.000000000               0.000000000               0.000000000              -0.002055655               0.003518330              -0.002046180              -0.001210660               0.001576317               0.000365657               0.000000000               0.000000000               0.000000000               0.000000000              -0.001675649               0.004461813              -0.002138853              -0.001186093               0.001882619               0.000696526               0.000000000               0.000000000               0.000000000               0.000000000              -0.001363545               0.005072606              -0.001996481              -0.001145403               0.002072652               0.000927249               0.000000000               0.000000000               0.000000000               0.000000000              -0.001092577               0.005471531              -0.001798865              -0.001093656               0.002188377               0.001094721               0.000000000               0.000000000               0.000000000               0.000000000              -0.000850923               0.005734648              -0.001607354              -0.001035925               0.002256838               0.001220913               0.000000000               0.000000000               0.000000000               0.000000000              -0.000629754               0.005907207              -0.001434639              -0.000974557               0.002293901               0.001319344               0.000000000               0.000000000               0.000000000               0.000000000              -0.000422036               0.006015646              -0.001277799              -0.000910217               0.002308601               0.001398383               0.000000000               0.000000000               0.000000000               0.000000000              -0.000228576               0.006043800              -0.001139784              -0.000841189               0.002294976               0.001453787               0.000000000               0.000000000               0.000000000               0.000000000              -0.000052699               0.005988439              -0.001008487              -0.000768316               0.002252231               0.001483916               0.000000000               0.000000000               0.000000000               0.000000000               0.000103406               0.005878281              -0.000868233              -0.000696006               0.002191409               0.001495403               0.000000000               0.000000000               0.000000000               0.000000000               0.000227205               0.005727713              -0.000720973              -0.000630761               0.002119472               0.001488711               0.000000000               0.000000000               0.000000000               0.000000000               0.000312996               0.005553174              -0.000566539              -0.000576772               0.002043297               0.001466525               0.000000000               0.000000000               0.000000000               0.000000000               0.000351628               0.005363859              -0.000397239              -0.000538621               0.001967475               0.001428855               0.000000000               0.000000000               0.000000000               0.000000000               0.000328489               0.005176367              -0.000206718              -0.000523861               0.001900059               0.001376198               0.000000000               0.000000000               0.000000000               0.000000000               0.000279944               0.005075249              -0.000100027              -0.000529426               0.001868208               0.001338782               0.000000000               0.000000000               0.000000000               0.000000000              -0.004961994               0.000035187               0.000239087              -0.001865145               0.000633439              -0.001231705               0.000000000               0.000000000               0.000000000               0.000000000              -0.003224949               0.001168865              -0.000821850              -0.001355462               0.000841436              -0.000514026               0.000000000               0.000000000               0.000000000               0.000000000              -0.002100712               0.002340451              -0.001739686              -0.001080322               0.001140248               0.000059927               0.000000000               0.000000000               0.000000000               0.000000000              -0.001498026               0.003296723              -0.001925507              -0.000973849               0.001423512               0.000449663               0.000000000               0.000000000               0.000000000               0.000000000              -0.001107215               0.004016712              -0.001861287              -0.000917294               0.001644655               0.000727361               0.000000000               0.000000000               0.000000000               0.000000000              -0.000817236               0.004549964              -0.001718417              -0.000875208               0.001808375               0.000933167               0.000000000               0.000000000               0.000000000               0.000000000              -0.000581598               0.004950199              -0.001561944              -0.000836873               0.001929007               0.001092134               0.000000000               0.000000000               0.000000000               0.000000000              -0.000376297               0.005254361              -0.001412260              -0.000797905               0.002017404               0.001219499               0.000000000               0.000000000               0.000000000               0.000000000              -0.000180043               0.005481719              -0.001275971              -0.000752730               0.002078131               0.001325401               0.000000000               0.000000000               0.000000000               0.000000000               0.000004528               0.005616461              -0.001154254              -0.000700358               0.002105587               0.001405229               0.000000000               0.000000000               0.000000000               0.000000000               0.000173827               0.005663740              -0.001034562              -0.000642781               0.002102155               0.001459373               0.000000000               0.000000000               0.000000000               0.000000000               0.000337118               0.005645817              -0.000905875              -0.000579307               0.002075022               0.001495716               0.000000000               0.000000000               0.000000000               0.000000000               0.000493511               0.005571108              -0.000769552              -0.000511321               0.002027458               0.001516137               0.000000000               0.000000000               0.000000000               0.000000000               0.000636449               0.005455986              -0.000623221              -0.000443329               0.001966420               0.001523091               0.000000000               0.000000000               0.000000000               0.000000000               0.000756924               0.005313885              -0.000455333              -0.000380388               0.001898073               0.001517685               0.000000000               0.000000000               0.000000000               0.000000000               0.000846737               0.005160226              -0.000248511              -0.000327501               0.001829225               0.001501724               0.000000000               0.000000000               0.000000000               0.000000000               0.000892284               0.005085326              -0.000134224              -0.000301058               0.001795444               0.001494386               0.000000000               0.000000000               0.000000000               0.000000000              -0.006069498              -0.000328050               0.000336411              -0.002235054               0.000635664              -0.001599390               0.000000000               0.000000000               0.000000000               0.000000000              -0.003785187               0.000518064              -0.000506545              -0.001484201               0.000667417              -0.000816784               0.000000000               0.000000000               0.000000000               0.000000000              -0.002145984               0.001385548              -0.001261904              -0.000977936               0.000787822              -0.000190114               0.000000000               0.000000000               0.000000000               0.000000000              -0.001321781               0.002293761              -0.001458386              -0.000782387               0.001025374               0.000242987               0.000000000               0.000000000               0.000000000               0.000000000              -0.000842515               0.003069792              -0.001446256              -0.000699666               0.001256475               0.000556809               0.000000000               0.000000000               0.000000000               0.000000000              -0.000525703               0.003695011              -0.001359838              -0.000659014               0.001451329               0.000792315               0.000000000               0.000000000               0.000000000               0.000000000              -0.000288955               0.004194411              -0.001252203              -0.000632659               0.001609009               0.000976350               0.000000000               0.000000000               0.000000000               0.000000000              -0.000090354               0.004601035              -0.001145484              -0.000609011               0.001736666               0.001127655               0.000000000               0.000000000               0.000000000               0.000000000               0.000095794               0.004928105              -0.001048135              -0.000580089               0.001836048               0.001255959               0.000000000               0.000000000               0.000000000               0.000000000               0.000267077               0.005157865              -0.000957178              -0.000544578               0.001900797               0.001356219               0.000000000               0.000000000               0.000000000               0.000000000               0.000428844               0.005297160              -0.000865360              -0.000501327               0.001932811               0.001431484               0.000000000               0.000000000               0.000000000               0.000000000               0.000596419               0.005365057              -0.000766868              -0.000446974               0.001937326               0.001490352               0.000000000               0.000000000               0.000000000               0.000000000               0.000777371               0.005373121              -0.000661523              -0.000380125               0.001917731               0.001537605               0.000000000               0.000000000               0.000000000               0.000000000               0.000973740               0.005330950              -0.000546430              -0.000301216               0.001877371               0.001576155               0.000000000               0.000000000               0.000000000               0.000000000               0.001186645               0.005247550              -0.000410737              -0.000210952               0.001819483               0.001608531               0.000000000               0.000000000               0.000000000               0.000000000               0.001411805               0.005134059              -0.000231179              -0.000112330               0.001748779               0.001636449               0.000000000               0.000000000               0.000000000               0.000000000               0.001580204               0.005090076              -0.000133202              -0.000043683               0.001711236               0.001667553               0.000000000               0.000000000               0.000000000               0.000000000              -0.006818307              -0.000506865               0.000229290              -0.002493505               0.000662209              -0.001831296               0.000000000               0.000000000               0.000000000               0.000000000              -0.004172681               0.000122457              -0.000236770              -0.001580061               0.000567502              -0.001012559               0.000000000               0.000000000               0.000000000               0.000000000              -0.002182005               0.000759995              -0.000661566              -0.000913250               0.000557744              -0.000355506               0.000000000               0.000000000               0.000000000               0.000000000              -0.001195298               0.001610958              -0.000784955              -0.000649605               0.000753515               0.000103910               0.000000000               0.000000000               0.000000000               0.000000000              -0.000647348               0.002406166              -0.000791031              -0.000543525               0.000983222               0.000439697               0.000000000               0.000000000               0.000000000               0.000000000              -0.000303531               0.003084742              -0.000752044              -0.000499416               0.001194709               0.000695293               0.000000000               0.000000000               0.000000000               0.000000000              -0.000059701               0.003643596              -0.000698218              -0.000477837               0.001373798               0.000895962               0.000000000               0.000000000               0.000000000               0.000000000               0.000139369               0.004111269              -0.000644679              -0.000461645               0.001524291               0.001062646               0.000000000               0.000000000               0.000000000               0.000000000               0.000317349               0.004505838              -0.000594411              -0.000444223               0.001650005               0.001205782               0.000000000               0.000000000               0.000000000               0.000000000               0.000478545               0.004801531              -0.000545543              -0.000420736               0.001740740               0.001320004               0.000000000               0.000000000               0.000000000               0.000000000               0.000634743               0.005000349              -0.000496169              -0.000387014               0.001795771               0.001408757               0.000000000               0.000000000               0.000000000               0.000000000               0.000806102               0.005128544              -0.000442769              -0.000338779               0.001822424               0.001483645               0.000000000               0.000000000               0.000000000               0.000000000               0.001005805               0.005199739              -0.000384173              -0.000272790               0.001824159               0.001551369               0.000000000               0.000000000               0.000000000               0.000000000               0.001241952               0.005219276              -0.000321795              -0.000186677               0.001801967               0.001615290               0.000000000               0.000000000               0.000000000               0.000000000               0.001522363               0.005188464              -0.000245691              -0.000077672               0.001755361               0.001677689               0.000000000               0.000000000               0.000000000               0.000000000               0.001858126               0.005109407              -0.000138877               0.000058121               0.001683745               0.001741866               0.000000000               0.000000000               0.000000000               0.000000000               0.002133668               0.005090385              -0.000082499               0.000163826               0.001642170               0.001805995               0.000000000               0.000000000               0.000000000               0.000000000               0.000000000               0.000000000               0.000000000               0.000000000               0.000000000               0.000000000               0.000000000               0.000000000               0.000000000               0.000000000               0.000000000               0.000000000               0.000000000               0.000000000               0.000000000               0.000000000               0.000000000               0.000000000               0.000000000               0.000000000               0.000000000               0.000000000               0.000000000               0.000000000               0.000000000               0.000000000               0.000000000               0.000000000               0.000000000               0.000000000               0.000000000               0.000000000               0.000000000               0.000000000               0.000000000               0.000000000               0.000000000               0.000000000               0.000000000               0.000000000               0.000000000               0.000000000               0.000000000               0.000000000               0.000000000               0.000000000               0.000000000               0.000000000               0.000000000               0.000000000               0.000000000               0.000000000               0.000000000               0.000000000               0.000000000               0.000000000               0.000000000               0.000000000               0.000000000               0.000000000               0.000000000               0.000000000               0.000000000               0.000000000               0.000000000               0.000000000               0.000000000               0.000000000               0.000000000               0.000000000               0.000000000               0.000000000               0.000000000               0.000000000               0.000000000               0.000000000               0.000000000               0.000000000               0.000000000               0.000000000               0.000000000               0.000000000               0.000000000               0.000000000               0.000000000               0.000000000               0.000000000               0.000000000               0.000000000               0.000000000               0.000000000               0.000000000               0.000000000               0.000000000               0.000000000               0.000000000               0.000000000               0.000000000               0.000000000               0.000000000               0.000000000               0.000000000               0.000000000               0.000000000               0.000000000               0.000000000               0.000000000               0.000000000               0.000000000               0.000000000               0.000000000               0.000000000               0.000000000               0.000000000               0.000000000               0.000000000               0.000000000               0.000000000               0.000000000               0.000000000               0.000000000               0.000000000               0.000000000               0.000000000               0.000000000               0.000000000               0.000000000               0.000000000               0.000000000               0.000000000               0.000000000               0.000000000               0.000000000               0.000000000               0.000000000               0.000000000               0.000000000               0.000000000               0.000000000               0.000000000               0.000000000               0.000000000               0.000000000               0.000000000               0.000000000               0.000000000               0.000000000               0.000000000               0.000000000               0.000000000               0.000000000               0.000000000               0.000000000               0.000000000               0.000000000               0.000000000               0.000000000               0.000000000               0.000000000               0.000000000               0.000000000               0.000000000               0.000000000               0.000000000               0.000000000               0.000000000               0.000000000               0.000000000               0.000000000               0.000000000               0.000000000               0.000000000               0.000000000               0.000000000               0.000000000               0.000000000               0.000000000               0.000000000               0.000000000               0.000000000               0.000000000               0.000000000               0.000000000               0.000000000               0.000000000               0.000000000               0.000000000               0.000000000               0.000000000               0.000000000               0.000000000               0.000000000               0.000000000               0.000000000               0.000000000               0.000000000               0.000000000               0.000000000               0.000000000               0.000000000               0.000000000               0.000000000               0.000000000               0.000000000               0.000000000               0.000000000               0.000000000               0.000000000               0.000000000               0.000000000               0.000000000               0.000000000               0.000000000               0.000000000               0.000000000               0.000000000               0.000000000               0.000000000               0.000000000               0.000000000               0.000000000               0.000000000               0.000000000               0.000000000               0.000000000               0.000000000               0.000000000               0.000000000               0.000000000               0.000000000               0.000000000               0.000000000               0.000000000               0.000000000               0.000000000               0.000000000               0.000000000               0.000000000               0.000000000               0.000000000               0.000000000               0.000000000               0.000000000               0.000000000               0.000000000               0.000000000               0.000000000               0.000000000               0.000000000               0.000000000               0.000000000               0.000000000               0.000000000               0.000000000               0.000000000               0.000000000               0.000000000               0.000000000               0.000000000               0.000000000               0.000000000               0.000000000               0.000000000               0.000000000               0.000000000               0.000000000               0.000000000               0.000000000               0.000000000               0.000000000               0.000000000               0.000000000               0.000000000               0.000000000               0.000000000               0.000000000               0.000000000               0.000000000               0.000000000               0.000000000               0.000000000               0.000000000               0.000000000               0.000000000               0.000000000               0.000000000               0.000000000               0.000000000               0.000000000               0.000000000               0.000000000               0.000000000               0.000000000               0.000000000               0.000000000               0.000000000               0.000000000               0.000000000               0.000000000               0.000000000               0.000000000               0.000000000               0.000000000               0.000000000               0.000000000               0.000000000               0.000000000               0.000000000               0.000000000               0.000000000               0.000000000               0.000000000               0.000000000               0.000000000               0.000000000               0.000000000               0.000000000               0.000000000               0.000000000               0.000000000               0.000000000               0.000000000               0.000000000               0.000000000               0.000000000               0.000000000               0.000000000               0.000000000               0.000000000               0.000000000               0.000000000               0.000000000               0.000000000               0.000000000               0.000000000               0.000000000               0.000000000               0.000000000               0.000000000               0.000000000               0.001856116               0.019437003               0.001371772              -0.001733578               0.007056795               0.005323218               0.000000000               0.000000000               0.000000000               0.000000000               0.001771456               0.015449600               0.000720742              -0.001266901               0.005572116               0.004305215               0.000000000               0.000000000               0.000000000               0.000000000               0.002247525               0.012268843               0.000069937              -0.000690782               0.004319834               0.003629052               0.000000000               0.000000000               0.000000000               0.000000000               0.002133406               0.010496176              -0.000204650              -0.000511994               0.003669355               0.003157361               0.000000000               0.000000000               0.000000000               0.000000000               0.001860145               0.009393800              -0.000316146              -0.000476670               0.003290125               0.002813456               0.000000000               0.000000000               0.000000000               0.000000000               0.001564950               0.008647299              -0.000356267              -0.000494055               0.003047089               0.002553034               0.000000000               0.000000000               0.000000000               0.000000000               0.001288723               0.008101353              -0.000363372              -0.000529397               0.002876890               0.002347493               0.000000000               0.000000000               0.000000000               0.000000000               0.001045905               0.007672428              -0.000355252              -0.000566838               0.002746396               0.002179558               0.000000000               0.000000000               0.000000000               0.000000000               0.000837020               0.007310805              -0.000339482              -0.000599967               0.002636899               0.002036933               0.000000000               0.000000000               0.000000000               0.000000000               0.000654132               0.006990271              -0.000322485              -0.000628483               0.002539561               0.001911078               0.000000000               0.000000000               0.000000000               0.000000000               0.000493484               0.006695421              -0.000306655              -0.000651870               0.002449074               0.001797205               0.000000000               0.000000000               0.000000000               0.000000000               0.000355545               0.006411226              -0.000286684              -0.000668072               0.002359745               0.001691672               0.000000000               0.000000000               0.000000000               0.000000000               0.000236634               0.006120543              -0.000257583              -0.000676328               0.002265603               0.001589275               0.000000000               0.000000000               0.000000000               0.000000000               0.000138141               0.005811579              -0.000218732              -0.000674643               0.002162055               0.001487412               0.000000000               0.000000000               0.000000000               0.000000000               0.000063714               0.005478103              -0.000167664              -0.000660868               0.002046305               0.001385437               0.000000000               0.000000000               0.000000000               0.000000000               0.000019868               0.005111671              -0.000096195              -0.000631507               0.001914376               0.001282869               0.000000000               0.000000000               0.000000000               0.000000000              -0.000021173               0.004838988              -0.000059344              -0.000612812               0.001817250               0.001204439               0.000000000               0.000000000               0.000000000               0.000000000               0.002033412               0.018288875               0.002558198              -0.001523577               0.006604090               0.005080512               0.000000000               0.000000000               0.000000000               0.000000000               0.001684344               0.014700514               0.001347765              -0.001205933               0.005302100               0.004096167               0.000000000               0.000000000               0.000000000               0.000000000               0.001883259               0.011934649               0.000148290              -0.000785607               0.004240046               0.003454438               0.000000000               0.000000000               0.000000000               0.000000000               0.001672404               0.010367231              -0.000342907              -0.000668751               0.003678626               0.003009875               0.000000000               0.000000000               0.000000000               0.000000000               0.001379920               0.009373893              -0.000536926              -0.000654265               0.003342688               0.002688423               0.000000000               0.000000000               0.000000000               0.000000000               0.001103745               0.008684211              -0.000604312              -0.000671621               0.003118582               0.002446961               0.000000000               0.000000000               0.000000000               0.000000000               0.000868455               0.008166204              -0.000613066              -0.000695103               0.002953742               0.002258639               0.000000000               0.000000000               0.000000000               0.000000000               0.000672694               0.007746190              -0.000594386              -0.000716012               0.002820708               0.002104696               0.000000000               0.000000000               0.000000000               0.000000000               0.000513471               0.007388455              -0.000565171              -0.000731004               0.002706462               0.001975458               0.000000000               0.000000000               0.000000000               0.000000000               0.000380220               0.007071902              -0.000536417              -0.000741403               0.002604411               0.001863008               0.000000000               0.000000000               0.000000000               0.000000000               0.000270184               0.006781093              -0.000507638              -0.000746316               0.002509114               0.001762798               0.000000000               0.000000000               0.000000000               0.000000000               0.000182105               0.006502150              -0.000470261              -0.000744478               0.002415521               0.001671043               0.000000000               0.000000000               0.000000000               0.000000000               0.000111337               0.006227041              -0.000418649              -0.000736627               0.002321202               0.001584575               0.000000000               0.000000000               0.000000000               0.000000000               0.000060505               0.005954635              -0.000353880              -0.000721638               0.002225405               0.001503766               0.000000000               0.000000000               0.000000000               0.000000000               0.000026193               0.005686638              -0.000271303              -0.000701006               0.002129196               0.001428190               0.000000000               0.000000000               0.000000000               0.000000000               0.000006913               0.005423812              -0.000155739              -0.000675382               0.002033047               0.001357664               0.000000000               0.000000000               0.000000000               0.000000000              -0.000014738               0.005248063              -0.000093743              -0.000661533               0.001969848               0.001308315               0.000000000               0.000000000               0.000000000               0.000000000               0.002230598               0.016553946               0.003422812              -0.001232768               0.005928849               0.004696081               0.000000000               0.000000000               0.000000000               0.000000000               0.001518749               0.013588644               0.001819614              -0.001129048               0.004905852               0.003776804               0.000000000               0.000000000               0.000000000               0.000000000               0.001330880               0.011440080               0.000250823              -0.000930928               0.004123631               0.003192703               0.000000000               0.000000000               0.000000000               0.000000000               0.001006646               0.010165040              -0.000363609              -0.000893136               0.003686024               0.002792889               0.000000000               0.000000000               0.000000000               0.000000000               0.000716898               0.009319181              -0.000597445              -0.000896059               0.003405049               0.002508990               0.000000000               0.000000000               0.000000000               0.000000000               0.000485954               0.008701351              -0.000674889              -0.000905434               0.003202233               0.002296799               0.000000000               0.000000000               0.000000000               0.000000000               0.000312651               0.008215677              -0.000682070              -0.000909713               0.003041769               0.002132056               0.000000000               0.000000000               0.000000000               0.000000000               0.000187898               0.007808840              -0.000658266              -0.000905641               0.002904801               0.001999160               0.000000000               0.000000000               0.000000000               0.000000000               0.000102304               0.007459626              -0.000624761              -0.000894087               0.002784546               0.001890459               0.000000000               0.000000000               0.000000000               0.000000000               0.000042307               0.007148620              -0.000591064              -0.000877710               0.002675420               0.001797709               0.000000000               0.000000000               0.000000000               0.000000000               0.000001701               0.006861789              -0.000554610              -0.000857084               0.002572935               0.001715851               0.000000000               0.000000000               0.000000000               0.000000000              -0.000019545               0.006591680              -0.000507526              -0.000831287               0.002474300               0.001643013               0.000000000               0.000000000               0.000000000               0.000000000              -0.000027289               0.006340233              -0.000446304              -0.000802761               0.002380977               0.001578216               0.000000000               0.000000000               0.000000000               0.000000000              -0.000023892               0.006114216              -0.000371204              -0.000773235               0.002295797               0.001522562               0.000000000               0.000000000               0.000000000               0.000000000              -0.000014446               0.005919560              -0.000279284              -0.000745360               0.002221620               0.001476260               0.000000000               0.000000000               0.000000000               0.000000000              -0.000007579               0.005768632              -0.000157635              -0.000723919               0.002164165               0.001440245               0.000000000               0.000000000               0.000000000               0.000000000              -0.000008712               0.005694338              -0.000089780              -0.000715057               0.002136446               0.001421389               0.000000000               0.000000000               0.000000000               0.000000000               0.002341966               0.014437549               0.003897860              -0.000926457               0.005121286               0.004194829               0.000000000               0.000000000               0.000000000               0.000000000               0.001254593               0.012256217               0.002116760              -0.001061553               0.004439215               0.003377662               0.000000000               0.000000000               0.000000000               0.000000000               0.000664094               0.010843236               0.000394620              -0.001106367               0.003983165               0.002876798               0.000000000               0.000000000               0.000000000               0.000000000               0.000260405               0.009895836              -0.000248183              -0.001139325               0.003678354               0.002539029               0.000000000               0.000000000               0.000000000               0.000000000               0.000009025               0.009197941              -0.000487677              -0.001146355               0.003448068               0.002301713               0.000000000               0.000000000               0.000000000               0.000000000              -0.000141388               0.008650303              -0.000568013              -0.001134306               0.003261507               0.002127202               0.000000000               0.000000000               0.000000000               0.000000000              -0.000230096               0.008198050              -0.000578439              -0.001111039               0.003103002               0.001991963               0.000000000               0.000000000               0.000000000               0.000000000              -0.000272385               0.007810300              -0.000557387              -0.001078429               0.002962884               0.001884454               0.000000000               0.000000000               0.000000000               0.000000000              -0.000273256               0.007470106              -0.000528246              -0.001036232               0.002835421               0.001799189               0.000000000               0.000000000               0.000000000               0.000000000              -0.000252174               0.007163945              -0.000496669              -0.000990056               0.002717977               0.001727921               0.000000000               0.000000000               0.000000000               0.000000000              -0.000219949               0.006881349              -0.000458774              -0.000942647               0.002607976               0.001665329               0.000000000               0.000000000               0.000000000               0.000000000              -0.000176484               0.006623863              -0.000410394              -0.000894162               0.002505986               0.001611824               0.000000000               0.000000000               0.000000000               0.000000000              -0.000128343               0.006398711              -0.000351596              -0.000847965               0.002415537               0.001567572               0.000000000               0.000000000               0.000000000               0.000000000              -0.000082545               0.006217335              -0.000280627              -0.000808119               0.002341797               0.001533678               0.000000000               0.000000000               0.000000000               0.000000000              -0.000045391               0.006084606              -0.000199653              -0.000777595               0.002287380               0.001509785               0.000000000               0.000000000               0.000000000               0.000000000              -0.000019543               0.006006717              -0.000106279              -0.000758166               0.002254941               0.001496775               0.000000000               0.000000000               0.000000000               0.000000000              -0.000006496               0.005986891              -0.000054448              -0.000750796               0.002245876               0.001495080               0.000000000               0.000000000               0.000000000               0.000000000               0.002276240               0.012160089               0.003985794              -0.000666423               0.004275463               0.003609039               0.000000000               0.000000000               0.000000000               0.000000000               0.000887946               0.010841905               0.002252699              -0.001022257               0.003954684               0.002932427               0.000000000               0.000000000               0.000000000               0.000000000              -0.000036036               0.010194457               0.000586231              -0.001287817               0.003827391               0.002539573               0.000000000               0.000000000               0.000000000               0.000000000              -0.000450941               0.009557479              -0.000013294              -0.001363784               0.003640389               0.002276605               0.000000000               0.000000000               0.000000000               0.000000000              -0.000621808               0.008993202              -0.000241522              -0.001357325               0.003450145               0.002092821               0.000000000               0.000000000               0.000000000               0.000000000              -0.000670572               0.008508299              -0.000328656              -0.001314999               0.003274404               0.001959405               0.000000000               0.000000000               0.000000000               0.000000000              -0.000658763               0.008087593              -0.000351818              -0.001257982               0.003115165               0.001857182               0.000000000               0.000000000               0.000000000               0.000000000              -0.000611706               0.007718952              -0.000341748              -0.001194256               0.002971044               0.001776788               0.000000000               0.000000000               0.000000000               0.000000000              -0.000537362               0.007387536              -0.000321264              -0.001124950               0.002837471               0.001712521               0.000000000               0.000000000               0.000000000               0.000000000              -0.000447280               0.007087168              -0.000297037              -0.001053623               0.002713574               0.001659950               0.000000000               0.000000000               0.000000000               0.000000000              -0.000348817               0.006814148              -0.000266781              -0.000982572               0.002598884               0.001616312               0.000000000               0.000000000               0.000000000               0.000000000              -0.000252112               0.006576254              -0.000228836              -0.000916571               0.002497587               0.001581015               0.000000000               0.000000000               0.000000000               0.000000000              -0.000170169               0.006383164              -0.000185807              -0.000861707               0.002414936               0.001553229               0.000000000               0.000000000               0.000000000               0.000000000              -0.000106695               0.006237612              -0.000138708              -0.000819710               0.002352420               0.001532710               0.000000000               0.000000000               0.000000000               0.000000000              -0.000061803               0.006134550              -0.000088513              -0.000789993               0.002308161               0.001518168               0.000000000               0.000000000               0.000000000               0.000000000              -0.000028419               0.006067152              -0.000041151              -0.000769049               0.002278713               0.001509664               0.000000000               0.000000000               0.000000000               0.000000000              -0.000018427               0.006034031              -0.000022289              -0.000761162               0.002265044               0.001503882               0.000000000               0.000000000               0.000000000               0.000000000               0.001971480               0.009914924               0.003748187              -0.000500063               0.003471628               0.002971565               0.000000000               0.000000000               0.000000000               0.000000000               0.000433825               0.009458248               0.002263756              -0.001019596               0.003492582               0.002472987               0.000000000               0.000000000               0.000000000               0.000000000              -0.000693032               0.009518590               0.000823557              -0.001449707               0.003656067               0.002206360               0.000000000               0.000000000               0.000000000               0.000000000              -0.001041491               0.009144377               0.000302916              -0.001533603               0.003559296               0.002025694               0.000000000               0.000000000               0.000000000               0.000000000              -0.001094789               0.008700058               0.000084888              -0.001498049               0.003399340               0.001901291               0.000000000               0.000000000               0.000000000               0.000000000              -0.001035693               0.008274637              -0.000016150              -0.001422711               0.003232422               0.001809711               0.000000000               0.000000000               0.000000000               0.000000000              -0.000932400               0.007884458              -0.000061747              -0.001335204               0.003073194               0.001737990               0.000000000               0.000000000               0.000000000               0.000000000              -0.000804989               0.007532942              -0.000073376              -0.001243486               0.002925451               0.001681965               0.000000000               0.000000000               0.000000000               0.000000000              -0.000662292               0.007216714              -0.000071790              -0.001150446               0.002789029               0.001638583               0.000000000               0.000000000               0.000000000               0.000000000              -0.000518190               0.006933158              -0.000066750              -0.001060963               0.002664684               0.001603721               0.000000000               0.000000000               0.000000000               0.000000000              -0.000383035               0.006684466              -0.000056172              -0.000979194               0.002554531               0.001575337               0.000000000               0.000000000               0.000000000               0.000000000              -0.000265499               0.006477339              -0.000044427              -0.000909227               0.002462167               0.001552940               0.000000000               0.000000000               0.000000000               0.000000000              -0.000175333               0.006308006              -0.000035185              -0.000854248               0.002387397               0.001533149               0.000000000               0.000000000               0.000000000               0.000000000              -0.000113558               0.006167415              -0.000025882              -0.000813509               0.002326954               0.001513445               0.000000000               0.000000000               0.000000000               0.000000000              -0.000071658               0.006047926              -0.000017638              -0.000782861               0.002276909               0.001494048               0.000000000               0.000000000               0.000000000               0.000000000              -0.000035678               0.005942187              -0.000010505              -0.000756151               0.002232760               0.001476609               0.000000000               0.000000000               0.000000000               0.000000000              -0.000034701               0.005868016              -0.000015963              -0.000746513               0.002204823               0.001458310               0.000000000               0.000000000               0.000000000               0.000000000               0.001446565               0.007832080               0.003268451              -0.000436551               0.002756183               0.002319632               0.000000000               0.000000000               0.000000000               0.000000000              -0.000082549               0.008183601               0.002192267              -0.001053905               0.003079141               0.002025236               0.000000000               0.000000000               0.000000000               0.000000000              -0.001240253               0.008827922               0.001101701              -0.001568581               0.003465471               0.001896890               0.000000000               0.000000000               0.000000000               0.000000000              -0.001453515               0.008662822               0.000657689              -0.001627917               0.003430217               0.001802300               0.000000000               0.000000000               0.000000000               0.000000000              -0.001376429               0.008324837               0.000434797              -0.001556762               0.003293838               0.001737077               0.000000000               0.000000000               0.000000000               0.000000000              -0.001218238               0.007960112               0.000308433              -0.001451850               0.003137294               0.001685444               0.000000000               0.000000000               0.000000000               0.000000000              -0.001038620               0.007609021               0.000232395              -0.001340607               0.002983184               0.001642577               0.000000000               0.000000000               0.000000000               0.000000000              -0.000848812               0.007283862               0.000188342              -0.001228784               0.002837524               0.001608740               0.000000000               0.000000000               0.000000000               0.000000000              -0.000657491               0.006992117               0.000158200              -0.001120571               0.002704206               0.001583635               0.000000000               0.000000000               0.000000000               0.000000000              -0.000481946               0.006735290               0.000131381              -0.001022639               0.002585954               0.001563315               0.000000000               0.000000000               0.000000000               0.000000000              -0.000336073               0.006511119               0.000107339              -0.000939915               0.002483656               0.001543741               0.000000000               0.000000000               0.000000000               0.000000000              -0.000227419               0.006308837               0.000082568              -0.000873885               0.002394220               0.001520335               0.000000000               0.000000000               0.000000000               0.000000000              -0.000160000               0.006120238               0.000054676              -0.000825028               0.002315068               0.001490040               0.000000000               0.000000000               0.000000000               0.000000000              -0.000121229               0.005944679               0.000026843              -0.000788544               0.002244388               0.001455844               0.000000000               0.000000000               0.000000000               0.000000000              -0.000092111               0.005783531               0.000005512              -0.000757481               0.002180318               0.001422837               0.000000000               0.000000000               0.000000000               0.000000000              -0.000056406               0.005639300              -0.000005653              -0.000726063               0.002121769               0.001395706               0.000000000               0.000000000               0.000000000               0.000000000              -0.000048490               0.005546832              -0.000017597              -0.000711536               0.002086104               0.001374568               0.000000000               0.000000000               0.000000000               0.000000000               0.000798599               0.006059947               0.002641964              -0.000458020               0.002172635               0.001714614               0.000000000               0.000000000               0.000000000               0.000000000              -0.000575330               0.007044857               0.002087883              -0.001096354               0.002713713               0.001617359               0.000000000               0.000000000               0.000000000               0.000000000              -0.001637560               0.008155139               0.001425970              -0.001633474               0.003262843               0.001629370               0.000000000               0.000000000               0.000000000               0.000000000              -0.001703187               0.008201817               0.001033474              -0.001663918               0.003288551               0.001624633               0.000000000               0.000000000               0.000000000               0.000000000              -0.001521973               0.007981671               0.000787280              -0.001568445               0.003183345               0.001614900               0.000000000               0.000000000               0.000000000               0.000000000              -0.001290119               0.007692064               0.000624401              -0.001445299               0.003045762               0.001600463               0.000000000               0.000000000               0.000000000               0.000000000              -0.001053007               0.007394546               0.000513960              -0.001319193               0.002904555               0.001585362               0.000000000               0.000000000               0.000000000               0.000000000              -0.000816630               0.007105650               0.000432349              -0.001194440               0.002766673               0.001572233               0.000000000               0.000000000               0.000000000               0.000000000              -0.000591172               0.006842373               0.000362782              -0.001076983               0.002639763               0.001562779               0.000000000               0.000000000               0.000000000               0.000000000              -0.000396084               0.006606652               0.000298995              -0.000974361               0.002526982               0.001552622               0.000000000               0.000000000               0.000000000               0.000000000              -0.000256354               0.006372535               0.000240766              -0.000892697               0.002421723               0.001529026               0.000000000               0.000000000               0.000000000               0.000000000              -0.000170949               0.006141827               0.000185447              -0.000831832               0.002324533               0.001492700               0.000000000               0.000000000               0.000000000               0.000000000              -0.000130193               0.005921770               0.000127736              -0.000789042               0.002236917               0.001447876               0.000000000               0.000000000               0.000000000               0.000000000              -0.000126920               0.005706833               0.000072272              -0.000760947               0.002155908               0.001394960               0.000000000               0.000000000               0.000000000               0.000000000              -0.000134187               0.005507915               0.000029464              -0.000738808               0.002082222               0.001343415               0.000000000               0.000000000               0.000000000               0.000000000              -0.000135837               0.005329211               0.000003638              -0.000717089               0.002015416               0.001298327               0.000000000               0.000000000               0.000000000               0.000000000              -0.000133626               0.005232856              -0.000007223              -0.000704215               0.001979006               0.001274791               0.000000000               0.000000000               0.000000000               0.000000000               0.000002962               0.004397420               0.001963998              -0.000548567               0.001648647               0.001100080               0.000000000               0.000000000               0.000000000               0.000000000              -0.000969100               0.005730820               0.001966840              -0.001079763               0.002270175               0.001190411               0.000000000               0.000000000               0.000000000               0.000000000              -0.001832554               0.007173915               0.001777172              -0.001583944               0.002919262               0.001335318               0.000000000               0.000000000               0.000000000               0.000000000              -0.001822412               0.007518883               0.001448489              -0.001623261               0.003047356               0.001424095               0.000000000               0.000000000               0.000000000               0.000000000              -0.001601166               0.007501877               0.001176140              -0.001538168               0.003013323               0.001475155               0.000000000               0.000000000               0.000000000               0.000000000              -0.001340552               0.007361389               0.000971872              -0.001422877               0.002928064               0.001505187               0.000000000               0.000000000               0.000000000               0.000000000              -0.001086711               0.007176111               0.000821968              -0.001304528               0.002826855               0.001522328               0.000000000               0.000000000               0.000000000               0.000000000              -0.000843502               0.006968478               0.000700859              -0.001187370               0.002718593               0.001531223               0.000000000               0.000000000               0.000000000               0.000000000              -0.000612002               0.006763678               0.000595060              -0.001074958               0.002612856               0.001537898               0.000000000               0.000000000               0.000000000               0.000000000              -0.000411844               0.006552449               0.000497413              -0.000973495               0.002508626               0.001535131               0.000000000               0.000000000               0.000000000               0.000000000              -0.000265919               0.006315193               0.000403126              -0.000889117               0.002401415               0.001512299               0.000000000               0.000000000               0.000000000               0.000000000              -0.000175509               0.006076236               0.000312664              -0.000825344               0.002300506               0.001475163               0.000000000               0.000000000               0.000000000               0.000000000              -0.000138050               0.005835696               0.000222354              -0.000781229               0.002205622               0.001424393               0.000000000               0.000000000               0.000000000               0.000000000              -0.000147944               0.005602268               0.000138277              -0.000755761               0.002119324               0.001363564               0.000000000               0.000000000               0.000000000               0.000000000              -0.000187394               0.005387773               0.000071238              -0.000743742               0.002043821               0.001300078               0.000000000               0.000000000               0.000000000               0.000000000              -0.000237479               0.005188546               0.000023407              -0.000737621               0.001975371               0.001237751               0.000000000               0.000000000               0.000000000               0.000000000              -0.000262713               0.005091447               0.000003703              -0.000734946               0.001942114               0.001207168               0.000000000               0.000000000               0.000000000               0.000000000              -0.001058285               0.002876314               0.001274226              -0.000756395               0.001210893               0.000454498               0.000000000               0.000000000               0.000000000               0.000000000              -0.001416790               0.004412836               0.001780710              -0.001082899               0.001831896               0.000748997               0.000000000               0.000000000               0.000000000               0.000000000              -0.001943653               0.006046686               0.002051400              -0.001484703               0.002510442               0.001025739               0.000000000               0.000000000               0.000000000               0.000000000              -0.001867906               0.006677557               0.001843292              -0.001535156               0.002737548               0.001202392               0.000000000               0.000000000               0.000000000               0.000000000              -0.001631266               0.006896228               0.001575125              -0.001473750               0.002789969               0.001316219               0.000000000               0.000000000               0.000000000               0.000000000              -0.001362696               0.006937062               0.001341338              -0.001378141               0.002771711               0.001393570               0.000000000               0.000000000               0.000000000               0.000000000              -0.001109013               0.006889563               0.001154722              -0.001277072               0.002722189               0.001445116               0.000000000               0.000000000               0.000000000               0.000000000              -0.000870753               0.006789326               0.001001618              -0.001175195               0.002654818               0.001479622               0.000000000               0.000000000               0.000000000               0.000000000              -0.000638987               0.006667258               0.000867418              -0.001073025               0.002580072               0.001507047               0.000000000               0.000000000               0.000000000               0.000000000              -0.000432501               0.006510125               0.000743280              -0.000975951               0.002495337               0.001519386               0.000000000               0.000000000               0.000000000               0.000000000              -0.000268434               0.006304554               0.000624561              -0.000888730               0.002397740               0.001509010               0.000000000               0.000000000               0.000000000               0.000000000              -0.000153635               0.006080051               0.000507519              -0.000817618               0.002299203               0.001481585               0.000000000               0.000000000               0.000000000               0.000000000              -0.000092368               0.005844944               0.000386656              -0.000765254               0.002203380               0.001438126               0.000000000               0.000000000               0.000000000               0.000000000              -0.000084681               0.005609817               0.000267560              -0.000732981               0.002114247               0.001381267               0.000000000               0.000000000               0.000000000               0.000000000              -0.000132250               0.005384972               0.000161676              -0.000722713               0.002035877               0.001313164               0.000000000               0.000000000               0.000000000               0.000000000              -0.000222453               0.005183129               0.000071687              -0.000731309               0.001971462               0.001240153               0.000000000               0.000000000               0.000000000               0.000000000              -0.000291527               0.005080315               0.000023867              -0.000744360               0.001941542               0.001197181               0.000000000               0.000000000               0.000000000               0.000000000              -0.002310370               0.001610065               0.000622924              -0.001067645               0.000892564              -0.000175081               0.000000000               0.000000000               0.000000000               0.000000000              -0.001968238               0.003168654               0.001504113              -0.001134169               0.001434263               0.000300094               0.000000000               0.000000000               0.000000000               0.000000000              -0.002008918               0.004794282               0.002149562              -0.001352627               0.002048953               0.000696326               0.000000000               0.000000000               0.000000000               0.000000000              -0.001811217               0.005631099               0.002097029              -0.001383091               0.002338044               0.000954952               0.000000000               0.000000000               0.000000000               0.000000000              -0.001550610               0.006068906               0.001877767              -0.001340089               0.002469644               0.001129555               0.000000000               0.000000000               0.000000000               0.000000000              -0.001283350               0.006298588               0.001645651              -0.001268577               0.002522367               0.001253790               0.000000000               0.000000000               0.000000000               0.000000000              -0.001032389               0.006407811               0.001442347              -0.001188120               0.002531955               0.001343835               0.000000000               0.000000000               0.000000000               0.000000000              -0.000800756               0.006438626               0.001270446              -0.001105110               0.002514557               0.001409447               0.000000000               0.000000000               0.000000000               0.000000000              -0.000581065               0.006423262               0.001117424              -0.001020805               0.002481334               0.001460529               0.000000000               0.000000000               0.000000000               0.000000000              -0.000379932               0.006348846               0.000978587              -0.000936078               0.002428287               0.001492209               0.000000000               0.000000000               0.000000000               0.000000000              -0.000203964               0.006206456               0.000846979              -0.000852292               0.002352895               0.001500604               0.000000000               0.000000000               0.000000000               0.000000000              -0.000065260               0.006022784               0.000713040              -0.000777319               0.002266681               0.001489362               0.000000000               0.000000000               0.000000000               0.000000000               0.000023313               0.005815299               0.000572402              -0.000718168               0.002177803               0.001459635               0.000000000               0.000000000               0.000000000               0.000000000               0.000063813               0.005601558               0.000426826              -0.000676263               0.002092588               0.001416325               0.000000000               0.000000000               0.000000000               0.000000000               0.000046020               0.005383300               0.000281361              -0.000655654               0.002012967               0.001357313               0.000000000               0.000000000               0.000000000               0.000000000              -0.000038976               0.005180270               0.000137791              -0.000662148               0.001947455               0.001285307               0.000000000               0.000000000               0.000000000               0.000000000              -0.000124449               0.005071004               0.000057416              -0.000680542               0.001917165               0.001236623               0.000000000               0.000000000               0.000000000               0.000000000              -0.003658138               0.000663571               0.000093484              -0.001454747               0.000706101              -0.000748646               0.000000000               0.000000000               0.000000000               0.000000000              -0.002590885               0.002065259               0.001169375              -0.001229737               0.001098324              -0.000131413               0.000000000               0.000000000               0.000000000               0.000000000              -0.002055655               0.003518330               0.002046180              -0.001210660               0.001576317               0.000365657               0.000000000               0.000000000               0.000000000               0.000000000              -0.001675649               0.004461813               0.002138853              -0.001186093               0.001882619               0.000696526               0.000000000               0.000000000               0.000000000               0.000000000              -0.001363545               0.005072606               0.001996481              -0.001145403               0.002072652               0.000927249               0.000000000               0.000000000               0.000000000               0.000000000              -0.001092577               0.005471531               0.001798865              -0.001093656               0.002188377               0.001094721               0.000000000               0.000000000               0.000000000               0.000000000              -0.000850923               0.005734648               0.001607354              -0.001035925               0.002256838               0.001220913               0.000000000               0.000000000               0.000000000               0.000000000              -0.000629754               0.005907207               0.001434639              -0.000974557               0.002293901               0.001319344               0.000000000               0.000000000               0.000000000               0.000000000              -0.000422036               0.006015646               0.001277799              -0.000910217               0.002308601               0.001398383               0.000000000               0.000000000               0.000000000               0.000000000              -0.000228576               0.006043800               0.001139784              -0.000841189               0.002294976               0.001453787               0.000000000               0.000000000               0.000000000               0.000000000              -0.000052699               0.005988439               0.001008487              -0.000768316               0.002252231               0.001483916               0.000000000               0.000000000               0.000000000               0.000000000               0.000103406               0.005878281               0.000868233              -0.000696006               0.002191409               0.001495403               0.000000000               0.000000000               0.000000000               0.000000000               0.000227205               0.005727713               0.000720973              -0.000630761               0.002119472               0.001488711               0.000000000               0.000000000               0.000000000               0.000000000               0.000312996               0.005553174               0.000566539              -0.000576772               0.002043297               0.001466525               0.000000000               0.000000000               0.000000000               0.000000000               0.000351628               0.005363859               0.000397239              -0.000538621               0.001967475               0.001428855               0.000000000               0.000000000               0.000000000               0.000000000               0.000328489               0.005176367               0.000206718              -0.000523861               0.001900059               0.001376198               0.000000000               0.000000000               0.000000000               0.000000000               0.000279944               0.005075249               0.000100027              -0.000529426               0.001868208               0.001338782               0.000000000               0.000000000               0.000000000               0.000000000              -0.004961994               0.000035187              -0.000239087              -0.001865145               0.000633439              -0.001231705               0.000000000               0.000000000               0.000000000               0.000000000              -0.003224949               0.001168865               0.000821850              -0.001355462               0.000841436              -0.000514026               0.000000000               0.000000000               0.000000000               0.000000000              -0.002100712               0.002340451               0.001739686              -0.001080322               0.001140248               0.000059927               0.000000000               0.000000000               0.000000000               0.000000000              -0.001498026               0.003296723               0.001925507              -0.000973849               0.001423512               0.000449663               0.000000000               0.000000000               0.000000000               0.000000000              -0.001107215               0.004016712               0.001861287              -0.000917294               0.001644655               0.000727361               0.000000000               0.000000000               0.000000000               0.000000000              -0.000817236               0.004549964               0.001718417              -0.000875208               0.001808375               0.000933167               0.000000000               0.000000000               0.000000000               0.000000000              -0.000581598               0.004950199               0.001561944              -0.000836873               0.001929007               0.001092134               0.000000000               0.000000000               0.000000000               0.000000000              -0.000376297               0.005254361               0.001412260              -0.000797905               0.002017404               0.001219499               0.000000000               0.000000000               0.000000000               0.000000000              -0.000180043               0.005481719               0.001275971              -0.000752730               0.002078131               0.001325401               0.000000000               0.000000000               0.000000000               0.000000000               0.000004528               0.005616461               0.001154254              -0.000700358               0.002105587               0.001405229               0.000000000               0.000000000               0.000000000               0.000000000               0.000173827               0.005663740               0.001034562              -0.000642781               0.002102155               0.001459373               0.000000000               0.000000000               0.000000000               0.000000000               0.000337118               0.005645817               0.000905875              -0.000579307               0.002075022               0.001495716               0.000000000               0.000000000               0.000000000               0.000000000               0.000493511               0.005571108               0.000769552              -0.000511321               0.002027458               0.001516137               0.000000000               0.000000000               0.000000000               0.000000000               0.000636449               0.005455986               0.000623221              -0.000443329               0.001966420               0.001523091               0.000000000               0.000000000               0.000000000               0.000000000               0.000756924               0.005313885               0.000455333              -0.000380388               0.001898073               0.001517685               0.000000000               0.000000000               0.000000000               0.000000000               0.000846737               0.005160226               0.000248511              -0.000327501               0.001829225               0.001501724               0.000000000               0.000000000               0.000000000               0.000000000               0.000892284               0.005085326               0.000134224              -0.000301058               0.001795444               0.001494386               0.000000000               0.000000000               0.000000000               0.000000000              -0.006069498              -0.000328050              -0.000336411              -0.002235054               0.000635664              -0.001599390               0.000000000               0.000000000               0.000000000               0.000000000              -0.003785187               0.000518064               0.000506545              -0.001484201               0.000667417              -0.000816784               0.000000000               0.000000000               0.000000000               0.000000000              -0.002145984               0.001385548               0.001261904              -0.000977936               0.000787822              -0.000190114               0.000000000               0.000000000               0.000000000               0.000000000              -0.001321781               0.002293761               0.001458386              -0.000782387               0.001025374               0.000242987               0.000000000               0.000000000               0.000000000               0.000000000              -0.000842515               0.003069792               0.001446256              -0.000699666               0.001256475               0.000556809               0.000000000               0.000000000               0.000000000               0.000000000              -0.000525703               0.003695011               0.001359838              -0.000659014               0.001451329               0.000792315               0.000000000               0.000000000               0.000000000               0.000000000              -0.000288955               0.004194411               0.001252203              -0.000632659               0.001609009               0.000976350               0.000000000               0.000000000               0.000000000               0.000000000              -0.000090354               0.004601035               0.001145484              -0.000609011               0.001736666               0.001127655               0.000000000               0.000000000               0.000000000               0.000000000               0.000095794               0.004928105               0.001048135              -0.000580089               0.001836048               0.001255959               0.000000000               0.000000000               0.000000000               0.000000000               0.000267077               0.005157865               0.000957178              -0.000544578               0.001900797               0.001356219               0.000000000               0.000000000               0.000000000               0.000000000               0.000428844               0.005297160               0.000865360              -0.000501327               0.001932811               0.001431484               0.000000000               0.000000000               0.000000000               0.000000000               0.000596419               0.005365057               0.000766868              -0.000446974               0.001937326               0.001490352               0.000000000               0.000000000               0.000000000               0.000000000               0.000777371               0.005373121               0.000661523              -0.000380125               0.001917731               0.001537605               0.000000000               0.000000000               0.000000000               0.000000000               0.000973740               0.005330950               0.000546430              -0.000301216               0.001877371               0.001576155               0.000000000               0.000000000               0.000000000               0.000000000               0.001186645               0.005247550               0.000410737              -0.000210952               0.001819483               0.001608531               0.000000000               0.000000000               0.000000000               0.000000000               0.001411805               0.005134059               0.000231179              -0.000112330               0.001748779               0.001636449               0.000000000               0.000000000               0.000000000               0.000000000               0.001580204               0.005090076               0.000133202              -0.000043683               0.001711236               0.001667553               0.000000000               0.000000000               0.000000000               0.000000000              -0.006818307              -0.000506865              -0.000229290              -0.002493505               0.000662209              -0.001831296               0.000000000               0.000000000               0.000000000               0.000000000              -0.004172681               0.000122457               0.000236770              -0.001580061               0.000567502              -0.001012559               0.000000000               0.000000000               0.000000000               0.000000000              -0.002182005               0.000759995               0.000661566              -0.000913250               0.000557744              -0.000355506               0.000000000               0.000000000               0.000000000               0.000000000              -0.001195298               0.001610958               0.000784955              -0.000649605               0.000753515               0.000103910               0.000000000               0.000000000               0.000000000               0.000000000              -0.000647348               0.002406166               0.000791031              -0.000543525               0.000983222               0.000439697               0.000000000               0.000000000               0.000000000               0.000000000              -0.000303531               0.003084742               0.000752044              -0.000499416               0.001194709               0.000695293               0.000000000               0.000000000               0.000000000               0.000000000              -0.000059701               0.003643596               0.000698218              -0.000477837               0.001373798               0.000895962               0.000000000               0.000000000               0.000000000               0.000000000               0.000139369               0.004111269               0.000644679              -0.000461645               0.001524291               0.001062646               0.000000000               0.000000000               0.000000000               0.000000000               0.000317349               0.004505838               0.000594411              -0.000444223               0.001650005               0.001205782               0.000000000               0.000000000               0.000000000               0.000000000               0.000478545               0.004801531               0.000545543              -0.000420736               0.001740740               0.001320004               0.000000000               0.000000000               0.000000000               0.000000000               0.000634743               0.005000349               0.000496169              -0.000387014               0.001795771               0.001408757               0.000000000               0.000000000               0.000000000               0.000000000               0.000806102               0.005128544               0.000442769              -0.000338779               0.001822424               0.001483645               0.000000000               0.000000000               0.000000000               0.000000000               0.001005805               0.005199739               0.000384173              -0.000272790               0.001824159               0.001551369               0.000000000               0.000000000               0.000000000               0.000000000               0.001241952               0.005219276               0.000321795              -0.000186677               0.001801967               0.001615290               0.000000000               0.000000000               0.000000000               0.000000000               0.001522363               0.005188464               0.000245691              -0.000077672               0.001755361               0.001677689               0.000000000               0.000000000               0.000000000               0.000000000               0.001858126               0.005109407               0.000138877               0.000058121               0.001683745               0.001741866               0.000000000               0.000000000               0.000000000               0.000000000               0.002133668               0.005090385               0.000082499               0.000163826               0.001642170               0.001805995               0.000000000               0.000000000               0.000000000               0.000000000               0.000000000               0.000000000               0.000000000               0.000000000               0.000000000               0.000000000               0.000000000               0.000000000               0.000000000               0.000000000               0.000000000               0.000000000               0.000000000               0.000000000               0.000000000               0.000000000               0.000000000               0.000000000               0.000000000               0.000000000               0.000000000               0.000000000               0.000000000               0.000000000               0.000000000               0.000000000               0.000000000               0.000000000               0.000000000               0.000000000               0.000000000               0.000000000               0.000000000               0.000000000               0.000000000               0.000000000               0.000000000               0.000000000               0.000000000               0.000000000               0.000000000               0.000000000               0.000000000               0.000000000               0.000000000               0.000000000               0.000000000               0.000000000               0.000000000               0.000000000               0.000000000               0.000000000               0.000000000               0.000000000               0.000000000               0.000000000               0.000000000               0.000000000               0.000000000               0.000000000               0.000000000               0.000000000               0.000000000               0.000000000               0.000000000               0.000000000               0.000000000               0.000000000               0.000000000               0.000000000               0.000000000               0.000000000               0.000000000               0.000000000               0.000000000               0.000000000               0.000000000               0.000000000               0.000000000               0.000000000               0.000000000               0.000000000               0.000000000               0.000000000               0.000000000               0.000000000               0.000000000               0.000000000               0.000000000               0.000000000               0.000000000               0.000000000               0.000000000               0.000000000               0.000000000               0.000000000               0.000000000               0.000000000               0.000000000               0.000000000               0.000000000               0.000000000               0.000000000               0.000000000               0.000000000               0.000000000               0.000000000               0.000000000               0.000000000               0.000000000               0.000000000               0.000000000               0.000000000               0.000000000               0.000000000               0.000000000               0.000000000               0.000000000               0.000000000               0.000000000               0.000000000               0.000000000               0.000000000               0.000000000               0.000000000               0.000000000               0.000000000               0.000000000               0.000000000               0.000000000               0.000000000               0.000000000               0.000000000               0.000000000               0.000000000               0.000000000               0.000000000               0.000000000               0.000000000               0.000000000               0.000000000               0.000000000               0.000000000               0.000000000               0.000000000               0.000000000               0.000000000               0.000000000               0.000000000               0.000000000               0.000000000               0.000000000               0.000000000               0.000000000               0.000000000               0.000000000               0.000000000               0.000000000               0.000000000               0.000000000               0.000000000               0.000000000               0.000000000               0.000000000               0.000000000               0.000000000               0.000000000               0.000000000               0.000000000               0.000000000 </DataArray>
</PointData>
</Piece>
</UnstructuredGrid> </VTKFile>
