<?xml version="1.0"?>
<VTKFile type="UnstructuredGrid" version="0.1">
<UnstructuredGrid>
<Piece NumberOfPoints="      1156" NumberOfCells="      1024">
<Points>
<DataArray type="Float64"                                    Name="coordinates"                                                      NumberOfComponents=" 3" format="ascii">
              0.133000000               0.000000000               0.000000000               0.155937500               0.000000000               0.000000000               0.178875000               0.000000000               0.000000000               0.201812500               0.000000000               0.000000000               0.224750000               0.000000000               0.000000000               0.247687500               0.000000000               0.000000000               0.270625000               0.000000000               0.000000000               0.293562500               0.000000000               0.000000000               0.316500000               0.000000000               0.000000000               0.339437500               0.000000000               0.000000000               0.362375000               0.000000000               0.000000000               0.385312500               0.000000000               0.000000000               0.408250000               0.000000000               0.000000000               0.431187500               0.000000000               0.000000000               0.454125000               0.000000000               0.000000000               0.477062500               0.000000000               0.000000000               0.500000000               0.000000000               0.000000000               0.132359569               0.013036280               0.000000000               0.155337096               0.016127762               0.000000000               0.178314623               0.019219245               0.000000000               0.201292150               0.022310727               0.000000000               0.224269676               0.025402210               0.000000000               0.247247203               0.028493692               0.000000000               0.270224730               0.031585175               0.000000000               0.293202257               0.034676657               0.000000000               0.316179784               0.037768140               0.000000000               0.339157311               0.040859622               0.000000000               0.362134838               0.043951105               0.000000000               0.385112365               0.047042587               0.000000000               0.408089892               0.050134070               0.000000000               0.431067419               0.053225552               0.000000000               0.454044946               0.056317035               0.000000000               0.477022473               0.059408517               0.000000000               0.500000000               0.062500000               0.000000000               0.130444442               0.025947013               0.000000000               0.153541665               0.032137825               0.000000000               0.176638887               0.038328636               0.000000000               0.199736109               0.044519448               0.000000000               0.222833332               0.050710260               0.000000000               0.245930554               0.056901071               0.000000000               0.269027776               0.063091883               0.000000000               0.292124999               0.069282695               0.000000000               0.315222221               0.075473506               0.000000000               0.338319444               0.081664318               0.000000000               0.361416666               0.087855130               0.000000000               0.384513888               0.094045942               0.000000000               0.407611111               0.100236753               0.000000000               0.430708333               0.106427565               0.000000000               0.453805555               0.112618377               0.000000000               0.476902778               0.118809188               0.000000000               0.500000000               0.125000000               0.000000000               0.127273065               0.038607862               0.000000000               0.150568498               0.047913621               0.000000000               0.173863932               0.057219379               0.000000000               0.197159365               0.066525138               0.000000000               0.220454798               0.075830897               0.000000000               0.243750232               0.085136655               0.000000000               0.267045665               0.094442414               0.000000000               0.290341099               0.103748172               0.000000000               0.313636532               0.113053931               0.000000000               0.336931966               0.122359690               0.000000000               0.360227399               0.131665448               0.000000000               0.383522833               0.140971207               0.000000000               0.406818266               0.150276966               0.000000000               0.430113700               0.159582724               0.000000000               0.453409133               0.168888483               0.000000000               0.476704567               0.178194241               0.000000000               0.500000000               0.187500000               0.000000000               0.122875978               0.050896897               0.000000000               0.146446229               0.063340840               0.000000000               0.170016481               0.075784784               0.000000000               0.193586732               0.088228728               0.000000000               0.217156983               0.100672672               0.000000000               0.240727235               0.113116616               0.000000000               0.264297486               0.125560560               0.000000000               0.287867738               0.138004504               0.000000000               0.311437989               0.150448448               0.000000000               0.335008240               0.162892392               0.000000000               0.358578492               0.175336336               0.000000000               0.382148743               0.187780280               0.000000000               0.405718994               0.200224224               0.000000000               0.429289246               0.212668168               0.000000000               0.452859497               0.225112112               0.000000000               0.476429749               0.237556056               0.000000000               0.500000000               0.250000000               0.000000000               0.117295528               0.062695766               0.000000000               0.141214558               0.078308531               0.000000000               0.165133587               0.093921295               0.000000000               0.189052617               0.109534060               0.000000000               0.212971646               0.125146824               0.000000000               0.236890676               0.140759589               0.000000000               0.260809705               0.156372354               0.000000000               0.284728735               0.171985118               0.000000000               0.308647764               0.187597883               0.000000000               0.332566794               0.203210648               0.000000000               0.356485823               0.218823412               0.000000000               0.380404853               0.234436177               0.000000000               0.404323882               0.250048941               0.000000000               0.428242912               0.265661706               0.000000000               0.452161941               0.281274471               0.000000000               0.476080971               0.296887235               0.000000000               0.500000000               0.312500000               0.000000000               0.110585458               0.073890841               0.000000000               0.134923867               0.092710163               0.000000000               0.159262276               0.111529486               0.000000000               0.183600685               0.130348808               0.000000000               0.207939094               0.149168131               0.000000000               0.232277503               0.167987453               0.000000000               0.256615912               0.186806776               0.000000000               0.280954320               0.205626098               0.000000000               0.305292729               0.224445420               0.000000000               0.329631138               0.243264743               0.000000000               0.353969547               0.262084065               0.000000000               0.378307956               0.280903388               0.000000000               0.402646365               0.299722710               0.000000000               0.426984773               0.318542033               0.000000000               0.451323182               0.337361355               0.000000000               0.475661591               0.356180678               0.000000000               0.500000000               0.375000000               0.000000000               0.102810390               0.084374307               0.000000000               0.127634741               0.106444663               0.000000000               0.152459092               0.128515018               0.000000000               0.177283442               0.150585374               0.000000000               0.202107793               0.172655730               0.000000000               0.226932143               0.194726086               0.000000000               0.251756494               0.216796442               0.000000000               0.276580845               0.238866798               0.000000000               0.301405195               0.260937153               0.000000000               0.326229546               0.283007509               0.000000000               0.351053896               0.305077865               0.000000000               0.375878247               0.327148221               0.000000000               0.400702598               0.349218577               0.000000000               0.425526948               0.371288933               0.000000000               0.450351299               0.393359288               0.000000000               0.475175649               0.415429644               0.000000000               0.500000000               0.437500000               0.000000000               0.094045202               0.094045202               0.000000000               0.119417377               0.119417377               0.000000000               0.144789552               0.144789552               0.000000000               0.170161727               0.170161727               0.000000000               0.195533901               0.195533901               0.000000000               0.220906076               0.220906076               0.000000000               0.246278251               0.246278251               0.000000000               0.271650426               0.271650426               0.000000000               0.297022601               0.297022601               0.000000000               0.322394776               0.322394776               0.000000000               0.347766951               0.347766951               0.000000000               0.373139126               0.373139126               0.000000000               0.398511300               0.398511300               0.000000000               0.423883475               0.423883475               0.000000000               0.449255650               0.449255650               0.000000000               0.474627825               0.474627825               0.000000000               0.500000000               0.500000000               0.000000000               0.084374307               0.102810390               0.000000000               0.106444663               0.127634741               0.000000000               0.128515018               0.152459092               0.000000000               0.150585374               0.177283442               0.000000000               0.172655730               0.202107793               0.000000000               0.194726086               0.226932143               0.000000000               0.216796442               0.251756494               0.000000000               0.238866798               0.276580845               0.000000000               0.260937153               0.301405195               0.000000000               0.283007509               0.326229546               0.000000000               0.305077865               0.351053896               0.000000000               0.327148221               0.375878247               0.000000000               0.349218577               0.400702598               0.000000000               0.371288933               0.425526948               0.000000000               0.393359288               0.450351299               0.000000000               0.415429644               0.475175649               0.000000000               0.437500000               0.500000000               0.000000000               0.073890841               0.110585458               0.000000000               0.092710163               0.134923867               0.000000000               0.111529486               0.159262276               0.000000000               0.130348808               0.183600685               0.000000000               0.149168131               0.207939094               0.000000000               0.167987453               0.232277503               0.000000000               0.186806776               0.256615912               0.000000000               0.205626098               0.280954320               0.000000000               0.224445420               0.305292729               0.000000000               0.243264743               0.329631138               0.000000000               0.262084065               0.353969547               0.000000000               0.280903388               0.378307956               0.000000000               0.299722710               0.402646365               0.000000000               0.318542033               0.426984773               0.000000000               0.337361355               0.451323182               0.000000000               0.356180678               0.475661591               0.000000000               0.375000000               0.500000000               0.000000000               0.062695766               0.117295528               0.000000000               0.078308531               0.141214558               0.000000000               0.093921295               0.165133587               0.000000000               0.109534060               0.189052617               0.000000000               0.125146824               0.212971646               0.000000000               0.140759589               0.236890676               0.000000000               0.156372354               0.260809705               0.000000000               0.171985118               0.284728735               0.000000000               0.187597883               0.308647764               0.000000000               0.203210648               0.332566794               0.000000000               0.218823412               0.356485823               0.000000000               0.234436177               0.380404853               0.000000000               0.250048941               0.404323882               0.000000000               0.265661706               0.428242912               0.000000000               0.281274471               0.452161941               0.000000000               0.296887235               0.476080971               0.000000000               0.312500000               0.500000000               0.000000000               0.050896897               0.122875978               0.000000000               0.063340840               0.146446229               0.000000000               0.075784784               0.170016481               0.000000000               0.088228728               0.193586732               0.000000000               0.100672672               0.217156983               0.000000000               0.113116616               0.240727235               0.000000000               0.125560560               0.264297486               0.000000000               0.138004504               0.287867738               0.000000000               0.150448448               0.311437989               0.000000000               0.162892392               0.335008240               0.000000000               0.175336336               0.358578492               0.000000000               0.187780280               0.382148743               0.000000000               0.200224224               0.405718994               0.000000000               0.212668168               0.429289246               0.000000000               0.225112112               0.452859497               0.000000000               0.237556056               0.476429749               0.000000000               0.250000000               0.500000000               0.000000000               0.038607862               0.127273065               0.000000000               0.047913621               0.150568498               0.000000000               0.057219379               0.173863932               0.000000000               0.066525138               0.197159365               0.000000000               0.075830897               0.220454798               0.000000000               0.085136655               0.243750232               0.000000000               0.094442414               0.267045665               0.000000000               0.103748172               0.290341099               0.000000000               0.113053931               0.313636532               0.000000000               0.122359690               0.336931966               0.000000000               0.131665448               0.360227399               0.000000000               0.140971207               0.383522833               0.000000000               0.150276966               0.406818266               0.000000000               0.159582724               0.430113700               0.000000000               0.168888483               0.453409133               0.000000000               0.178194241               0.476704567               0.000000000               0.187500000               0.500000000               0.000000000               0.025947013               0.130444442               0.000000000               0.032137825               0.153541665               0.000000000               0.038328636               0.176638887               0.000000000               0.044519448               0.199736109               0.000000000               0.050710260               0.222833332               0.000000000               0.056901071               0.245930554               0.000000000               0.063091883               0.269027776               0.000000000               0.069282695               0.292124999               0.000000000               0.075473506               0.315222221               0.000000000               0.081664318               0.338319444               0.000000000               0.087855130               0.361416666               0.000000000               0.094045942               0.384513888               0.000000000               0.100236753               0.407611111               0.000000000               0.106427565               0.430708333               0.000000000               0.112618377               0.453805555               0.000000000               0.118809188               0.476902778               0.000000000               0.125000000               0.500000000               0.000000000               0.013036280               0.132359569               0.000000000               0.016127762               0.155337096               0.000000000               0.019219245               0.178314623               0.000000000               0.022310727               0.201292150               0.000000000               0.025402210               0.224269676               0.000000000               0.028493692               0.247247203               0.000000000               0.031585175               0.270224730               0.000000000               0.034676657               0.293202257               0.000000000               0.037768140               0.316179784               0.000000000               0.040859622               0.339157311               0.000000000               0.043951105               0.362134838               0.000000000               0.047042587               0.385112365               0.000000000               0.050134070               0.408089892               0.000000000               0.053225552               0.431067419               0.000000000               0.056317035               0.454044946               0.000000000               0.059408517               0.477022473               0.000000000               0.062500000               0.500000000               0.000000000               0.000000000               0.133000000               0.000000000               0.000000000               0.155937500               0.000000000               0.000000000               0.178875000               0.000000000               0.000000000               0.201812500               0.000000000               0.000000000               0.224750000               0.000000000               0.000000000               0.247687500               0.000000000               0.000000000               0.270625000               0.000000000               0.000000000               0.293562500               0.000000000               0.000000000               0.316500000               0.000000000               0.000000000               0.339437500               0.000000000               0.000000000               0.362375000               0.000000000               0.000000000               0.385312500               0.000000000               0.000000000               0.408250000               0.000000000               0.000000000               0.431187500               0.000000000               0.000000000               0.454125000               0.000000000               0.000000000               0.477062500               0.000000000               0.000000000               0.500000000               0.000000000               0.133000000               0.000000000               0.000000000               0.155937500               0.000000000               0.000000000               0.178875000               0.000000000               0.000000000               0.201812500               0.000000000               0.000000000               0.224750000               0.000000000               0.000000000               0.247687500               0.000000000               0.000000000               0.270625000               0.000000000               0.000000000               0.293562500               0.000000000               0.000000000               0.316500000               0.000000000               0.000000000               0.339437500               0.000000000               0.000000000               0.362375000               0.000000000               0.000000000               0.385312500               0.000000000               0.000000000               0.408250000               0.000000000               0.000000000               0.431187500               0.000000000               0.000000000               0.454125000               0.000000000               0.000000000               0.477062500               0.000000000               0.000000000               0.500000000               0.000000000               0.000000000               0.132359569              -0.013036280               0.000000000               0.155337096              -0.016127762               0.000000000               0.178314623              -0.019219245               0.000000000               0.201292150              -0.022310727               0.000000000               0.224269676              -0.025402210               0.000000000               0.247247203              -0.028493692               0.000000000               0.270224730              -0.031585175               0.000000000               0.293202257              -0.034676657               0.000000000               0.316179784              -0.037768140               0.000000000               0.339157311              -0.040859622               0.000000000               0.362134838              -0.043951105               0.000000000               0.385112365              -0.047042587               0.000000000               0.408089892              -0.050134070               0.000000000               0.431067419              -0.053225552               0.000000000               0.454044946              -0.056317035               0.000000000               0.477022473              -0.059408517               0.000000000               0.500000000              -0.062500000               0.000000000               0.130444442              -0.025947013               0.000000000               0.153541665              -0.032137825               0.000000000               0.176638887              -0.038328636               0.000000000               0.199736109              -0.044519448               0.000000000               0.222833332              -0.050710260               0.000000000               0.245930554              -0.056901071               0.000000000               0.269027776              -0.063091883               0.000000000               0.292124999              -0.069282695               0.000000000               0.315222221              -0.075473506               0.000000000               0.338319444              -0.081664318               0.000000000               0.361416666              -0.087855130               0.000000000               0.384513888              -0.094045942               0.000000000               0.407611111              -0.100236753               0.000000000               0.430708333              -0.106427565               0.000000000               0.453805555              -0.112618377               0.000000000               0.476902778              -0.118809188               0.000000000               0.500000000              -0.125000000               0.000000000               0.127273065              -0.038607862               0.000000000               0.150568498              -0.047913621               0.000000000               0.173863932              -0.057219379               0.000000000               0.197159365              -0.066525138               0.000000000               0.220454798              -0.075830897               0.000000000               0.243750232              -0.085136655               0.000000000               0.267045665              -0.094442414               0.000000000               0.290341099              -0.103748172               0.000000000               0.313636532              -0.113053931               0.000000000               0.336931966              -0.122359690               0.000000000               0.360227399              -0.131665448               0.000000000               0.383522833              -0.140971207               0.000000000               0.406818266              -0.150276966               0.000000000               0.430113700              -0.159582724               0.000000000               0.453409133              -0.168888483               0.000000000               0.476704567              -0.178194241               0.000000000               0.500000000              -0.187500000               0.000000000               0.122875978              -0.050896897               0.000000000               0.146446229              -0.063340840               0.000000000               0.170016481              -0.075784784               0.000000000               0.193586732              -0.088228728               0.000000000               0.217156983              -0.100672672               0.000000000               0.240727235              -0.113116616               0.000000000               0.264297486              -0.125560560               0.000000000               0.287867738              -0.138004504               0.000000000               0.311437989              -0.150448448               0.000000000               0.335008240              -0.162892392               0.000000000               0.358578492              -0.175336336               0.000000000               0.382148743              -0.187780280               0.000000000               0.405718994              -0.200224224               0.000000000               0.429289246              -0.212668168               0.000000000               0.452859497              -0.225112112               0.000000000               0.476429749              -0.237556056               0.000000000               0.500000000              -0.250000000               0.000000000               0.117295528              -0.062695766               0.000000000               0.141214558              -0.078308531               0.000000000               0.165133587              -0.093921295               0.000000000               0.189052617              -0.109534060               0.000000000               0.212971646              -0.125146824               0.000000000               0.236890676              -0.140759589               0.000000000               0.260809705              -0.156372354               0.000000000               0.284728735              -0.171985118               0.000000000               0.308647764              -0.187597883               0.000000000               0.332566794              -0.203210648               0.000000000               0.356485823              -0.218823412               0.000000000               0.380404853              -0.234436177               0.000000000               0.404323882              -0.250048941               0.000000000               0.428242912              -0.265661706               0.000000000               0.452161941              -0.281274471               0.000000000               0.476080971              -0.296887235               0.000000000               0.500000000              -0.312500000               0.000000000               0.110585458              -0.073890841               0.000000000               0.134923867              -0.092710163               0.000000000               0.159262276              -0.111529486               0.000000000               0.183600685              -0.130348808               0.000000000               0.207939094              -0.149168131               0.000000000               0.232277503              -0.167987453               0.000000000               0.256615912              -0.186806776               0.000000000               0.280954320              -0.205626098               0.000000000               0.305292729              -0.224445420               0.000000000               0.329631138              -0.243264743               0.000000000               0.353969547              -0.262084065               0.000000000               0.378307956              -0.280903388               0.000000000               0.402646365              -0.299722710               0.000000000               0.426984773              -0.318542033               0.000000000               0.451323182              -0.337361355               0.000000000               0.475661591              -0.356180678               0.000000000               0.500000000              -0.375000000               0.000000000               0.102810390              -0.084374307               0.000000000               0.127634741              -0.106444663               0.000000000               0.152459092              -0.128515018               0.000000000               0.177283442              -0.150585374               0.000000000               0.202107793              -0.172655730               0.000000000               0.226932143              -0.194726086               0.000000000               0.251756494              -0.216796442               0.000000000               0.276580845              -0.238866798               0.000000000               0.301405195              -0.260937153               0.000000000               0.326229546              -0.283007509               0.000000000               0.351053896              -0.305077865               0.000000000               0.375878247              -0.327148221               0.000000000               0.400702598              -0.349218577               0.000000000               0.425526948              -0.371288933               0.000000000               0.450351299              -0.393359288               0.000000000               0.475175649              -0.415429644               0.000000000               0.500000000              -0.437500000               0.000000000               0.094045202              -0.094045202               0.000000000               0.119417377              -0.119417377               0.000000000               0.144789552              -0.144789552               0.000000000               0.170161727              -0.170161727               0.000000000               0.195533901              -0.195533901               0.000000000               0.220906076              -0.220906076               0.000000000               0.246278251              -0.246278251               0.000000000               0.271650426              -0.271650426               0.000000000               0.297022601              -0.297022601               0.000000000               0.322394776              -0.322394776               0.000000000               0.347766951              -0.347766951               0.000000000               0.373139126              -0.373139126               0.000000000               0.398511300              -0.398511300               0.000000000               0.423883475              -0.423883475               0.000000000               0.449255650              -0.449255650               0.000000000               0.474627825              -0.474627825               0.000000000               0.500000000              -0.500000000               0.000000000               0.084374307              -0.102810390               0.000000000               0.106444663              -0.127634741               0.000000000               0.128515018              -0.152459092               0.000000000               0.150585374              -0.177283442               0.000000000               0.172655730              -0.202107793               0.000000000               0.194726086              -0.226932143               0.000000000               0.216796442              -0.251756494               0.000000000               0.238866798              -0.276580845               0.000000000               0.260937153              -0.301405195               0.000000000               0.283007509              -0.326229546               0.000000000               0.305077865              -0.351053896               0.000000000               0.327148221              -0.375878247               0.000000000               0.349218577              -0.400702598               0.000000000               0.371288933              -0.425526948               0.000000000               0.393359288              -0.450351299               0.000000000               0.415429644              -0.475175649               0.000000000               0.437500000              -0.500000000               0.000000000               0.073890841              -0.110585458               0.000000000               0.092710163              -0.134923867               0.000000000               0.111529486              -0.159262276               0.000000000               0.130348808              -0.183600685               0.000000000               0.149168131              -0.207939094               0.000000000               0.167987453              -0.232277503               0.000000000               0.186806776              -0.256615912               0.000000000               0.205626098              -0.280954320               0.000000000               0.224445420              -0.305292729               0.000000000               0.243264743              -0.329631138               0.000000000               0.262084065              -0.353969547               0.000000000               0.280903388              -0.378307956               0.000000000               0.299722710              -0.402646365               0.000000000               0.318542033              -0.426984773               0.000000000               0.337361355              -0.451323182               0.000000000               0.356180678              -0.475661591               0.000000000               0.375000000              -0.500000000               0.000000000               0.062695766              -0.117295528               0.000000000               0.078308531              -0.141214558               0.000000000               0.093921295              -0.165133587               0.000000000               0.109534060              -0.189052617               0.000000000               0.125146824              -0.212971646               0.000000000               0.140759589              -0.236890676               0.000000000               0.156372354              -0.260809705               0.000000000               0.171985118              -0.284728735               0.000000000               0.187597883              -0.308647764               0.000000000               0.203210648              -0.332566794               0.000000000               0.218823412              -0.356485823               0.000000000               0.234436177              -0.380404853               0.000000000               0.250048941              -0.404323882               0.000000000               0.265661706              -0.428242912               0.000000000               0.281274471              -0.452161941               0.000000000               0.296887235              -0.476080971               0.000000000               0.312500000              -0.500000000               0.000000000               0.050896897              -0.122875978               0.000000000               0.063340840              -0.146446229               0.000000000               0.075784784              -0.170016481               0.000000000               0.088228728              -0.193586732               0.000000000               0.100672672              -0.217156983               0.000000000               0.113116616              -0.240727235               0.000000000               0.125560560              -0.264297486               0.000000000               0.138004504              -0.287867738               0.000000000               0.150448448              -0.311437989               0.000000000               0.162892392              -0.335008240               0.000000000               0.175336336              -0.358578492               0.000000000               0.187780280              -0.382148743               0.000000000               0.200224224              -0.405718994               0.000000000               0.212668168              -0.429289246               0.000000000               0.225112112              -0.452859497               0.000000000               0.237556056              -0.476429749               0.000000000               0.250000000              -0.500000000               0.000000000               0.038607862              -0.127273065               0.000000000               0.047913621              -0.150568498               0.000000000               0.057219379              -0.173863932               0.000000000               0.066525138              -0.197159365               0.000000000               0.075830897              -0.220454798               0.000000000               0.085136655              -0.243750232               0.000000000               0.094442414              -0.267045665               0.000000000               0.103748172              -0.290341099               0.000000000               0.113053931              -0.313636532               0.000000000               0.122359690              -0.336931966               0.000000000               0.131665448              -0.360227399               0.000000000               0.140971207              -0.383522833               0.000000000               0.150276966              -0.406818266               0.000000000               0.159582724              -0.430113700               0.000000000               0.168888483              -0.453409133               0.000000000               0.178194241              -0.476704567               0.000000000               0.187500000              -0.500000000               0.000000000               0.025947013              -0.130444442               0.000000000               0.032137825              -0.153541665               0.000000000               0.038328636              -0.176638887               0.000000000               0.044519448              -0.199736109               0.000000000               0.050710260              -0.222833332               0.000000000               0.056901071              -0.245930554               0.000000000               0.063091883              -0.269027776               0.000000000               0.069282695              -0.292124999               0.000000000               0.075473506              -0.315222221               0.000000000               0.081664318              -0.338319444               0.000000000               0.087855130              -0.361416666               0.000000000               0.094045942              -0.384513888               0.000000000               0.100236753              -0.407611111               0.000000000               0.106427565              -0.430708333               0.000000000               0.112618377              -0.453805555               0.000000000               0.118809188              -0.476902778               0.000000000               0.125000000              -0.500000000               0.000000000               0.013036280              -0.132359569               0.000000000               0.016127762              -0.155337096               0.000000000               0.019219245              -0.178314623               0.000000000               0.022310727              -0.201292150               0.000000000               0.025402210              -0.224269676               0.000000000               0.028493692              -0.247247203               0.000000000               0.031585175              -0.270224730               0.000000000               0.034676657              -0.293202257               0.000000000               0.037768140              -0.316179784               0.000000000               0.040859622              -0.339157311               0.000000000               0.043951105              -0.362134838               0.000000000               0.047042587              -0.385112365               0.000000000               0.050134070              -0.408089892               0.000000000               0.053225552              -0.431067419               0.000000000               0.056317035              -0.454044946               0.000000000               0.059408517              -0.477022473               0.000000000               0.062500000              -0.500000000               0.000000000               0.000000000              -0.133000000               0.000000000               0.000000000              -0.155937500               0.000000000               0.000000000              -0.178875000               0.000000000               0.000000000              -0.201812500               0.000000000               0.000000000              -0.224750000               0.000000000               0.000000000              -0.247687500               0.000000000               0.000000000              -0.270625000               0.000000000               0.000000000              -0.293562500               0.000000000               0.000000000              -0.316500000               0.000000000               0.000000000              -0.339437500               0.000000000               0.000000000              -0.362375000               0.000000000               0.000000000              -0.385312500               0.000000000               0.000000000              -0.408250000               0.000000000               0.000000000              -0.431187500               0.000000000               0.000000000              -0.454125000               0.000000000               0.000000000              -0.477062500               0.000000000               0.000000000              -0.500000000               0.000000000              -0.133000000               0.000000000               0.000000000              -0.155937500               0.000000000               0.000000000              -0.178875000               0.000000000               0.000000000              -0.201812500               0.000000000               0.000000000              -0.224750000               0.000000000               0.000000000              -0.247687500               0.000000000               0.000000000              -0.270625000               0.000000000               0.000000000              -0.293562500               0.000000000               0.000000000              -0.316500000               0.000000000               0.000000000              -0.339437500               0.000000000               0.000000000              -0.362375000               0.000000000               0.000000000              -0.385312500               0.000000000               0.000000000              -0.408250000               0.000000000               0.000000000              -0.431187500               0.000000000               0.000000000              -0.454125000               0.000000000               0.000000000              -0.477062500               0.000000000               0.000000000              -0.500000000               0.000000000               0.000000000              -0.132359569              -0.013036280               0.000000000              -0.155337096              -0.016127762               0.000000000              -0.178314623              -0.019219245               0.000000000              -0.201292150              -0.022310727               0.000000000              -0.224269676              -0.025402210               0.000000000              -0.247247203              -0.028493692               0.000000000              -0.270224730              -0.031585175               0.000000000              -0.293202257              -0.034676657               0.000000000              -0.316179784              -0.037768140               0.000000000              -0.339157311              -0.040859622               0.000000000              -0.362134838              -0.043951105               0.000000000              -0.385112365              -0.047042587               0.000000000              -0.408089892              -0.050134070               0.000000000              -0.431067419              -0.053225552               0.000000000              -0.454044946              -0.056317035               0.000000000              -0.477022473              -0.059408517               0.000000000              -0.500000000              -0.062500000               0.000000000              -0.130444442              -0.025947013               0.000000000              -0.153541665              -0.032137825               0.000000000              -0.176638887              -0.038328636               0.000000000              -0.199736109              -0.044519448               0.000000000              -0.222833332              -0.050710260               0.000000000              -0.245930554              -0.056901071               0.000000000              -0.269027776              -0.063091883               0.000000000              -0.292124999              -0.069282695               0.000000000              -0.315222221              -0.075473506               0.000000000              -0.338319444              -0.081664318               0.000000000              -0.361416666              -0.087855130               0.000000000              -0.384513888              -0.094045942               0.000000000              -0.407611111              -0.100236753               0.000000000              -0.430708333              -0.106427565               0.000000000              -0.453805555              -0.112618377               0.000000000              -0.476902778              -0.118809188               0.000000000              -0.500000000              -0.125000000               0.000000000              -0.127273065              -0.038607862               0.000000000              -0.150568498              -0.047913621               0.000000000              -0.173863932              -0.057219379               0.000000000              -0.197159365              -0.066525138               0.000000000              -0.220454798              -0.075830897               0.000000000              -0.243750232              -0.085136655               0.000000000              -0.267045665              -0.094442414               0.000000000              -0.290341099              -0.103748172               0.000000000              -0.313636532              -0.113053931               0.000000000              -0.336931966              -0.122359690               0.000000000              -0.360227399              -0.131665448               0.000000000              -0.383522833              -0.140971207               0.000000000              -0.406818266              -0.150276966               0.000000000              -0.430113700              -0.159582724               0.000000000              -0.453409133              -0.168888483               0.000000000              -0.476704567              -0.178194241               0.000000000              -0.500000000              -0.187500000               0.000000000              -0.122875978              -0.050896897               0.000000000              -0.146446229              -0.063340840               0.000000000              -0.170016481              -0.075784784               0.000000000              -0.193586732              -0.088228728               0.000000000              -0.217156983              -0.100672672               0.000000000              -0.240727235              -0.113116616               0.000000000              -0.264297486              -0.125560560               0.000000000              -0.287867738              -0.138004504               0.000000000              -0.311437989              -0.150448448               0.000000000              -0.335008240              -0.162892392               0.000000000              -0.358578492              -0.175336336               0.000000000              -0.382148743              -0.187780280               0.000000000              -0.405718994              -0.200224224               0.000000000              -0.429289246              -0.212668168               0.000000000              -0.452859497              -0.225112112               0.000000000              -0.476429749              -0.237556056               0.000000000              -0.500000000              -0.250000000               0.000000000              -0.117295528              -0.062695766               0.000000000              -0.141214558              -0.078308531               0.000000000              -0.165133587              -0.093921295               0.000000000              -0.189052617              -0.109534060               0.000000000              -0.212971646              -0.125146824               0.000000000              -0.236890676              -0.140759589               0.000000000              -0.260809705              -0.156372354               0.000000000              -0.284728735              -0.171985118               0.000000000              -0.308647764              -0.187597883               0.000000000              -0.332566794              -0.203210648               0.000000000              -0.356485823              -0.218823412               0.000000000              -0.380404853              -0.234436177               0.000000000              -0.404323882              -0.250048941               0.000000000              -0.428242912              -0.265661706               0.000000000              -0.452161941              -0.281274471               0.000000000              -0.476080971              -0.296887235               0.000000000              -0.500000000              -0.312500000               0.000000000              -0.110585458              -0.073890841               0.000000000              -0.134923867              -0.092710163               0.000000000              -0.159262276              -0.111529486               0.000000000              -0.183600685              -0.130348808               0.000000000              -0.207939094              -0.149168131               0.000000000              -0.232277503              -0.167987453               0.000000000              -0.256615912              -0.186806776               0.000000000              -0.280954320              -0.205626098               0.000000000              -0.305292729              -0.224445420               0.000000000              -0.329631138              -0.243264743               0.000000000              -0.353969547              -0.262084065               0.000000000              -0.378307956              -0.280903388               0.000000000              -0.402646365              -0.299722710               0.000000000              -0.426984773              -0.318542033               0.000000000              -0.451323182              -0.337361355               0.000000000              -0.475661591              -0.356180678               0.000000000              -0.500000000              -0.375000000               0.000000000              -0.102810390              -0.084374307               0.000000000              -0.127634741              -0.106444663               0.000000000              -0.152459092              -0.128515018               0.000000000              -0.177283442              -0.150585374               0.000000000              -0.202107793              -0.172655730               0.000000000              -0.226932143              -0.194726086               0.000000000              -0.251756494              -0.216796442               0.000000000              -0.276580845              -0.238866798               0.000000000              -0.301405195              -0.260937153               0.000000000              -0.326229546              -0.283007509               0.000000000              -0.351053896              -0.305077865               0.000000000              -0.375878247              -0.327148221               0.000000000              -0.400702598              -0.349218577               0.000000000              -0.425526948              -0.371288933               0.000000000              -0.450351299              -0.393359288               0.000000000              -0.475175649              -0.415429644               0.000000000              -0.500000000              -0.437500000               0.000000000              -0.094045202              -0.094045202               0.000000000              -0.119417377              -0.119417377               0.000000000              -0.144789552              -0.144789552               0.000000000              -0.170161727              -0.170161727               0.000000000              -0.195533901              -0.195533901               0.000000000              -0.220906076              -0.220906076               0.000000000              -0.246278251              -0.246278251               0.000000000              -0.271650426              -0.271650426               0.000000000              -0.297022601              -0.297022601               0.000000000              -0.322394776              -0.322394776               0.000000000              -0.347766951              -0.347766951               0.000000000              -0.373139126              -0.373139126               0.000000000              -0.398511300              -0.398511300               0.000000000              -0.423883475              -0.423883475               0.000000000              -0.449255650              -0.449255650               0.000000000              -0.474627825              -0.474627825               0.000000000              -0.500000000              -0.500000000               0.000000000              -0.084374307              -0.102810390               0.000000000              -0.106444663              -0.127634741               0.000000000              -0.128515018              -0.152459092               0.000000000              -0.150585374              -0.177283442               0.000000000              -0.172655730              -0.202107793               0.000000000              -0.194726086              -0.226932143               0.000000000              -0.216796442              -0.251756494               0.000000000              -0.238866798              -0.276580845               0.000000000              -0.260937153              -0.301405195               0.000000000              -0.283007509              -0.326229546               0.000000000              -0.305077865              -0.351053896               0.000000000              -0.327148221              -0.375878247               0.000000000              -0.349218577              -0.400702598               0.000000000              -0.371288933              -0.425526948               0.000000000              -0.393359288              -0.450351299               0.000000000              -0.415429644              -0.475175649               0.000000000              -0.437500000              -0.500000000               0.000000000              -0.073890841              -0.110585458               0.000000000              -0.092710163              -0.134923867               0.000000000              -0.111529486              -0.159262276               0.000000000              -0.130348808              -0.183600685               0.000000000              -0.149168131              -0.207939094               0.000000000              -0.167987453              -0.232277503               0.000000000              -0.186806776              -0.256615912               0.000000000              -0.205626098              -0.280954320               0.000000000              -0.224445420              -0.305292729               0.000000000              -0.243264743              -0.329631138               0.000000000              -0.262084065              -0.353969547               0.000000000              -0.280903388              -0.378307956               0.000000000              -0.299722710              -0.402646365               0.000000000              -0.318542033              -0.426984773               0.000000000              -0.337361355              -0.451323182               0.000000000              -0.356180678              -0.475661591               0.000000000              -0.375000000              -0.500000000               0.000000000              -0.062695766              -0.117295528               0.000000000              -0.078308531              -0.141214558               0.000000000              -0.093921295              -0.165133587               0.000000000              -0.109534060              -0.189052617               0.000000000              -0.125146824              -0.212971646               0.000000000              -0.140759589              -0.236890676               0.000000000              -0.156372354              -0.260809705               0.000000000              -0.171985118              -0.284728735               0.000000000              -0.187597883              -0.308647764               0.000000000              -0.203210648              -0.332566794               0.000000000              -0.218823412              -0.356485823               0.000000000              -0.234436177              -0.380404853               0.000000000              -0.250048941              -0.404323882               0.000000000              -0.265661706              -0.428242912               0.000000000              -0.281274471              -0.452161941               0.000000000              -0.296887235              -0.476080971               0.000000000              -0.312500000              -0.500000000               0.000000000              -0.050896897              -0.122875978               0.000000000              -0.063340840              -0.146446229               0.000000000              -0.075784784              -0.170016481               0.000000000              -0.088228728              -0.193586732               0.000000000              -0.100672672              -0.217156983               0.000000000              -0.113116616              -0.240727235               0.000000000              -0.125560560              -0.264297486               0.000000000              -0.138004504              -0.287867738               0.000000000              -0.150448448              -0.311437989               0.000000000              -0.162892392              -0.335008240               0.000000000              -0.175336336              -0.358578492               0.000000000              -0.187780280              -0.382148743               0.000000000              -0.200224224              -0.405718994               0.000000000              -0.212668168              -0.429289246               0.000000000              -0.225112112              -0.452859497               0.000000000              -0.237556056              -0.476429749               0.000000000              -0.250000000              -0.500000000               0.000000000              -0.038607862              -0.127273065               0.000000000              -0.047913621              -0.150568498               0.000000000              -0.057219379              -0.173863932               0.000000000              -0.066525138              -0.197159365               0.000000000              -0.075830897              -0.220454798               0.000000000              -0.085136655              -0.243750232               0.000000000              -0.094442414              -0.267045665               0.000000000              -0.103748172              -0.290341099               0.000000000              -0.113053931              -0.313636532               0.000000000              -0.122359690              -0.336931966               0.000000000              -0.131665448              -0.360227399               0.000000000              -0.140971207              -0.383522833               0.000000000              -0.150276966              -0.406818266               0.000000000              -0.159582724              -0.430113700               0.000000000              -0.168888483              -0.453409133               0.000000000              -0.178194241              -0.476704567               0.000000000              -0.187500000              -0.500000000               0.000000000              -0.025947013              -0.130444442               0.000000000              -0.032137825              -0.153541665               0.000000000              -0.038328636              -0.176638887               0.000000000              -0.044519448              -0.199736109               0.000000000              -0.050710260              -0.222833332               0.000000000              -0.056901071              -0.245930554               0.000000000              -0.063091883              -0.269027776               0.000000000              -0.069282695              -0.292124999               0.000000000              -0.075473506              -0.315222221               0.000000000              -0.081664318              -0.338319444               0.000000000              -0.087855130              -0.361416666               0.000000000              -0.094045942              -0.384513888               0.000000000              -0.100236753              -0.407611111               0.000000000              -0.106427565              -0.430708333               0.000000000              -0.112618377              -0.453805555               0.000000000              -0.118809188              -0.476902778               0.000000000              -0.125000000              -0.500000000               0.000000000              -0.013036280              -0.132359569               0.000000000              -0.016127762              -0.155337096               0.000000000              -0.019219245              -0.178314623               0.000000000              -0.022310727              -0.201292150               0.000000000              -0.025402210              -0.224269676               0.000000000              -0.028493692              -0.247247203               0.000000000              -0.031585175              -0.270224730               0.000000000              -0.034676657              -0.293202257               0.000000000              -0.037768140              -0.316179784               0.000000000              -0.040859622              -0.339157311               0.000000000              -0.043951105              -0.362134838               0.000000000              -0.047042587              -0.385112365               0.000000000              -0.050134070              -0.408089892               0.000000000              -0.053225552              -0.431067419               0.000000000              -0.056317035              -0.454044946               0.000000000              -0.059408517              -0.477022473               0.000000000              -0.062500000              -0.500000000               0.000000000               0.000000000              -0.133000000               0.000000000               0.000000000              -0.155937500               0.000000000               0.000000000              -0.178875000               0.000000000               0.000000000              -0.201812500               0.000000000               0.000000000              -0.224750000               0.000000000               0.000000000              -0.247687500               0.000000000               0.000000000              -0.270625000               0.000000000               0.000000000              -0.293562500               0.000000000               0.000000000              -0.316500000               0.000000000               0.000000000              -0.339437500               0.000000000               0.000000000              -0.362375000               0.000000000               0.000000000              -0.385312500               0.000000000               0.000000000              -0.408250000               0.000000000               0.000000000              -0.431187500               0.000000000               0.000000000              -0.454125000               0.000000000               0.000000000              -0.477062500               0.000000000               0.000000000              -0.500000000               0.000000000              -0.133000000               0.000000000               0.000000000              -0.155937500               0.000000000               0.000000000              -0.178875000               0.000000000               0.000000000              -0.201812500               0.000000000               0.000000000              -0.224750000               0.000000000               0.000000000              -0.247687500               0.000000000               0.000000000              -0.270625000               0.000000000               0.000000000              -0.293562500               0.000000000               0.000000000              -0.316500000               0.000000000               0.000000000              -0.339437500               0.000000000               0.000000000              -0.362375000               0.000000000               0.000000000              -0.385312500               0.000000000               0.000000000              -0.408250000               0.000000000               0.000000000              -0.431187500               0.000000000               0.000000000              -0.454125000               0.000000000               0.000000000              -0.477062500               0.000000000               0.000000000              -0.500000000               0.000000000               0.000000000              -0.132359569               0.013036280               0.000000000              -0.155337096               0.016127762               0.000000000              -0.178314623               0.019219245               0.000000000              -0.201292150               0.022310727               0.000000000              -0.224269676               0.025402210               0.000000000              -0.247247203               0.028493692               0.000000000              -0.270224730               0.031585175               0.000000000              -0.293202257               0.034676657               0.000000000              -0.316179784               0.037768140               0.000000000              -0.339157311               0.040859622               0.000000000              -0.362134838               0.043951105               0.000000000              -0.385112365               0.047042587               0.000000000              -0.408089892               0.050134070               0.000000000              -0.431067419               0.053225552               0.000000000              -0.454044946               0.056317035               0.000000000              -0.477022473               0.059408517               0.000000000              -0.500000000               0.062500000               0.000000000              -0.130444442               0.025947013               0.000000000              -0.153541665               0.032137825               0.000000000              -0.176638887               0.038328636               0.000000000              -0.199736109               0.044519448               0.000000000              -0.222833332               0.050710260               0.000000000              -0.245930554               0.056901071               0.000000000              -0.269027776               0.063091883               0.000000000              -0.292124999               0.069282695               0.000000000              -0.315222221               0.075473506               0.000000000              -0.338319444               0.081664318               0.000000000              -0.361416666               0.087855130               0.000000000              -0.384513888               0.094045942               0.000000000              -0.407611111               0.100236753               0.000000000              -0.430708333               0.106427565               0.000000000              -0.453805555               0.112618377               0.000000000              -0.476902778               0.118809188               0.000000000              -0.500000000               0.125000000               0.000000000              -0.127273065               0.038607862               0.000000000              -0.150568498               0.047913621               0.000000000              -0.173863932               0.057219379               0.000000000              -0.197159365               0.066525138               0.000000000              -0.220454798               0.075830897               0.000000000              -0.243750232               0.085136655               0.000000000              -0.267045665               0.094442414               0.000000000              -0.290341099               0.103748172               0.000000000              -0.313636532               0.113053931               0.000000000              -0.336931966               0.122359690               0.000000000              -0.360227399               0.131665448               0.000000000              -0.383522833               0.140971207               0.000000000              -0.406818266               0.150276966               0.000000000              -0.430113700               0.159582724               0.000000000              -0.453409133               0.168888483               0.000000000              -0.476704567               0.178194241               0.000000000              -0.500000000               0.187500000               0.000000000              -0.122875978               0.050896897               0.000000000              -0.146446229               0.063340840               0.000000000              -0.170016481               0.075784784               0.000000000              -0.193586732               0.088228728               0.000000000              -0.217156983               0.100672672               0.000000000              -0.240727235               0.113116616               0.000000000              -0.264297486               0.125560560               0.000000000              -0.287867738               0.138004504               0.000000000              -0.311437989               0.150448448               0.000000000              -0.335008240               0.162892392               0.000000000              -0.358578492               0.175336336               0.000000000              -0.382148743               0.187780280               0.000000000              -0.405718994               0.200224224               0.000000000              -0.429289246               0.212668168               0.000000000              -0.452859497               0.225112112               0.000000000              -0.476429749               0.237556056               0.000000000              -0.500000000               0.250000000               0.000000000              -0.117295528               0.062695766               0.000000000              -0.141214558               0.078308531               0.000000000              -0.165133587               0.093921295               0.000000000              -0.189052617               0.109534060               0.000000000              -0.212971646               0.125146824               0.000000000              -0.236890676               0.140759589               0.000000000              -0.260809705               0.156372354               0.000000000              -0.284728735               0.171985118               0.000000000              -0.308647764               0.187597883               0.000000000              -0.332566794               0.203210648               0.000000000              -0.356485823               0.218823412               0.000000000              -0.380404853               0.234436177               0.000000000              -0.404323882               0.250048941               0.000000000              -0.428242912               0.265661706               0.000000000              -0.452161941               0.281274471               0.000000000              -0.476080971               0.296887235               0.000000000              -0.500000000               0.312500000               0.000000000              -0.110585458               0.073890841               0.000000000              -0.134923867               0.092710163               0.000000000              -0.159262276               0.111529486               0.000000000              -0.183600685               0.130348808               0.000000000              -0.207939094               0.149168131               0.000000000              -0.232277503               0.167987453               0.000000000              -0.256615912               0.186806776               0.000000000              -0.280954320               0.205626098               0.000000000              -0.305292729               0.224445420               0.000000000              -0.329631138               0.243264743               0.000000000              -0.353969547               0.262084065               0.000000000              -0.378307956               0.280903388               0.000000000              -0.402646365               0.299722710               0.000000000              -0.426984773               0.318542033               0.000000000              -0.451323182               0.337361355               0.000000000              -0.475661591               0.356180678               0.000000000              -0.500000000               0.375000000               0.000000000              -0.102810390               0.084374307               0.000000000              -0.127634741               0.106444663               0.000000000              -0.152459092               0.128515018               0.000000000              -0.177283442               0.150585374               0.000000000              -0.202107793               0.172655730               0.000000000              -0.226932143               0.194726086               0.000000000              -0.251756494               0.216796442               0.000000000              -0.276580845               0.238866798               0.000000000              -0.301405195               0.260937153               0.000000000              -0.326229546               0.283007509               0.000000000              -0.351053896               0.305077865               0.000000000              -0.375878247               0.327148221               0.000000000              -0.400702598               0.349218577               0.000000000              -0.425526948               0.371288933               0.000000000              -0.450351299               0.393359288               0.000000000              -0.475175649               0.415429644               0.000000000              -0.500000000               0.437500000               0.000000000              -0.094045202               0.094045202               0.000000000              -0.119417377               0.119417377               0.000000000              -0.144789552               0.144789552               0.000000000              -0.170161727               0.170161727               0.000000000              -0.195533901               0.195533901               0.000000000              -0.220906076               0.220906076               0.000000000              -0.246278251               0.246278251               0.000000000              -0.271650426               0.271650426               0.000000000              -0.297022601               0.297022601               0.000000000              -0.322394776               0.322394776               0.000000000              -0.347766951               0.347766951               0.000000000              -0.373139126               0.373139126               0.000000000              -0.398511300               0.398511300               0.000000000              -0.423883475               0.423883475               0.000000000              -0.449255650               0.449255650               0.000000000              -0.474627825               0.474627825               0.000000000              -0.500000000               0.500000000               0.000000000              -0.084374307               0.102810390               0.000000000              -0.106444663               0.127634741               0.000000000              -0.128515018               0.152459092               0.000000000              -0.150585374               0.177283442               0.000000000              -0.172655730               0.202107793               0.000000000              -0.194726086               0.226932143               0.000000000              -0.216796442               0.251756494               0.000000000              -0.238866798               0.276580845               0.000000000              -0.260937153               0.301405195               0.000000000              -0.283007509               0.326229546               0.000000000              -0.305077865               0.351053896               0.000000000              -0.327148221               0.375878247               0.000000000              -0.349218577               0.400702598               0.000000000              -0.371288933               0.425526948               0.000000000              -0.393359288               0.450351299               0.000000000              -0.415429644               0.475175649               0.000000000              -0.437500000               0.500000000               0.000000000              -0.073890841               0.110585458               0.000000000              -0.092710163               0.134923867               0.000000000              -0.111529486               0.159262276               0.000000000              -0.130348808               0.183600685               0.000000000              -0.149168131               0.207939094               0.000000000              -0.167987453               0.232277503               0.000000000              -0.186806776               0.256615912               0.000000000              -0.205626098               0.280954320               0.000000000              -0.224445420               0.305292729               0.000000000              -0.243264743               0.329631138               0.000000000              -0.262084065               0.353969547               0.000000000              -0.280903388               0.378307956               0.000000000              -0.299722710               0.402646365               0.000000000              -0.318542033               0.426984773               0.000000000              -0.337361355               0.451323182               0.000000000              -0.356180678               0.475661591               0.000000000              -0.375000000               0.500000000               0.000000000              -0.062695766               0.117295528               0.000000000              -0.078308531               0.141214558               0.000000000              -0.093921295               0.165133587               0.000000000              -0.109534060               0.189052617               0.000000000              -0.125146824               0.212971646               0.000000000              -0.140759589               0.236890676               0.000000000              -0.156372354               0.260809705               0.000000000              -0.171985118               0.284728735               0.000000000              -0.187597883               0.308647764               0.000000000              -0.203210648               0.332566794               0.000000000              -0.218823412               0.356485823               0.000000000              -0.234436177               0.380404853               0.000000000              -0.250048941               0.404323882               0.000000000              -0.265661706               0.428242912               0.000000000              -0.281274471               0.452161941               0.000000000              -0.296887235               0.476080971               0.000000000              -0.312500000               0.500000000               0.000000000              -0.050896897               0.122875978               0.000000000              -0.063340840               0.146446229               0.000000000              -0.075784784               0.170016481               0.000000000              -0.088228728               0.193586732               0.000000000              -0.100672672               0.217156983               0.000000000              -0.113116616               0.240727235               0.000000000              -0.125560560               0.264297486               0.000000000              -0.138004504               0.287867738               0.000000000              -0.150448448               0.311437989               0.000000000              -0.162892392               0.335008240               0.000000000              -0.175336336               0.358578492               0.000000000              -0.187780280               0.382148743               0.000000000              -0.200224224               0.405718994               0.000000000              -0.212668168               0.429289246               0.000000000              -0.225112112               0.452859497               0.000000000              -0.237556056               0.476429749               0.000000000              -0.250000000               0.500000000               0.000000000              -0.038607862               0.127273065               0.000000000              -0.047913621               0.150568498               0.000000000              -0.057219379               0.173863932               0.000000000              -0.066525138               0.197159365               0.000000000              -0.075830897               0.220454798               0.000000000              -0.085136655               0.243750232               0.000000000              -0.094442414               0.267045665               0.000000000              -0.103748172               0.290341099               0.000000000              -0.113053931               0.313636532               0.000000000              -0.122359690               0.336931966               0.000000000              -0.131665448               0.360227399               0.000000000              -0.140971207               0.383522833               0.000000000              -0.150276966               0.406818266               0.000000000              -0.159582724               0.430113700               0.000000000              -0.168888483               0.453409133               0.000000000              -0.178194241               0.476704567               0.000000000              -0.187500000               0.500000000               0.000000000              -0.025947013               0.130444442               0.000000000              -0.032137825               0.153541665               0.000000000              -0.038328636               0.176638887               0.000000000              -0.044519448               0.199736109               0.000000000              -0.050710260               0.222833332               0.000000000              -0.056901071               0.245930554               0.000000000              -0.063091883               0.269027776               0.000000000              -0.069282695               0.292124999               0.000000000              -0.075473506               0.315222221               0.000000000              -0.081664318               0.338319444               0.000000000              -0.087855130               0.361416666               0.000000000              -0.094045942               0.384513888               0.000000000              -0.100236753               0.407611111               0.000000000              -0.106427565               0.430708333               0.000000000              -0.112618377               0.453805555               0.000000000              -0.118809188               0.476902778               0.000000000              -0.125000000               0.500000000               0.000000000              -0.013036280               0.132359569               0.000000000              -0.016127762               0.155337096               0.000000000              -0.019219245               0.178314623               0.000000000              -0.022310727               0.201292150               0.000000000              -0.025402210               0.224269676               0.000000000              -0.028493692               0.247247203               0.000000000              -0.031585175               0.270224730               0.000000000              -0.034676657               0.293202257               0.000000000              -0.037768140               0.316179784               0.000000000              -0.040859622               0.339157311               0.000000000              -0.043951105               0.362134838               0.000000000              -0.047042587               0.385112365               0.000000000              -0.050134070               0.408089892               0.000000000              -0.053225552               0.431067419               0.000000000              -0.056317035               0.454044946               0.000000000              -0.059408517               0.477022473               0.000000000              -0.062500000               0.500000000               0.000000000               0.000000000               0.133000000               0.000000000               0.000000000               0.155937500               0.000000000               0.000000000               0.178875000               0.000000000               0.000000000               0.201812500               0.000000000               0.000000000               0.224750000               0.000000000               0.000000000               0.247687500               0.000000000               0.000000000               0.270625000               0.000000000               0.000000000               0.293562500               0.000000000               0.000000000               0.316500000               0.000000000               0.000000000               0.339437500               0.000000000               0.000000000               0.362375000               0.000000000               0.000000000               0.385312500               0.000000000               0.000000000               0.408250000               0.000000000               0.000000000               0.431187500               0.000000000               0.000000000               0.454125000               0.000000000               0.000000000               0.477062500               0.000000000               0.000000000               0.500000000               0.000000000 </DataArray>
</Points>
<Cells>
<DataArray type="Int32"                                    Name="connectivity"                                                      NumberOfComponents=" 1" format="ascii">
         0          1         18         17          1          2         19         18          2          3         20         19          3          4         21         20          4          5         22         21          5          6         23         22          6          7         24         23          7          8         25         24          8          9         26         25          9         10         27         26         10         11         28         27         11         12         29         28         12         13         30         29         13         14         31         30         14         15         32         31         15         16         33         32         17         18         35         34         18         19         36         35         19         20         37         36         20         21         38         37         21         22         39         38         22         23         40         39         23         24         41         40         24         25         42         41         25         26         43         42         26         27         44         43         27         28         45         44         28         29         46         45         29         30         47         46         30         31         48         47         31         32         49         48         32         33         50         49         34         35         52         51         35         36         53         52         36         37         54         53         37         38         55         54         38         39         56         55         39         40         57         56         40         41         58         57         41         42         59         58         42         43         60         59         43         44         61         60         44         45         62         61         45         46         63         62         46         47         64         63         47         48         65         64         48         49         66         65         49         50         67         66         51         52         69         68         52         53         70         69         53         54         71         70         54         55         72         71         55         56         73         72         56         57         74         73         57         58         75         74         58         59         76         75         59         60         77         76         60         61         78         77         61         62         79         78         62         63         80         79         63         64         81         80         64         65         82         81         65         66         83         82         66         67         84         83         68         69         86         85         69         70         87         86         70         71         88         87         71         72         89         88         72         73         90         89         73         74         91         90         74         75         92         91         75         76         93         92         76         77         94         93         77         78         95         94         78         79         96         95         79         80         97         96         80         81         98         97         81         82         99         98         82         83        100         99         83         84        101        100         85         86        103        102         86         87        104        103         87         88        105        104         88         89        106        105         89         90        107        106         90         91        108        107         91         92        109        108         92         93        110        109         93         94        111        110         94         95        112        111         95         96        113        112         96         97        114        113         97         98        115        114         98         99        116        115         99        100        117        116        100        101        118        117        102        103        120        119        103        104        121        120        104        105        122        121        105        106        123        122        106        107        124        123        107        108        125        124        108        109        126        125        109        110        127        126        110        111        128        127        111        112        129        128        112        113        130        129        113        114        131        130        114        115        132        131        115        116        133        132        116        117        134        133        117        118        135        134        119        120        137        136        120        121        138        137        121        122        139        138        122        123        140        139        123        124        141        140        124        125        142        141        125        126        143        142        126        127        144        143        127        128        145        144        128        129        146        145        129        130        147        146        130        131        148        147        131        132        149        148        132        133        150        149        133        134        151        150        134        135        152        151        136        137        154        153        137        138        155        154        138        139        156        155        139        140        157        156        140        141        158        157        141        142        159        158        142        143        160        159        143        144        161        160        144        145        162        161        145        146        163        162        146        147        164        163        147        148        165        164        148        149        166        165        149        150        167        166        150        151        168        167        151        152        169        168        153        154        171        170        154        155        172        171        155        156        173        172        156        157        174        173        157        158        175        174        158        159        176        175        159        160        177        176        160        161        178        177        161        162        179        178        162        163        180        179        163        164        181        180        164        165        182        181        165        166        183        182        166        167        184        183        167        168        185        184        168        169        186        185        170        171        188        187        171        172        189        188        172        173        190        189        173        174        191        190        174        175        192        191        175        176        193        192        176        177        194        193        177        178        195        194        178        179        196        195        179        180        197        196        180        181        198        197        181        182        199        198        182        183        200        199        183        184        201        200        184        185        202        201        185        186        203        202        187        188        205        204        188        189        206        205        189        190        207        206        190        191        208        207        191        192        209        208        192        193        210        209        193        194        211        210        194        195        212        211        195        196        213        212        196        197        214        213        197        198        215        214        198        199        216        215        199        200        217        216        200        201        218        217        201        202        219        218        202        203        220        219        204        205        222        221        205        206        223        222        206        207        224        223        207        208        225        224        208        209        226        225        209        210        227        226        210        211        228        227        211        212        229        228        212        213        230        229        213        214        231        230        214        215        232        231        215        216        233        232        216        217        234        233        217        218        235        234        218        219        236        235        219        220        237        236        221        222        239        238        222        223        240        239        223        224        241        240        224        225        242        241        225        226        243        242        226        227        244        243        227        228        245        244        228        229        246        245        229        230        247        246        230        231        248        247        231        232        249        248        232        233        250        249        233        234        251        250        234        235        252        251        235        236        253        252        236        237        254        253        238        239        256        255        239        240        257        256        240        241        258        257        241        242        259        258        242        243        260        259        243        244        261        260        244        245        262        261        245        246        263        262        246        247        264        263        247        248        265        264        248        249        266        265        249        250        267        266        250        251        268        267        251        252        269        268        252        253        270        269        253        254        271        270        255        256        273        272        256        257        274        273        257        258        275        274        258        259        276        275        259        260        277        276        260        261        278        277        261        262        279        278        262        263        280        279        263        264        281        280        264        265        282        281        265        266        283        282        266        267        284        283        267        268        285        284        268        269        286        285        269        270        287        286        270        271        288        287        306        307          1          0        307        308          2          1        308        309          3          2        309        310          4          3        310        311          5          4        311        312          6          5        312        313          7          6        313        314          8          7        314        315          9          8        315        316         10          9        316        317         11         10        317        318         12         11        318        319         13         12        319        320         14         13        320        321         15         14        321        322         16         15        323        324        307        306        324        325        308        307        325        326        309        308        326        327        310        309        327        328        311        310        328        329        312        311        329        330        313        312        330        331        314        313        331        332        315        314        332        333        316        315        333        334        317        316        334        335        318        317        335        336        319        318        336        337        320        319        337        338        321        320        338        339        322        321        340        341        324        323        341        342        325        324        342        343        326        325        343        344        327        326        344        345        328        327        345        346        329        328        346        347        330        329        347        348        331        330        348        349        332        331        349        350        333        332        350        351        334        333        351        352        335        334        352        353        336        335        353        354        337        336        354        355        338        337        355        356        339        338        357        358        341        340        358        359        342        341        359        360        343        342        360        361        344        343        361        362        345        344        362        363        346        345        363        364        347        346        364        365        348        347        365        366        349        348        366        367        350        349        367        368        351        350        368        369        352        351        369        370        353        352        370        371        354        353        371        372        355        354        372        373        356        355        374        375        358        357        375        376        359        358        376        377        360        359        377        378        361        360        378        379        362        361        379        380        363        362        380        381        364        363        381        382        365        364        382        383        366        365        383        384        367        366        384        385        368        367        385        386        369        368        386        387        370        369        387        388        371        370        388        389        372        371        389        390        373        372        391        392        375        374        392        393        376        375        393        394        377        376        394        395        378        377        395        396        379        378        396        397        380        379        397        398        381        380        398        399        382        381        399        400        383        382        400        401        384        383        401        402        385        384        402        403        386        385        403        404        387        386        404        405        388        387        405        406        389        388        406        407        390        389        408        409        392        391        409        410        393        392        410        411        394        393        411        412        395        394        412        413        396        395        413        414        397        396        414        415        398        397        415        416        399        398        416        417        400        399        417        418        401        400        418        419        402        401        419        420        403        402        420        421        404        403        421        422        405        404        422        423        406        405        423        424        407        406        425        426        409        408        426        427        410        409        427        428        411        410        428        429        412        411        429        430        413        412        430        431        414        413        431        432        415        414        432        433        416        415        433        434        417        416        434        435        418        417        435        436        419        418        436        437        420        419        437        438        421        420        438        439        422        421        439        440        423        422        440        441        424        423        442        443        426        425        443        444        427        426        444        445        428        427        445        446        429        428        446        447        430        429        447        448        431        430        448        449        432        431        449        450        433        432        450        451        434        433        451        452        435        434        452        453        436        435        453        454        437        436        454        455        438        437        455        456        439        438        456        457        440        439        457        458        441        440        459        460        443        442        460        461        444        443        461        462        445        444        462        463        446        445        463        464        447        446        464        465        448        447        465        466        449        448        466        467        450        449        467        468        451        450        468        469        452        451        469        470        453        452        470        471        454        453        471        472        455        454        472        473        456        455        473        474        457        456        474        475        458        457        476        477        460        459        477        478        461        460        478        479        462        461        479        480        463        462        480        481        464        463        481        482        465        464        482        483        466        465        483        484        467        466        484        485        468        467        485        486        469        468        486        487        470        469        487        488        471        470        488        489        472        471        489        490        473        472        490        491        474        473        491        492        475        474        493        494        477        476        494        495        478        477        495        496        479        478        496        497        480        479        497        498        481        480        498        499        482        481        499        500        483        482        500        501        484        483        501        502        485        484        502        503        486        485        503        504        487        486        504        505        488        487        505        506        489        488        506        507        490        489        507        508        491        490        508        509        492        491        510        511        494        493        511        512        495        494        512        513        496        495        513        514        497        496        514        515        498        497        515        516        499        498        516        517        500        499        517        518        501        500        518        519        502        501        519        520        503        502        520        521        504        503        521        522        505        504        522        523        506        505        523        524        507        506        524        525        508        507        525        526        509        508        527        528        511        510        528        529        512        511        529        530        513        512        530        531        514        513        531        532        515        514        532        533        516        515        533        534        517        516        534        535        518        517        535        536        519        518        536        537        520        519        537        538        521        520        538        539        522        521        539        540        523        522        540        541        524        523        541        542        525        524        542        543        526        525        544        545        528        527        545        546        529        528        546        547        530        529        547        548        531        530        548        549        532        531        549        550        533        532        550        551        534        533        551        552        535        534        552        553        536        535        553        554        537        536        554        555        538        537        555        556        539        538        556        557        540        539        557        558        541        540        558        559        542        541        559        560        543        542        561        562        545        544        562        563        546        545        563        564        547        546        564        565        548        547        565        566        549        548        566        567        550        549        567        568        551        550        568        569        552        551        569        570        553        552        570        571        554        553        571        572        555        554        572        573        556        555        573        574        557        556        574        575        558        557        575        576        559        558        576        577        560        559        578        579        596        595        579        580        597        596        580        581        598        597        581        582        599        598        582        583        600        599        583        584        601        600        584        585        602        601        585        586        603        602        586        587        604        603        587        588        605        604        588        589        606        605        589        590        607        606        590        591        608        607        591        592        609        608        592        593        610        609        593        594        611        610        595        596        613        612        596        597        614        613        597        598        615        614        598        599        616        615        599        600        617        616        600        601        618        617        601        602        619        618        602        603        620        619        603        604        621        620        604        605        622        621        605        606        623        622        606        607        624        623        607        608        625        624        608        609        626        625        609        610        627        626        610        611        628        627        612        613        630        629        613        614        631        630        614        615        632        631        615        616        633        632        616        617        634        633        617        618        635        634        618        619        636        635        619        620        637        636        620        621        638        637        621        622        639        638        622        623        640        639        623        624        641        640        624        625        642        641        625        626        643        642        626        627        644        643        627        628        645        644        629        630        647        646        630        631        648        647        631        632        649        648        632        633        650        649        633        634        651        650        634        635        652        651        635        636        653        652        636        637        654        653        637        638        655        654        638        639        656        655        639        640        657        656        640        641        658        657        641        642        659        658        642        643        660        659        643        644        661        660        644        645        662        661        646        647        664        663        647        648        665        664        648        649        666        665        649        650        667        666        650        651        668        667        651        652        669        668        652        653        670        669        653        654        671        670        654        655        672        671        655        656        673        672        656        657        674        673        657        658        675        674        658        659        676        675        659        660        677        676        660        661        678        677        661        662        679        678        663        664        681        680        664        665        682        681        665        666        683        682        666        667        684        683        667        668        685        684        668        669        686        685        669        670        687        686        670        671        688        687        671        672        689        688        672        673        690        689        673        674        691        690        674        675        692        691        675        676        693        692        676        677        694        693        677        678        695        694        678        679        696        695        680        681        698        697        681        682        699        698        682        683        700        699        683        684        701        700        684        685        702        701        685        686        703        702        686        687        704        703        687        688        705        704        688        689        706        705        689        690        707        706        690        691        708        707        691        692        709        708        692        693        710        709        693        694        711        710        694        695        712        711        695        696        713        712        697        698        715        714        698        699        716        715        699        700        717        716        700        701        718        717        701        702        719        718        702        703        720        719        703        704        721        720        704        705        722        721        705        706        723        722        706        707        724        723        707        708        725        724        708        709        726        725        709        710        727        726        710        711        728        727        711        712        729        728        712        713        730        729        714        715        732        731        715        716        733        732        716        717        734        733        717        718        735        734        718        719        736        735        719        720        737        736        720        721        738        737        721        722        739        738        722        723        740        739        723        724        741        740        724        725        742        741        725        726        743        742        726        727        744        743        727        728        745        744        728        729        746        745        729        730        747        746        731        732        749        748        732        733        750        749        733        734        751        750        734        735        752        751        735        736        753        752        736        737        754        753        737        738        755        754        738        739        756        755        739        740        757        756        740        741        758        757        741        742        759        758        742        743        760        759        743        744        761        760        744        745        762        761        745        746        763        762        746        747        764        763        748        749        766        765        749        750        767        766        750        751        768        767        751        752        769        768        752        753        770        769        753        754        771        770        754        755        772        771        755        756        773        772        756        757        774        773        757        758        775        774        758        759        776        775        759        760        777        776        760        761        778        777        761        762        779        778        762        763        780        779        763        764        781        780        765        766        783        782        766        767        784        783        767        768        785        784        768        769        786        785        769        770        787        786        770        771        788        787        771        772        789        788        772        773        790        789        773        774        791        790        774        775        792        791        775        776        793        792        776        777        794        793        777        778        795        794        778        779        796        795        779        780        797        796        780        781        798        797        782        783        800        799        783        784        801        800        784        785        802        801        785        786        803        802        786        787        804        803        787        788        805        804        788        789        806        805        789        790        807        806        790        791        808        807        791        792        809        808        792        793        810        809        793        794        811        810        794        795        812        811        795        796        813        812        796        797        814        813        797        798        815        814        799        800        817        816        800        801        818        817        801        802        819        818        802        803        820        819        803        804        821        820        804        805        822        821        805        806        823        822        806        807        824        823        807        808        825        824        808        809        826        825        809        810        827        826        810        811        828        827        811        812        829        828        812        813        830        829        813        814        831        830        814        815        832        831        816        817        834        833        817        818        835        834        818        819        836        835        819        820        837        836        820        821        838        837        821        822        839        838        822        823        840        839        823        824        841        840        824        825        842        841        825        826        843        842        826        827        844        843        827        828        845        844        828        829        846        845        829        830        847        846        830        831        848        847        831        832        849        848        833        834        562        561        834        835        563        562        835        836        564        563        836        837        565        564        837        838        566        565        838        839        567        566        839        840        568        567        840        841        569        568        841        842        570        569        842        843        571        570        843        844        572        571        844        845        573        572        845        846        574        573        846        847        575        574        847        848        576        575        848        849        577        576        884        885        579        578        885        886        580        579        886        887        581        580        887        888        582        581        888        889        583        582        889        890        584        583        890        891        585        584        891        892        586        585        892        893        587        586        893        894        588        587        894        895        589        588        895        896        590        589        896        897        591        590        897        898        592        591        898        899        593        592        899        900        594        593        901        902        885        884        902        903        886        885        903        904        887        886        904        905        888        887        905        906        889        888        906        907        890        889        907        908        891        890        908        909        892        891        909        910        893        892        910        911        894        893        911        912        895        894        912        913        896        895        913        914        897        896        914        915        898        897        915        916        899        898        916        917        900        899        918        919        902        901        919        920        903        902        920        921        904        903        921        922        905        904        922        923        906        905        923        924        907        906        924        925        908        907        925        926        909        908        926        927        910        909        927        928        911        910        928        929        912        911        929        930        913        912        930        931        914        913        931        932        915        914        932        933        916        915        933        934        917        916        935        936        919        918        936        937        920        919        937        938        921        920        938        939        922        921        939        940        923        922        940        941        924        923        941        942        925        924        942        943        926        925        943        944        927        926        944        945        928        927        945        946        929        928        946        947        930        929        947        948        931        930        948        949        932        931        949        950        933        932        950        951        934        933        952        953        936        935        953        954        937        936        954        955        938        937        955        956        939        938        956        957        940        939        957        958        941        940        958        959        942        941        959        960        943        942        960        961        944        943        961        962        945        944        962        963        946        945        963        964        947        946        964        965        948        947        965        966        949        948        966        967        950        949        967        968        951        950        969        970        953        952        970        971        954        953        971        972        955        954        972        973        956        955        973        974        957        956        974        975        958        957        975        976        959        958        976        977        960        959        977        978        961        960        978        979        962        961        979        980        963        962        980        981        964        963        981        982        965        964        982        983        966        965        983        984        967        966        984        985        968        967        986        987        970        969        987        988        971        970        988        989        972        971        989        990        973        972        990        991        974        973        991        992        975        974        992        993        976        975        993        994        977        976        994        995        978        977        995        996        979        978        996        997        980        979        997        998        981        980        998        999        982        981        999       1000        983        982       1000       1001        984        983       1001       1002        985        984       1003       1004        987        986       1004       1005        988        987       1005       1006        989        988       1006       1007        990        989       1007       1008        991        990       1008       1009        992        991       1009       1010        993        992       1010       1011        994        993       1011       1012        995        994       1012       1013        996        995       1013       1014        997        996       1014       1015        998        997       1015       1016        999        998       1016       1017       1000        999       1017       1018       1001       1000       1018       1019       1002       1001       1020       1021       1004       1003       1021       1022       1005       1004       1022       1023       1006       1005       1023       1024       1007       1006       1024       1025       1008       1007       1025       1026       1009       1008       1026       1027       1010       1009       1027       1028       1011       1010       1028       1029       1012       1011       1029       1030       1013       1012       1030       1031       1014       1013       1031       1032       1015       1014       1032       1033       1016       1015       1033       1034       1017       1016       1034       1035       1018       1017       1035       1036       1019       1018       1037       1038       1021       1020       1038       1039       1022       1021       1039       1040       1023       1022       1040       1041       1024       1023       1041       1042       1025       1024       1042       1043       1026       1025       1043       1044       1027       1026       1044       1045       1028       1027       1045       1046       1029       1028       1046       1047       1030       1029       1047       1048       1031       1030       1048       1049       1032       1031       1049       1050       1033       1032       1050       1051       1034       1033       1051       1052       1035       1034       1052       1053       1036       1035       1054       1055       1038       1037       1055       1056       1039       1038       1056       1057       1040       1039       1057       1058       1041       1040       1058       1059       1042       1041       1059       1060       1043       1042       1060       1061       1044       1043       1061       1062       1045       1044       1062       1063       1046       1045       1063       1064       1047       1046       1064       1065       1048       1047       1065       1066       1049       1048       1066       1067       1050       1049       1067       1068       1051       1050       1068       1069       1052       1051       1069       1070       1053       1052       1071       1072       1055       1054       1072       1073       1056       1055       1073       1074       1057       1056       1074       1075       1058       1057       1075       1076       1059       1058       1076       1077       1060       1059       1077       1078       1061       1060       1078       1079       1062       1061       1079       1080       1063       1062       1080       1081       1064       1063       1081       1082       1065       1064       1082       1083       1066       1065       1083       1084       1067       1066       1084       1085       1068       1067       1085       1086       1069       1068       1086       1087       1070       1069       1088       1089       1072       1071       1089       1090       1073       1072       1090       1091       1074       1073       1091       1092       1075       1074       1092       1093       1076       1075       1093       1094       1077       1076       1094       1095       1078       1077       1095       1096       1079       1078       1096       1097       1080       1079       1097       1098       1081       1080       1098       1099       1082       1081       1099       1100       1083       1082       1100       1101       1084       1083       1101       1102       1085       1084       1102       1103       1086       1085       1103       1104       1087       1086       1105       1106       1089       1088       1106       1107       1090       1089       1107       1108       1091       1090       1108       1109       1092       1091       1109       1110       1093       1092       1110       1111       1094       1093       1111       1112       1095       1094       1112       1113       1096       1095       1113       1114       1097       1096       1114       1115       1098       1097       1115       1116       1099       1098       1116       1117       1100       1099       1117       1118       1101       1100       1118       1119       1102       1101       1119       1120       1103       1102       1120       1121       1104       1103       1122       1123       1106       1105       1123       1124       1107       1106       1124       1125       1108       1107       1125       1126       1109       1108       1126       1127       1110       1109       1127       1128       1111       1110       1128       1129       1112       1111       1129       1130       1113       1112       1130       1131       1114       1113       1131       1132       1115       1114       1132       1133       1116       1115       1133       1134       1117       1116       1134       1135       1118       1117       1135       1136       1119       1118       1136       1137       1120       1119       1137       1138       1121       1120        272        273       1123       1122        273        274       1124       1123        274        275       1125       1124        275        276       1126       1125        276        277       1127       1126        277        278       1128       1127        278        279       1129       1128        279        280       1130       1129        280        281       1131       1130        281        282       1132       1131        282        283       1133       1132        283        284       1134       1133        284        285       1135       1134        285        286       1136       1135        286        287       1137       1136        287        288       1138       1137 </DataArray>
<DataArray type="Int32"                                    Name="offsets"                                                      NumberOfComponents=" 1" format="ascii">
         4          8         12         16         20         24         28         32         36         40         44         48         52         56         60         64         68         72         76         80         84         88         92         96        100        104        108        112        116        120        124        128        132        136        140        144        148        152        156        160        164        168        172        176        180        184        188        192        196        200        204        208        212        216        220        224        228        232        236        240        244        248        252        256        260        264        268        272        276        280        284        288        292        296        300        304        308        312        316        320        324        328        332        336        340        344        348        352        356        360        364        368        372        376        380        384        388        392        396        400        404        408        412        416        420        424        428        432        436        440        444        448        452        456        460        464        468        472        476        480        484        488        492        496        500        504        508        512        516        520        524        528        532        536        540        544        548        552        556        560        564        568        572        576        580        584        588        592        596        600        604        608        612        616        620        624        628        632        636        640        644        648        652        656        660        664        668        672        676        680        684        688        692        696        700        704        708        712        716        720        724        728        732        736        740        744        748        752        756        760        764        768        772        776        780        784        788        792        796        800        804        808        812        816        820        824        828        832        836        840        844        848        852        856        860        864        868        872        876        880        884        888        892        896        900        904        908        912        916        920        924        928        932        936        940        944        948        952        956        960        964        968        972        976        980        984        988        992        996       1000       1004       1008       1012       1016       1020       1024       1028       1032       1036       1040       1044       1048       1052       1056       1060       1064       1068       1072       1076       1080       1084       1088       1092       1096       1100       1104       1108       1112       1116       1120       1124       1128       1132       1136       1140       1144       1148       1152       1156       1160       1164       1168       1172       1176       1180       1184       1188       1192       1196       1200       1204       1208       1212       1216       1220       1224       1228       1232       1236       1240       1244       1248       1252       1256       1260       1264       1268       1272       1276       1280       1284       1288       1292       1296       1300       1304       1308       1312       1316       1320       1324       1328       1332       1336       1340       1344       1348       1352       1356       1360       1364       1368       1372       1376       1380       1384       1388       1392       1396       1400       1404       1408       1412       1416       1420       1424       1428       1432       1436       1440       1444       1448       1452       1456       1460       1464       1468       1472       1476       1480       1484       1488       1492       1496       1500       1504       1508       1512       1516       1520       1524       1528       1532       1536       1540       1544       1548       1552       1556       1560       1564       1568       1572       1576       1580       1584       1588       1592       1596       1600       1604       1608       1612       1616       1620       1624       1628       1632       1636       1640       1644       1648       1652       1656       1660       1664       1668       1672       1676       1680       1684       1688       1692       1696       1700       1704       1708       1712       1716       1720       1724       1728       1732       1736       1740       1744       1748       1752       1756       1760       1764       1768       1772       1776       1780       1784       1788       1792       1796       1800       1804       1808       1812       1816       1820       1824       1828       1832       1836       1840       1844       1848       1852       1856       1860       1864       1868       1872       1876       1880       1884       1888       1892       1896       1900       1904       1908       1912       1916       1920       1924       1928       1932       1936       1940       1944       1948       1952       1956       1960       1964       1968       1972       1976       1980       1984       1988       1992       1996       2000       2004       2008       2012       2016       2020       2024       2028       2032       2036       2040       2044       2048       2052       2056       2060       2064       2068       2072       2076       2080       2084       2088       2092       2096       2100       2104       2108       2112       2116       2120       2124       2128       2132       2136       2140       2144       2148       2152       2156       2160       2164       2168       2172       2176       2180       2184       2188       2192       2196       2200       2204       2208       2212       2216       2220       2224       2228       2232       2236       2240       2244       2248       2252       2256       2260       2264       2268       2272       2276       2280       2284       2288       2292       2296       2300       2304       2308       2312       2316       2320       2324       2328       2332       2336       2340       2344       2348       2352       2356       2360       2364       2368       2372       2376       2380       2384       2388       2392       2396       2400       2404       2408       2412       2416       2420       2424       2428       2432       2436       2440       2444       2448       2452       2456       2460       2464       2468       2472       2476       2480       2484       2488       2492       2496       2500       2504       2508       2512       2516       2520       2524       2528       2532       2536       2540       2544       2548       2552       2556       2560       2564       2568       2572       2576       2580       2584       2588       2592       2596       2600       2604       2608       2612       2616       2620       2624       2628       2632       2636       2640       2644       2648       2652       2656       2660       2664       2668       2672       2676       2680       2684       2688       2692       2696       2700       2704       2708       2712       2716       2720       2724       2728       2732       2736       2740       2744       2748       2752       2756       2760       2764       2768       2772       2776       2780       2784       2788       2792       2796       2800       2804       2808       2812       2816       2820       2824       2828       2832       2836       2840       2844       2848       2852       2856       2860       2864       2868       2872       2876       2880       2884       2888       2892       2896       2900       2904       2908       2912       2916       2920       2924       2928       2932       2936       2940       2944       2948       2952       2956       2960       2964       2968       2972       2976       2980       2984       2988       2992       2996       3000       3004       3008       3012       3016       3020       3024       3028       3032       3036       3040       3044       3048       3052       3056       3060       3064       3068       3072       3076       3080       3084       3088       3092       3096       3100       3104       3108       3112       3116       3120       3124       3128       3132       3136       3140       3144       3148       3152       3156       3160       3164       3168       3172       3176       3180       3184       3188       3192       3196       3200       3204       3208       3212       3216       3220       3224       3228       3232       3236       3240       3244       3248       3252       3256       3260       3264       3268       3272       3276       3280       3284       3288       3292       3296       3300       3304       3308       3312       3316       3320       3324       3328       3332       3336       3340       3344       3348       3352       3356       3360       3364       3368       3372       3376       3380       3384       3388       3392       3396       3400       3404       3408       3412       3416       3420       3424       3428       3432       3436       3440       3444       3448       3452       3456       3460       3464       3468       3472       3476       3480       3484       3488       3492       3496       3500       3504       3508       3512       3516       3520       3524       3528       3532       3536       3540       3544       3548       3552       3556       3560       3564       3568       3572       3576       3580       3584       3588       3592       3596       3600       3604       3608       3612       3616       3620       3624       3628       3632       3636       3640       3644       3648       3652       3656       3660       3664       3668       3672       3676       3680       3684       3688       3692       3696       3700       3704       3708       3712       3716       3720       3724       3728       3732       3736       3740       3744       3748       3752       3756       3760       3764       3768       3772       3776       3780       3784       3788       3792       3796       3800       3804       3808       3812       3816       3820       3824       3828       3832       3836       3840       3844       3848       3852       3856       3860       3864       3868       3872       3876       3880       3884       3888       3892       3896       3900       3904       3908       3912       3916       3920       3924       3928       3932       3936       3940       3944       3948       3952       3956       3960       3964       3968       3972       3976       3980       3984       3988       3992       3996       4000       4004       4008       4012       4016       4020       4024       4028       4032       4036       4040       4044       4048       4052       4056       4060       4064       4068       4072       4076       4080       4084       4088       4092       4096 </DataArray>
<DataArray type="UInt8"                                    Name="types"                                                      NumberOfComponents=" 1" format="ascii">
         9          9          9          9          9          9          9          9          9          9          9          9          9          9          9          9          9          9          9          9          9          9          9          9          9          9          9          9          9          9          9          9          9          9          9          9          9          9          9          9          9          9          9          9          9          9          9          9          9          9          9          9          9          9          9          9          9          9          9          9          9          9          9          9          9          9          9          9          9          9          9          9          9          9          9          9          9          9          9          9          9          9          9          9          9          9          9          9          9          9          9          9          9          9          9          9          9          9          9          9          9          9          9          9          9          9          9          9          9          9          9          9          9          9          9          9          9          9          9          9          9          9          9          9          9          9          9          9          9          9          9          9          9          9          9          9          9          9          9          9          9          9          9          9          9          9          9          9          9          9          9          9          9          9          9          9          9          9          9          9          9          9          9          9          9          9          9          9          9          9          9          9          9          9          9          9          9          9          9          9          9          9          9          9          9          9          9          9          9          9          9          9          9          9          9          9          9          9          9          9          9          9          9          9          9          9          9          9          9          9          9          9          9          9          9          9          9          9          9          9          9          9          9          9          9          9          9          9          9          9          9          9          9          9          9          9          9          9          9          9          9          9          9          9          9          9          9          9          9          9          9          9          9          9          9          9          9          9          9          9          9          9          9          9          9          9          9          9          9          9          9          9          9          9          9          9          9          9          9          9          9          9          9          9          9          9          9          9          9          9          9          9          9          9          9          9          9          9          9          9          9          9          9          9          9          9          9          9          9          9          9          9          9          9          9          9          9          9          9          9          9          9          9          9          9          9          9          9          9          9          9          9          9          9          9          9          9          9          9          9          9          9          9          9          9          9          9          9          9          9          9          9          9          9          9          9          9          9          9          9          9          9          9          9          9          9          9          9          9          9          9          9          9          9          9          9          9          9          9          9          9          9          9          9          9          9          9          9          9          9          9          9          9          9          9          9          9          9          9          9          9          9          9          9          9          9          9          9          9          9          9          9          9          9          9          9          9          9          9          9          9          9          9          9          9          9          9          9          9          9          9          9          9          9          9          9          9          9          9          9          9          9          9          9          9          9          9          9          9          9          9          9          9          9          9          9          9          9          9          9          9          9          9          9          9          9          9          9          9          9          9          9          9          9          9          9          9          9          9          9          9          9          9          9          9          9          9          9          9          9          9          9          9          9          9          9          9          9          9          9          9          9          9          9          9          9          9          9          9          9          9          9          9          9          9          9          9          9          9          9          9          9          9          9          9          9          9          9          9          9          9          9          9          9          9          9          9          9          9          9          9          9          9          9          9          9          9          9          9          9          9          9          9          9          9          9          9          9          9          9          9          9          9          9          9          9          9          9          9          9          9          9          9          9          9          9          9          9          9          9          9          9          9          9          9          9          9          9          9          9          9          9          9          9          9          9          9          9          9          9          9          9          9          9          9          9          9          9          9          9          9          9          9          9          9          9          9          9          9          9          9          9          9          9          9          9          9          9          9          9          9          9          9          9          9          9          9          9          9          9          9          9          9          9          9          9          9          9          9          9          9          9          9          9          9          9          9          9          9          9          9          9          9          9          9          9          9          9          9          9          9          9          9          9          9          9          9          9          9          9          9          9          9          9          9          9          9          9          9          9          9          9          9          9          9          9          9          9          9          9          9          9          9          9          9          9          9          9          9          9          9          9          9          9          9          9          9          9          9          9          9          9          9          9          9          9          9          9          9          9          9          9          9          9          9          9          9          9          9          9          9          9          9          9          9          9          9          9          9          9          9          9          9          9          9          9          9          9          9          9          9          9          9          9          9          9          9          9          9          9          9          9          9          9          9          9          9          9          9          9          9          9          9          9          9          9          9          9          9          9          9          9          9          9          9          9          9          9          9          9          9          9          9          9          9          9          9          9          9          9          9          9          9          9          9          9          9          9          9          9          9          9          9          9          9          9          9          9          9          9          9          9          9          9          9          9          9          9          9          9          9          9          9          9          9          9          9          9          9          9          9          9          9          9          9          9          9          9          9          9          9          9          9          9          9          9          9          9          9          9          9          9          9          9          9          9          9          9          9          9          9          9          9          9          9          9          9          9          9          9          9          9          9          9          9          9          9          9          9          9          9          9          9          9          9          9          9          9          9          9          9          9          9          9          9          9          9          9          9          9          9          9          9          9          9          9          9          9          9          9          9          9          9          9          9          9          9          9          9          9          9          9          9          9          9          9          9          9          9          9          9          9          9          9          9          9          9          9          9          9          9          9          9          9          9          9          9          9          9          9          9          9          9          9          9          9          9          9          9          9          9          9          9          9          9          9          9          9          9          9          9          9          9          9          9          9          9          9          9          9          9          9          9          9          9          9          9          9          9          9          9          9          9          9          9          9          9          9          9          9          9          9          9          9 </DataArray>
</Cells>
<CellData>
<DataArray type="Int32"                                    Name="material"                                                      NumberOfComponents=" 1" format="ascii">
         1          1          1          1          1          1          1          1          1          1          1          1          1          1          1          1          1          1          1          1          1          1          1          1          1          1          1          1          1          1          1          1          1          1          1          1          1          1          1          1          1          1          1          1          1          1          1          1          1          1          1          1          1          1          1          1          1          1          1          1          1          1          1          1          1          1          1          1          1          1          1          1          1          1          1          1          1          1          1          1          1          1          1          1          1          1          1          1          1          1          1          1          1          1          1          1          1          1          1          1          1          1          1          1          1          1          1          1          1          1          1          1          1          1          1          1          1          1          1          1          1          1          1          1          1          1          1          1          1          1          1          1          1          1          1          1          1          1          1          1          1          1          1          1          1          1          1          1          1          1          1          1          1          1          1          1          1          1          1          1          1          1          1          1          1          1          1          1          1          1          1          1          1          1          1          1          1          1          1          1          1          1          1          1          1          1          1          1          1          1          1          1          1          1          1          1          1          1          1          1          1          1          1          1          1          1          1          1          1          1          1          1          1          1          1          1          1          1          1          1          1          1          1          1          1          1          1          1          1          1          1          1          1          1          1          1          1          1          1          1          1          1          1          1          1          1          1          1          1          1          1          1          1          1          1          1          1          1          1          1          1          1          1          1          1          1          1          1          1          1          1          1          1          1          1          1          1          1          1          1          1          1          1          1          1          1          1          1          1          1          1          1          1          1          1          1          1          1          1          1          1          1          1          1          1          1          1          1          1          1          1          1          1          1          1          1          1          1          1          1          1          1          1          1          1          1          1          1          1          1          1          1          1          1          1          1          1          1          1          1          1          1          1          1          1          1          1          1          1          1          1          1          1          1          1          1          1          1          1          1          1          1          1          1          1          1          1          1          1          1          1          1          1          1          1          1          1          1          1          1          1          1          1          1          1          1          1          1          1          1          1          1          1          1          1          1          1          1          1          1          1          1          1          1          1          1          1          1          1          1          1          1          1          1          1          1          1          1          1          1          1          1          1          1          1          1          1          1          1          1          1          1          1          1          1          1          1          1          1          1          1          1          1          1          1          1          1          1          1          1          1          1          1          1          1          1          1          1          1          1          1          1          1          1          1          1          1          1          1          1          1          1          1          1          1          1          1          1          1          1          1          1          1          1          1          1          1          1          1          1          1          1          1          1          1          1          1          1          1          1          1          1          1          1          1          1          1          1          1          1          1          1          1          1          1          1          1          1          1          1          1          1          1          1          1          1          1          1          1          1          1          1          1          1          1          1          1          1          1          1          1          1          1          1          1          1          1          1          1          1          1          1          1          1          1          1          1          1          1          1          1          1          1          1          1          1          1          1          1          1          1          1          1          1          1          1          1          1          1          1          1          1          1          1          1          1          1          1          1          1          1          1          1          1          1          1          1          1          1          1          1          1          1          1          1          1          1          1          1          1          1          1          1          1          1          1          1          1          1          1          1          1          1          1          1          1          1          1          1          1          1          1          1          1          1          1          1          1          1          1          1          1          1          1          1          1          1          1          1          1          1          1          1          1          1          1          1          1          1          1          1          1          1          1          1          1          1          1          1          1          1          1          1          1          1          1          1          1          1          1          1          1          1          1          1          1          1          1          1          1          1          1          1          1          1          1          1          1          1          1          1          1          1          1          1          1          1          1          1          1          1          1          1          1          1          1          1          1          1          1          1          1          1          1          1          1          1          1          1          1          1          1          1          1          1          1          1          1          1          1          1          1          1          1          1          1          1          1          1          1          1          1          1          1          1          1          1          1          1          1          1          1          1          1          1          1          1          1          1          1          1          1          1          1          1          1          1          1          1          1          1          1          1          1          1          1          1          1          1          1          1          1          1          1          1          1          1          1          1          1          1          1          1          1          1          1          1          1          1          1          1          1          1          1          1          1          1          1          1          1          1          1          1          1          1          1          1          1          1          1          1          1          1          1          1          1          1          1          1          1          1          1          1          1          1          1          1          1          1          1          1          1          1          1          1          1          1          1          1          1          1          1          1          1          1          1          1          1          1          1          1          1          1          1          1          1          1          1          1          1          1          1          1          1          1          1          1          1          1          1          1          1          1          1          1          1          1          1          1          1          1          1          1          1          1          1          1          1          1          1          1          1          1          1          1          1          1          1          1          1          1          1          1          1          1          1          1          1          1          1          1          1          1          1          1          1          1          1          1          1          1          1          1          1          1          1          1          1          1          1          1          1          1          1          1          1          1          1          1          1          1          1          1          1          1          1          1          1          1          1          1          1          1          1          1          1          1          1          1          1          1          1          1          1          1          1          1          1          1          1          1          1          1          1          1          1          1          1          1          1          1          1          1          1          1          1          1          1          1          1          1          1          1          1          1          1          1          1          1          1          1          1          1          1 </DataArray>
</CellData>
<PointData>
<DataArray type="Float64"                                    Name="u"                                                      NumberOfComponents=" 3" format="ascii">
              0.000007151               0.000000000               0.999999998              -0.000002193              -0.000000000               0.999999998              -0.000006752              -0.000000000               0.999999998              -0.000009347              -0.000000000               0.999999998              -0.000011237              -0.000000000               0.999999998              -0.000013018               0.000000000               0.999999998              -0.000015013               0.000000000               0.999999998              -0.000017358              -0.000000000               0.999999998              -0.000020177              -0.000000000               0.999999998              -0.000023583              -0.000000000               0.999999998              -0.000027533               0.000000000               0.999999998              -0.000031955              -0.000000000               0.999999998              -0.000036860              -0.000000000               0.999999998              -0.000042295              -0.000000000               0.999999998              -0.000048255              -0.000000000               0.999999998              -0.000054672               0.000000000               0.999999998              -0.000061503              -0.000000000               0.999999998               0.000007044               0.000023076               0.999999998              -0.000001974               0.000020822               0.999999998              -0.000006337               0.000020349               0.999999998              -0.000008890               0.000020905               0.999999998              -0.000010789               0.000022145               0.999999998              -0.000012618               0.000023842               0.999999998              -0.000014734               0.000025923               0.999999998              -0.000017237               0.000028295               0.999999998              -0.000020215               0.000030857               0.999999998              -0.000023738               0.000033646               0.999999998              -0.000027781               0.000036541               0.999999998              -0.000032371               0.000039626               0.999999998              -0.000037490               0.000042839               0.999999998              -0.000043110               0.000046367               0.999999998              -0.000049237               0.000050056               0.999999998              -0.000055815               0.000053780               0.999999998              -0.000062788               0.000057617               0.999999998               0.000006750               0.000045948               0.999999998              -0.000001339               0.000041409               0.999999998              -0.000005206               0.000040532               0.999999998              -0.000007567               0.000041739               0.999999998              -0.000009530               0.000044272               0.999999998              -0.000011617               0.000047778               0.999999998              -0.000014047               0.000051924               0.999999998              -0.000016946               0.000056640               0.999999998              -0.000020373               0.000061823               0.999999998              -0.000024342               0.000067310               0.999999998              -0.000028890               0.000073132               0.999999998              -0.000033991               0.000079252               0.999999998              -0.000039573               0.000085802               0.999999998              -0.000045710               0.000092826               0.999999998              -0.000052345               0.000100075               0.999999998              -0.000059370               0.000107373               0.999999998              -0.000066746               0.000114894               0.999999998               0.000006344               0.000068400               0.999999998              -0.000000247               0.000061536               0.999999998              -0.000003412               0.000060368               0.999999998              -0.000005610               0.000062361               0.999999998              -0.000007784               0.000066338               0.999999998              -0.000010299               0.000071631               0.999999998              -0.000013303               0.000077973               0.999999998              -0.000016892               0.000085116               0.999999998              -0.000021032               0.000092832               0.999999998              -0.000025782               0.000101087               0.999999998              -0.000031112               0.000109790               0.999999998              -0.000037006               0.000119035               0.999999998              -0.000043477               0.000128768               0.999999998              -0.000050418               0.000139147               0.999999998              -0.000057770               0.000149794               0.999999998              -0.000065449               0.000160461               0.999999998              -0.000073418               0.000171483               0.999999998               0.000005818               0.000090214               0.999999998               0.000001245               0.000081010               0.999999998              -0.000001113               0.000079780               0.999999998              -0.000003312               0.000082767               0.999999998              -0.000005910               0.000088302               0.999999998              -0.000009115               0.000095544               0.999999998              -0.000013018               0.000104067               0.999999998              -0.000017504               0.000113570               0.999999998              -0.000022633               0.000123839               0.999999998              -0.000028347               0.000134769               0.999999998              -0.000034639               0.000146382               0.999999998              -0.000041567               0.000158678               0.999999998              -0.000049020               0.000171664               0.999999998              -0.000056910               0.000185234               0.999999998              -0.000065079               0.000199061               0.999999998              -0.000073527               0.000212912               0.999999998              -0.000082264               0.000227093               0.999999998               0.000005266               0.000111214               0.999999998               0.000003140               0.000099815               0.999999998               0.000001427               0.000098750               0.999999998              -0.000000987               0.000102876               0.999999998              -0.000004285               0.000110049               0.999999998              -0.000008488               0.000119222               0.999999998              -0.000013418               0.000129960               0.999999998              -0.000019011               0.000141773               0.999999998              -0.000025219               0.000154592               0.999999998              -0.000032059               0.000168211               0.999999998              -0.000039482               0.000182770               0.999999998              -0.000047445               0.000198208               0.999999998              -0.000055916               0.000214405               0.999999998              -0.000064695               0.000230981               0.999999998              -0.000073693               0.000247821               0.999999998              -0.000082876               0.000264735               0.999999998              -0.000092262               0.000281954               0.999999998               0.000004739               0.000131195               0.999999998               0.000005269               0.000117904               0.999999998               0.000003986               0.000117196               0.999999998               0.000001103               0.000122560               0.999999998              -0.000003192               0.000131419               0.999999998              -0.000008489               0.000142605               0.999999998              -0.000014573               0.000155495               0.999999998              -0.000021329               0.000169696               0.999999998              -0.000028701               0.000185072               0.999999998              -0.000036629               0.000201543               0.999999998              -0.000045083               0.000219071               0.999999998              -0.000054037               0.000237701               0.999999998              -0.000063412               0.000257068               0.999999998              -0.000072995               0.000276542               0.999999998              -0.000082737               0.000296198               0.999999998              -0.000092671               0.000316087               0.999999998              -0.000102940               0.000336468               0.999999998               0.000004246               0.000149931               0.999999998               0.000007468               0.000135188               0.999999998               0.000006360               0.000135009               0.999999998               0.000002693               0.000141660               0.999999998              -0.000002684               0.000152254               0.999999998              -0.000009132               0.000165486               0.999999998              -0.000016396               0.000180589               0.999999998              -0.000024307               0.000197307               0.999999998              -0.000032691               0.000215415               0.999999998              -0.000041570               0.000234785               0.999999998              -0.000051058               0.000255380               0.999999998              -0.000061015               0.000277075               0.999999998              -0.000071188               0.000299323               0.999999998              -0.000081455               0.000321789               0.999999998              -0.000092003               0.000344664               0.999999998              -0.000102906               0.000368043               0.999999998              -0.000114265               0.000392226               0.999999998               0.000003678               0.000167041               0.999999998               0.000009640               0.000151650               0.999999998               0.000008265               0.000152069               0.999999998               0.000003684               0.000160013               0.999999998              -0.000002767               0.000172432               0.999999998              -0.000010362               0.000187757               0.999999998              -0.000018671               0.000205226               0.999999998              -0.000027478               0.000224576               0.999999998              -0.000036735               0.000245530               0.999999998              -0.000046641               0.000267961               0.999999998              -0.000057086               0.000291664               0.999999998              -0.000067883               0.000316396               0.999999998              -0.000078685               0.000341791               0.999999998              -0.000089714               0.000367835               0.999999998              -0.000101124               0.000394659               0.999999998              -0.000112947               0.000422501               0.999999998              -0.000125134               0.000451193               0.999999998               0.000002836               0.000183021               0.999999998               0.000010927               0.000168734               0.999999998               0.000010547               0.000167504               0.999999998               0.000006796               0.000173544               0.999999998               0.000001067               0.000184028               0.999999998              -0.000005739               0.000197496               0.999999998              -0.000013211               0.000213098               0.999999998              -0.000021050               0.000230468               0.999999998              -0.000029168               0.000249458               0.999999998              -0.000037720               0.000269828               0.999999998              -0.000046772               0.000291491               0.999999998              -0.000056307               0.000314255               0.999999998              -0.000065941               0.000337909               0.999999998              -0.000075639               0.000362369               0.999999998              -0.000085421               0.000387572               0.999999998              -0.000095333               0.000413812               0.999999998              -0.000105648               0.000441247               0.999999998               0.000002163               0.000197454               0.999999998               0.000011401               0.000185072               0.999999998               0.000012101               0.000183064               0.999999998               0.000009262               0.000187536               0.999999998               0.000004449               0.000196343               0.999999998              -0.000001504               0.000208080               0.999999998              -0.000008044               0.000221944               0.999999998              -0.000014877               0.000237544               0.999999998              -0.000021998               0.000254657               0.999999998              -0.000029221               0.000273188               0.999999998              -0.000036873               0.000292956               0.999999998              -0.000045076               0.000313866               0.999999998              -0.000053557               0.000335683               0.999999998              -0.000062006               0.000358427               0.999999998              -0.000070349               0.000382066               0.999999998              -0.000078492               0.000406685               0.999999998              -0.000086803               0.000432436               0.999999998               0.000001595               0.000210035               0.999999998               0.000011053               0.000200207               0.999999998               0.000012629               0.000198098               0.999999998               0.000010746               0.000201527               0.999999998               0.000006947               0.000208927               0.999999998               0.000001942               0.000219168               0.999999998              -0.000003625               0.000231493               0.999999998              -0.000009515               0.000245466               0.999999998              -0.000015515               0.000260957               0.999999998              -0.000021591               0.000277790               0.999999998              -0.000027911               0.000295893               0.999999998              -0.000034788               0.000315107               0.999999998              -0.000041936               0.000335274               0.999999998              -0.000048979               0.000356428               0.999999998              -0.000055653               0.000378568               0.999999998              -0.000062211               0.000401734               0.999999998              -0.000068675               0.000425948               0.999999998               0.000001122               0.000220560               0.999999998               0.000009913               0.000213570               0.999999998               0.000012009               0.000211965               0.999999998               0.000010972               0.000214819               0.999999998               0.000008190               0.000221183               0.999999998               0.000004276               0.000230179               0.999999998              -0.000000312               0.000241263               0.999999998              -0.000005185               0.000253919               0.999999998              -0.000010072               0.000268041               0.999999998              -0.000014998               0.000283458               0.999999998              -0.000020039               0.000300148               0.999999998              -0.000025509               0.000318006               0.999999998              -0.000031163               0.000336845               0.999999998              -0.000036644               0.000356588               0.999999998              -0.000041902               0.000377305               0.999999998              -0.000046717               0.000399115               0.999999998              -0.000051163               0.000422055               0.999999998               0.000000740               0.000228906               0.999999998               0.000008072               0.000224615               0.999999998               0.000010255               0.000223874               0.999999998               0.000009836               0.000226583               0.999999998               0.000007964               0.000232285               0.999999998               0.000005154               0.000240446               0.999999998               0.000001676               0.000250518               0.999999998              -0.000002035               0.000262256               0.999999998              -0.000005786               0.000275424               0.999999998              -0.000009525               0.000289785               0.999999998              -0.000013391               0.000305387               0.999999998              -0.000017372               0.000322200               0.999999998              -0.000021554               0.000340095               0.999999998              -0.000025679               0.000358835               0.999999998              -0.000029360               0.000378492               0.999999998              -0.000032420               0.000399209               0.999999998              -0.000034870               0.000421112               0.999999998               0.000000444               0.000234959               0.999999998               0.000005685               0.000232919               0.999999998               0.000007493               0.000233056               0.999999998               0.000007424               0.000235926               0.999999998               0.000006332               0.000241304               0.999999998               0.000004496               0.000248908               0.999999998               0.000002242               0.000258371               0.999999998              -0.000000286               0.000269462               0.999999998              -0.000002737               0.000281966               0.999999998              -0.000005285               0.000295696               0.999999998              -0.000007927               0.000310580               0.999999998              -0.000010651               0.000326613               0.999999998              -0.000013373               0.000343752               0.999999998              -0.000016076               0.000361932               0.999999998              -0.000018293               0.000381113               0.999999998              -0.000019935               0.000401255               0.999999998              -0.000020841               0.000422525               0.999999998               0.000000204               0.000238604               0.999999998               0.000002929               0.000238064               0.999999998               0.000003955               0.000238881               0.999999998               0.000003990               0.000241950               0.999999998               0.000003497               0.000247234               0.999999998               0.000002630               0.000254545               0.999999998               0.000001489               0.000263641               0.999999998               0.000000230               0.000274348               0.999999998              -0.000000996               0.000286489               0.999999998              -0.000002206               0.000299901               0.999999998              -0.000003616               0.000314371               0.999999998              -0.000005170               0.000330002               0.999999998              -0.000006401               0.000346784               0.999999998              -0.000007441               0.000364656               0.999999998              -0.000008707               0.000383640               0.999999998              -0.000009369               0.000403662               0.999999998              -0.000009373               0.000424713               0.999999998              -0.000000000               0.000239845               0.999999998              -0.000000000               0.000239823               0.999999998              -0.000000000               0.000240881               0.999999998               0.000000000               0.000244028               0.999999998               0.000000000               0.000249300               0.999999998               0.000000000               0.000256529               0.999999998               0.000000000               0.000265548               0.999999998               0.000000000               0.000276141               0.999999998               0.000000000               0.000288101               0.999999998               0.000000000               0.000301327               0.999999998              -0.000000000               0.000315746               0.999999998              -0.000000000               0.000331304               0.999999998               0.000000000               0.000347943               0.999999998               0.000000000               0.000365758               0.999999998              -0.000000000               0.000384677               0.999999998               0.000000000               0.000404710               0.999999998               0.000000000               0.000425768               0.999999998               0.000007151               0.000000000               0.999999998              -0.000002193              -0.000000000               0.999999998              -0.000006752              -0.000000000               0.999999998              -0.000009347              -0.000000000               0.999999998              -0.000011237              -0.000000000               0.999999998              -0.000013018               0.000000000               0.999999998              -0.000015013               0.000000000               0.999999998              -0.000017358              -0.000000000               0.999999998              -0.000020177              -0.000000000               0.999999998              -0.000023583              -0.000000000               0.999999998              -0.000027533               0.000000000               0.999999998              -0.000031955              -0.000000000               0.999999998              -0.000036860              -0.000000000               0.999999998              -0.000042295              -0.000000000               0.999999998              -0.000048255              -0.000000000               0.999999998              -0.000054672               0.000000000               0.999999998              -0.000061503              -0.000000000               0.999999998               0.000007044              -0.000023076               0.999999998              -0.000001974              -0.000020822               0.999999998              -0.000006337              -0.000020349               0.999999998              -0.000008890              -0.000020905               0.999999998              -0.000010789              -0.000022145               0.999999998              -0.000012618              -0.000023842               0.999999998              -0.000014734              -0.000025923               0.999999998              -0.000017237              -0.000028295               0.999999998              -0.000020215              -0.000030857               0.999999998              -0.000023738              -0.000033646               0.999999998              -0.000027781              -0.000036541               0.999999998              -0.000032371              -0.000039626               0.999999998              -0.000037490              -0.000042839               0.999999998              -0.000043110              -0.000046367               0.999999998              -0.000049237              -0.000050056               0.999999998              -0.000055815              -0.000053780               0.999999998              -0.000062788              -0.000057617               0.999999998               0.000006750              -0.000045948               0.999999998              -0.000001339              -0.000041409               0.999999998              -0.000005206              -0.000040532               0.999999998              -0.000007567              -0.000041739               0.999999998              -0.000009530              -0.000044272               0.999999998              -0.000011617              -0.000047778               0.999999998              -0.000014047              -0.000051924               0.999999998              -0.000016946              -0.000056640               0.999999998              -0.000020373              -0.000061823               0.999999998              -0.000024342              -0.000067310               0.999999998              -0.000028890              -0.000073132               0.999999998              -0.000033991              -0.000079252               0.999999998              -0.000039573              -0.000085802               0.999999998              -0.000045710              -0.000092826               0.999999998              -0.000052345              -0.000100075               0.999999998              -0.000059370              -0.000107373               0.999999998              -0.000066746              -0.000114894               0.999999998               0.000006344              -0.000068400               0.999999998              -0.000000247              -0.000061536               0.999999998              -0.000003412              -0.000060368               0.999999998              -0.000005610              -0.000062361               0.999999998              -0.000007784              -0.000066338               0.999999998              -0.000010299              -0.000071631               0.999999998              -0.000013303              -0.000077973               0.999999998              -0.000016892              -0.000085116               0.999999998              -0.000021032              -0.000092832               0.999999998              -0.000025782              -0.000101087               0.999999998              -0.000031112              -0.000109790               0.999999998              -0.000037006              -0.000119035               0.999999998              -0.000043477              -0.000128768               0.999999998              -0.000050418              -0.000139147               0.999999998              -0.000057770              -0.000149794               0.999999998              -0.000065449              -0.000160461               0.999999998              -0.000073418              -0.000171483               0.999999998               0.000005818              -0.000090214               0.999999998               0.000001245              -0.000081010               0.999999998              -0.000001113              -0.000079780               0.999999998              -0.000003312              -0.000082767               0.999999998              -0.000005910              -0.000088302               0.999999998              -0.000009115              -0.000095544               0.999999998              -0.000013018              -0.000104067               0.999999998              -0.000017504              -0.000113570               0.999999998              -0.000022633              -0.000123839               0.999999998              -0.000028347              -0.000134769               0.999999998              -0.000034639              -0.000146382               0.999999998              -0.000041567              -0.000158678               0.999999998              -0.000049020              -0.000171664               0.999999998              -0.000056910              -0.000185234               0.999999998              -0.000065079              -0.000199061               0.999999998              -0.000073527              -0.000212912               0.999999998              -0.000082264              -0.000227093               0.999999998               0.000005266              -0.000111214               0.999999998               0.000003140              -0.000099815               0.999999998               0.000001427              -0.000098750               0.999999998              -0.000000987              -0.000102876               0.999999998              -0.000004285              -0.000110049               0.999999998              -0.000008488              -0.000119222               0.999999998              -0.000013418              -0.000129960               0.999999998              -0.000019011              -0.000141773               0.999999998              -0.000025219              -0.000154592               0.999999998              -0.000032059              -0.000168211               0.999999998              -0.000039482              -0.000182770               0.999999998              -0.000047445              -0.000198208               0.999999998              -0.000055916              -0.000214405               0.999999998              -0.000064695              -0.000230981               0.999999998              -0.000073693              -0.000247821               0.999999998              -0.000082876              -0.000264735               0.999999998              -0.000092262              -0.000281954               0.999999998               0.000004739              -0.000131195               0.999999998               0.000005269              -0.000117904               0.999999998               0.000003986              -0.000117196               0.999999998               0.000001103              -0.000122560               0.999999998              -0.000003192              -0.000131419               0.999999998              -0.000008489              -0.000142605               0.999999998              -0.000014573              -0.000155495               0.999999998              -0.000021329              -0.000169696               0.999999998              -0.000028701              -0.000185072               0.999999998              -0.000036629              -0.000201543               0.999999998              -0.000045083              -0.000219071               0.999999998              -0.000054037              -0.000237701               0.999999998              -0.000063412              -0.000257068               0.999999998              -0.000072995              -0.000276542               0.999999998              -0.000082737              -0.000296198               0.999999998              -0.000092671              -0.000316087               0.999999998              -0.000102940              -0.000336468               0.999999998               0.000004246              -0.000149931               0.999999998               0.000007468              -0.000135188               0.999999998               0.000006360              -0.000135009               0.999999998               0.000002693              -0.000141660               0.999999998              -0.000002684              -0.000152254               0.999999998              -0.000009132              -0.000165486               0.999999998              -0.000016396              -0.000180589               0.999999998              -0.000024307              -0.000197307               0.999999998              -0.000032691              -0.000215415               0.999999998              -0.000041570              -0.000234785               0.999999998              -0.000051058              -0.000255380               0.999999998              -0.000061015              -0.000277075               0.999999998              -0.000071188              -0.000299323               0.999999998              -0.000081455              -0.000321789               0.999999998              -0.000092003              -0.000344664               0.999999998              -0.000102906              -0.000368043               0.999999998              -0.000114265              -0.000392226               0.999999998               0.000003678              -0.000167041               0.999999998               0.000009640              -0.000151650               0.999999998               0.000008265              -0.000152069               0.999999998               0.000003684              -0.000160013               0.999999998              -0.000002767              -0.000172432               0.999999998              -0.000010362              -0.000187757               0.999999998              -0.000018671              -0.000205226               0.999999998              -0.000027478              -0.000224576               0.999999998              -0.000036735              -0.000245530               0.999999998              -0.000046641              -0.000267961               0.999999998              -0.000057086              -0.000291664               0.999999998              -0.000067883              -0.000316396               0.999999998              -0.000078685              -0.000341791               0.999999998              -0.000089714              -0.000367835               0.999999998              -0.000101124              -0.000394659               0.999999998              -0.000112947              -0.000422501               0.999999998              -0.000125134              -0.000451193               0.999999998               0.000002836              -0.000183021               0.999999998               0.000010927              -0.000168734               0.999999998               0.000010547              -0.000167504               0.999999998               0.000006796              -0.000173544               0.999999998               0.000001067              -0.000184028               0.999999998              -0.000005739              -0.000197496               0.999999998              -0.000013211              -0.000213098               0.999999998              -0.000021050              -0.000230468               0.999999998              -0.000029168              -0.000249458               0.999999998              -0.000037720              -0.000269828               0.999999998              -0.000046772              -0.000291491               0.999999998              -0.000056307              -0.000314255               0.999999998              -0.000065941              -0.000337909               0.999999998              -0.000075639              -0.000362369               0.999999998              -0.000085421              -0.000387572               0.999999998              -0.000095333              -0.000413812               0.999999998              -0.000105648              -0.000441247               0.999999998               0.000002163              -0.000197454               0.999999998               0.000011401              -0.000185072               0.999999998               0.000012101              -0.000183064               0.999999998               0.000009262              -0.000187536               0.999999998               0.000004449              -0.000196343               0.999999998              -0.000001504              -0.000208080               0.999999998              -0.000008044              -0.000221944               0.999999998              -0.000014877              -0.000237544               0.999999998              -0.000021998              -0.000254657               0.999999998              -0.000029221              -0.000273188               0.999999998              -0.000036873              -0.000292956               0.999999998              -0.000045076              -0.000313866               0.999999998              -0.000053557              -0.000335683               0.999999998              -0.000062006              -0.000358427               0.999999998              -0.000070349              -0.000382066               0.999999998              -0.000078492              -0.000406685               0.999999998              -0.000086803              -0.000432436               0.999999998               0.000001595              -0.000210035               0.999999998               0.000011053              -0.000200207               0.999999998               0.000012629              -0.000198098               0.999999998               0.000010746              -0.000201527               0.999999998               0.000006947              -0.000208927               0.999999998               0.000001942              -0.000219168               0.999999998              -0.000003625              -0.000231493               0.999999998              -0.000009515              -0.000245466               0.999999998              -0.000015515              -0.000260957               0.999999998              -0.000021591              -0.000277790               0.999999998              -0.000027911              -0.000295893               0.999999998              -0.000034788              -0.000315107               0.999999998              -0.000041936              -0.000335274               0.999999998              -0.000048979              -0.000356428               0.999999998              -0.000055653              -0.000378568               0.999999998              -0.000062211              -0.000401734               0.999999998              -0.000068675              -0.000425948               0.999999998               0.000001122              -0.000220560               0.999999998               0.000009913              -0.000213570               0.999999998               0.000012009              -0.000211965               0.999999998               0.000010972              -0.000214819               0.999999998               0.000008190              -0.000221183               0.999999998               0.000004276              -0.000230179               0.999999998              -0.000000312              -0.000241263               0.999999998              -0.000005185              -0.000253919               0.999999998              -0.000010072              -0.000268041               0.999999998              -0.000014998              -0.000283458               0.999999998              -0.000020039              -0.000300148               0.999999998              -0.000025509              -0.000318006               0.999999998              -0.000031163              -0.000336845               0.999999998              -0.000036644              -0.000356588               0.999999998              -0.000041902              -0.000377305               0.999999998              -0.000046717              -0.000399115               0.999999998              -0.000051163              -0.000422055               0.999999998               0.000000740              -0.000228906               0.999999998               0.000008072              -0.000224615               0.999999998               0.000010255              -0.000223874               0.999999998               0.000009836              -0.000226583               0.999999998               0.000007964              -0.000232285               0.999999998               0.000005154              -0.000240446               0.999999998               0.000001676              -0.000250518               0.999999998              -0.000002035              -0.000262256               0.999999998              -0.000005786              -0.000275424               0.999999998              -0.000009525              -0.000289785               0.999999998              -0.000013391              -0.000305387               0.999999998              -0.000017372              -0.000322200               0.999999998              -0.000021554              -0.000340095               0.999999998              -0.000025679              -0.000358835               0.999999998              -0.000029360              -0.000378492               0.999999998              -0.000032420              -0.000399209               0.999999998              -0.000034870              -0.000421112               0.999999998               0.000000444              -0.000234959               0.999999998               0.000005685              -0.000232919               0.999999998               0.000007493              -0.000233056               0.999999998               0.000007424              -0.000235926               0.999999998               0.000006332              -0.000241304               0.999999998               0.000004496              -0.000248908               0.999999998               0.000002242              -0.000258371               0.999999998              -0.000000286              -0.000269462               0.999999998              -0.000002737              -0.000281966               0.999999998              -0.000005285              -0.000295696               0.999999998              -0.000007927              -0.000310580               0.999999998              -0.000010651              -0.000326613               0.999999998              -0.000013373              -0.000343752               0.999999998              -0.000016076              -0.000361932               0.999999998              -0.000018293              -0.000381113               0.999999998              -0.000019935              -0.000401255               0.999999998              -0.000020841              -0.000422525               0.999999998               0.000000204              -0.000238604               0.999999998               0.000002929              -0.000238064               0.999999998               0.000003955              -0.000238881               0.999999998               0.000003990              -0.000241950               0.999999998               0.000003497              -0.000247234               0.999999998               0.000002630              -0.000254545               0.999999998               0.000001489              -0.000263641               0.999999998               0.000000230              -0.000274348               0.999999998              -0.000000996              -0.000286489               0.999999998              -0.000002206              -0.000299901               0.999999998              -0.000003616              -0.000314371               0.999999998              -0.000005170              -0.000330002               0.999999998              -0.000006401              -0.000346784               0.999999998              -0.000007441              -0.000364656               0.999999998              -0.000008707              -0.000383640               0.999999998              -0.000009369              -0.000403662               0.999999998              -0.000009373              -0.000424713               0.999999998               0.000000000              -0.000239845               0.999999998              -0.000000000              -0.000239823               0.999999998              -0.000000000              -0.000240881               0.999999998              -0.000000000              -0.000244028               0.999999998              -0.000000000              -0.000249300               0.999999998               0.000000000              -0.000256529               0.999999998              -0.000000000              -0.000265548               0.999999998              -0.000000000              -0.000276141               0.999999998               0.000000000              -0.000288101               0.999999998               0.000000000              -0.000301327               0.999999998              -0.000000000              -0.000315746               0.999999998              -0.000000000              -0.000331304               0.999999998              -0.000000000              -0.000347943               0.999999998              -0.000000000              -0.000365758               0.999999998              -0.000000000              -0.000384677               0.999999998               0.000000000              -0.000404710               0.999999998               0.000000000              -0.000425768               0.999999998              -0.000007151              -0.000000000               0.999999998               0.000002193               0.000000000               0.999999998               0.000006752               0.000000000               0.999999998               0.000009347               0.000000000               0.999999998               0.000011237               0.000000000               0.999999998               0.000013018               0.000000000               0.999999998               0.000015013               0.000000000               0.999999998               0.000017358               0.000000000               0.999999998               0.000020177               0.000000000               0.999999998               0.000023583               0.000000000               0.999999998               0.000027533               0.000000000               0.999999998               0.000031955               0.000000000               0.999999998               0.000036860               0.000000000               0.999999998               0.000042295               0.000000000               0.999999998               0.000048255               0.000000000               0.999999998               0.000054672               0.000000000               0.999999998               0.000061503              -0.000000000               0.999999998              -0.000007044              -0.000023076               0.999999998               0.000001974              -0.000020822               0.999999998               0.000006337              -0.000020349               0.999999998               0.000008890              -0.000020905               0.999999998               0.000010789              -0.000022145               0.999999998               0.000012618              -0.000023842               0.999999998               0.000014734              -0.000025923               0.999999998               0.000017237              -0.000028295               0.999999998               0.000020215              -0.000030857               0.999999998               0.000023738              -0.000033646               0.999999998               0.000027781              -0.000036541               0.999999998               0.000032371              -0.000039626               0.999999998               0.000037490              -0.000042839               0.999999998               0.000043110              -0.000046367               0.999999998               0.000049237              -0.000050056               0.999999998               0.000055815              -0.000053780               0.999999998               0.000062788              -0.000057617               0.999999998              -0.000006750              -0.000045948               0.999999998               0.000001339              -0.000041409               0.999999998               0.000005206              -0.000040532               0.999999998               0.000007567              -0.000041739               0.999999998               0.000009530              -0.000044272               0.999999998               0.000011617              -0.000047778               0.999999998               0.000014047              -0.000051924               0.999999998               0.000016946              -0.000056640               0.999999998               0.000020373              -0.000061823               0.999999998               0.000024342              -0.000067310               0.999999998               0.000028890              -0.000073132               0.999999998               0.000033991              -0.000079252               0.999999998               0.000039573              -0.000085802               0.999999998               0.000045710              -0.000092826               0.999999998               0.000052345              -0.000100075               0.999999998               0.000059370              -0.000107373               0.999999998               0.000066746              -0.000114894               0.999999998              -0.000006344              -0.000068400               0.999999998               0.000000247              -0.000061536               0.999999998               0.000003412              -0.000060368               0.999999998               0.000005610              -0.000062361               0.999999998               0.000007784              -0.000066338               0.999999998               0.000010299              -0.000071631               0.999999998               0.000013303              -0.000077973               0.999999998               0.000016892              -0.000085116               0.999999998               0.000021032              -0.000092832               0.999999998               0.000025782              -0.000101087               0.999999998               0.000031112              -0.000109790               0.999999998               0.000037006              -0.000119035               0.999999998               0.000043477              -0.000128768               0.999999998               0.000050418              -0.000139147               0.999999998               0.000057770              -0.000149794               0.999999998               0.000065449              -0.000160461               0.999999998               0.000073418              -0.000171483               0.999999998              -0.000005818              -0.000090214               0.999999998              -0.000001245              -0.000081010               0.999999998               0.000001113              -0.000079780               0.999999998               0.000003312              -0.000082767               0.999999998               0.000005910              -0.000088302               0.999999998               0.000009115              -0.000095544               0.999999998               0.000013018              -0.000104067               0.999999998               0.000017504              -0.000113570               0.999999998               0.000022633              -0.000123839               0.999999998               0.000028347              -0.000134769               0.999999998               0.000034639              -0.000146382               0.999999998               0.000041567              -0.000158678               0.999999998               0.000049020              -0.000171664               0.999999998               0.000056910              -0.000185234               0.999999998               0.000065079              -0.000199061               0.999999998               0.000073527              -0.000212912               0.999999998               0.000082264              -0.000227093               0.999999998              -0.000005266              -0.000111214               0.999999998              -0.000003140              -0.000099815               0.999999998              -0.000001427              -0.000098750               0.999999998               0.000000987              -0.000102876               0.999999998               0.000004285              -0.000110049               0.999999998               0.000008488              -0.000119222               0.999999998               0.000013418              -0.000129960               0.999999998               0.000019011              -0.000141773               0.999999998               0.000025219              -0.000154592               0.999999998               0.000032059              -0.000168211               0.999999998               0.000039482              -0.000182770               0.999999998               0.000047445              -0.000198208               0.999999998               0.000055916              -0.000214405               0.999999998               0.000064695              -0.000230981               0.999999998               0.000073693              -0.000247821               0.999999998               0.000082876              -0.000264735               0.999999998               0.000092262              -0.000281954               0.999999998              -0.000004739              -0.000131195               0.999999998              -0.000005269              -0.000117904               0.999999998              -0.000003986              -0.000117196               0.999999998              -0.000001103              -0.000122560               0.999999998               0.000003192              -0.000131419               0.999999998               0.000008489              -0.000142605               0.999999998               0.000014573              -0.000155495               0.999999998               0.000021329              -0.000169696               0.999999998               0.000028701              -0.000185072               0.999999998               0.000036629              -0.000201543               0.999999998               0.000045083              -0.000219071               0.999999998               0.000054037              -0.000237701               0.999999998               0.000063412              -0.000257068               0.999999998               0.000072995              -0.000276542               0.999999998               0.000082737              -0.000296198               0.999999998               0.000092671              -0.000316087               0.999999998               0.000102940              -0.000336468               0.999999998              -0.000004246              -0.000149931               0.999999998              -0.000007468              -0.000135188               0.999999998              -0.000006360              -0.000135009               0.999999998              -0.000002693              -0.000141660               0.999999998               0.000002684              -0.000152254               0.999999998               0.000009132              -0.000165486               0.999999998               0.000016396              -0.000180589               0.999999998               0.000024307              -0.000197307               0.999999998               0.000032691              -0.000215415               0.999999998               0.000041570              -0.000234785               0.999999998               0.000051058              -0.000255380               0.999999998               0.000061015              -0.000277075               0.999999998               0.000071188              -0.000299323               0.999999998               0.000081455              -0.000321789               0.999999998               0.000092003              -0.000344664               0.999999998               0.000102906              -0.000368043               0.999999998               0.000114265              -0.000392226               0.999999998              -0.000003678              -0.000167041               0.999999998              -0.000009640              -0.000151650               0.999999998              -0.000008265              -0.000152069               0.999999998              -0.000003684              -0.000160013               0.999999998               0.000002767              -0.000172432               0.999999998               0.000010362              -0.000187757               0.999999998               0.000018671              -0.000205226               0.999999998               0.000027478              -0.000224576               0.999999998               0.000036735              -0.000245530               0.999999998               0.000046641              -0.000267961               0.999999998               0.000057086              -0.000291664               0.999999998               0.000067883              -0.000316396               0.999999998               0.000078685              -0.000341791               0.999999998               0.000089714              -0.000367835               0.999999998               0.000101124              -0.000394659               0.999999998               0.000112947              -0.000422501               0.999999998               0.000125134              -0.000451193               0.999999998              -0.000002836              -0.000183021               0.999999998              -0.000010927              -0.000168734               0.999999998              -0.000010547              -0.000167504               0.999999998              -0.000006796              -0.000173544               0.999999998              -0.000001067              -0.000184028               0.999999998               0.000005739              -0.000197496               0.999999998               0.000013211              -0.000213098               0.999999998               0.000021050              -0.000230468               0.999999998               0.000029168              -0.000249458               0.999999998               0.000037720              -0.000269828               0.999999998               0.000046772              -0.000291491               0.999999998               0.000056307              -0.000314255               0.999999998               0.000065941              -0.000337909               0.999999998               0.000075639              -0.000362369               0.999999998               0.000085421              -0.000387572               0.999999998               0.000095333              -0.000413812               0.999999998               0.000105648              -0.000441247               0.999999998              -0.000002163              -0.000197454               0.999999998              -0.000011401              -0.000185072               0.999999998              -0.000012101              -0.000183064               0.999999998              -0.000009262              -0.000187536               0.999999998              -0.000004449              -0.000196343               0.999999998               0.000001504              -0.000208080               0.999999998               0.000008044              -0.000221944               0.999999998               0.000014877              -0.000237544               0.999999998               0.000021998              -0.000254657               0.999999998               0.000029221              -0.000273188               0.999999998               0.000036873              -0.000292956               0.999999998               0.000045076              -0.000313866               0.999999998               0.000053557              -0.000335683               0.999999998               0.000062006              -0.000358427               0.999999998               0.000070349              -0.000382066               0.999999998               0.000078492              -0.000406685               0.999999998               0.000086803              -0.000432436               0.999999998              -0.000001595              -0.000210035               0.999999998              -0.000011053              -0.000200207               0.999999998              -0.000012629              -0.000198098               0.999999998              -0.000010746              -0.000201527               0.999999998              -0.000006947              -0.000208927               0.999999998              -0.000001942              -0.000219168               0.999999998               0.000003625              -0.000231493               0.999999998               0.000009515              -0.000245466               0.999999998               0.000015515              -0.000260957               0.999999998               0.000021591              -0.000277790               0.999999998               0.000027911              -0.000295893               0.999999998               0.000034788              -0.000315107               0.999999998               0.000041936              -0.000335274               0.999999998               0.000048979              -0.000356428               0.999999998               0.000055653              -0.000378568               0.999999998               0.000062211              -0.000401734               0.999999998               0.000068675              -0.000425948               0.999999998              -0.000001122              -0.000220560               0.999999998              -0.000009913              -0.000213570               0.999999998              -0.000012009              -0.000211965               0.999999998              -0.000010972              -0.000214819               0.999999998              -0.000008190              -0.000221183               0.999999998              -0.000004276              -0.000230179               0.999999998               0.000000312              -0.000241263               0.999999998               0.000005185              -0.000253919               0.999999998               0.000010072              -0.000268041               0.999999998               0.000014998              -0.000283458               0.999999998               0.000020039              -0.000300148               0.999999998               0.000025509              -0.000318006               0.999999998               0.000031163              -0.000336845               0.999999998               0.000036644              -0.000356588               0.999999998               0.000041902              -0.000377305               0.999999998               0.000046717              -0.000399115               0.999999998               0.000051163              -0.000422055               0.999999998              -0.000000740              -0.000228906               0.999999998              -0.000008072              -0.000224615               0.999999998              -0.000010255              -0.000223874               0.999999998              -0.000009836              -0.000226583               0.999999998              -0.000007964              -0.000232285               0.999999998              -0.000005154              -0.000240446               0.999999998              -0.000001676              -0.000250518               0.999999998               0.000002035              -0.000262256               0.999999998               0.000005786              -0.000275424               0.999999998               0.000009525              -0.000289785               0.999999998               0.000013391              -0.000305387               0.999999998               0.000017372              -0.000322200               0.999999998               0.000021554              -0.000340095               0.999999998               0.000025679              -0.000358835               0.999999998               0.000029360              -0.000378492               0.999999998               0.000032420              -0.000399209               0.999999998               0.000034870              -0.000421112               0.999999998              -0.000000444              -0.000234959               0.999999998              -0.000005685              -0.000232919               0.999999998              -0.000007493              -0.000233056               0.999999998              -0.000007424              -0.000235926               0.999999998              -0.000006332              -0.000241304               0.999999998              -0.000004496              -0.000248908               0.999999998              -0.000002242              -0.000258371               0.999999998               0.000000286              -0.000269462               0.999999998               0.000002737              -0.000281966               0.999999998               0.000005285              -0.000295696               0.999999998               0.000007927              -0.000310580               0.999999998               0.000010651              -0.000326613               0.999999998               0.000013373              -0.000343752               0.999999998               0.000016076              -0.000361932               0.999999998               0.000018293              -0.000381113               0.999999998               0.000019935              -0.000401255               0.999999998               0.000020841              -0.000422525               0.999999998              -0.000000204              -0.000238604               0.999999998              -0.000002929              -0.000238064               0.999999998              -0.000003955              -0.000238881               0.999999998              -0.000003990              -0.000241950               0.999999998              -0.000003497              -0.000247234               0.999999998              -0.000002630              -0.000254545               0.999999998              -0.000001489              -0.000263641               0.999999998              -0.000000230              -0.000274348               0.999999998               0.000000996              -0.000286489               0.999999998               0.000002206              -0.000299901               0.999999998               0.000003616              -0.000314371               0.999999998               0.000005170              -0.000330002               0.999999998               0.000006401              -0.000346784               0.999999998               0.000007441              -0.000364656               0.999999998               0.000008707              -0.000383640               0.999999998               0.000009369              -0.000403662               0.999999998               0.000009373              -0.000424713               0.999999998               0.000000000              -0.000239845               0.999999998              -0.000000000              -0.000239823               0.999999998              -0.000000000              -0.000240881               0.999999998              -0.000000000              -0.000244028               0.999999998              -0.000000000              -0.000249300               0.999999998               0.000000000              -0.000256529               0.999999998              -0.000000000              -0.000265548               0.999999998              -0.000000000              -0.000276141               0.999999998               0.000000000              -0.000288101               0.999999998               0.000000000              -0.000301327               0.999999998              -0.000000000              -0.000315746               0.999999998              -0.000000000              -0.000331304               0.999999998              -0.000000000              -0.000347943               0.999999998              -0.000000000              -0.000365758               0.999999998              -0.000000000              -0.000384677               0.999999998               0.000000000              -0.000404710               0.999999998               0.000000000              -0.000425768               0.999999998              -0.000007151              -0.000000000               0.999999998               0.000002193               0.000000000               0.999999998               0.000006752               0.000000000               0.999999998               0.000009347               0.000000000               0.999999998               0.000011237               0.000000000               0.999999998               0.000013018               0.000000000               0.999999998               0.000015013               0.000000000               0.999999998               0.000017358               0.000000000               0.999999998               0.000020177               0.000000000               0.999999998               0.000023583               0.000000000               0.999999998               0.000027533               0.000000000               0.999999998               0.000031955               0.000000000               0.999999998               0.000036860               0.000000000               0.999999998               0.000042295               0.000000000               0.999999998               0.000048255               0.000000000               0.999999998               0.000054672               0.000000000               0.999999998               0.000061503              -0.000000000               0.999999998              -0.000007044               0.000023076               0.999999998               0.000001974               0.000020822               0.999999998               0.000006337               0.000020349               0.999999998               0.000008890               0.000020905               0.999999998               0.000010789               0.000022145               0.999999998               0.000012618               0.000023842               0.999999998               0.000014734               0.000025923               0.999999998               0.000017237               0.000028295               0.999999998               0.000020215               0.000030857               0.999999998               0.000023738               0.000033646               0.999999998               0.000027781               0.000036541               0.999999998               0.000032371               0.000039626               0.999999998               0.000037490               0.000042839               0.999999998               0.000043110               0.000046367               0.999999998               0.000049237               0.000050056               0.999999998               0.000055815               0.000053780               0.999999998               0.000062788               0.000057617               0.999999998              -0.000006750               0.000045948               0.999999998               0.000001339               0.000041409               0.999999998               0.000005206               0.000040532               0.999999998               0.000007567               0.000041739               0.999999998               0.000009530               0.000044272               0.999999998               0.000011617               0.000047778               0.999999998               0.000014047               0.000051924               0.999999998               0.000016946               0.000056640               0.999999998               0.000020373               0.000061823               0.999999998               0.000024342               0.000067310               0.999999998               0.000028890               0.000073132               0.999999998               0.000033991               0.000079252               0.999999998               0.000039573               0.000085802               0.999999998               0.000045710               0.000092826               0.999999998               0.000052345               0.000100075               0.999999998               0.000059370               0.000107373               0.999999998               0.000066746               0.000114894               0.999999998              -0.000006344               0.000068400               0.999999998               0.000000247               0.000061536               0.999999998               0.000003412               0.000060368               0.999999998               0.000005610               0.000062361               0.999999998               0.000007784               0.000066338               0.999999998               0.000010299               0.000071631               0.999999998               0.000013303               0.000077973               0.999999998               0.000016892               0.000085116               0.999999998               0.000021032               0.000092832               0.999999998               0.000025782               0.000101087               0.999999998               0.000031112               0.000109790               0.999999998               0.000037006               0.000119035               0.999999998               0.000043477               0.000128768               0.999999998               0.000050418               0.000139147               0.999999998               0.000057770               0.000149794               0.999999998               0.000065449               0.000160461               0.999999998               0.000073418               0.000171483               0.999999998              -0.000005818               0.000090214               0.999999998              -0.000001245               0.000081010               0.999999998               0.000001113               0.000079780               0.999999998               0.000003312               0.000082767               0.999999998               0.000005910               0.000088302               0.999999998               0.000009115               0.000095544               0.999999998               0.000013018               0.000104067               0.999999998               0.000017504               0.000113570               0.999999998               0.000022633               0.000123839               0.999999998               0.000028347               0.000134769               0.999999998               0.000034639               0.000146382               0.999999998               0.000041567               0.000158678               0.999999998               0.000049020               0.000171664               0.999999998               0.000056910               0.000185234               0.999999998               0.000065079               0.000199061               0.999999998               0.000073527               0.000212912               0.999999998               0.000082264               0.000227093               0.999999998              -0.000005266               0.000111214               0.999999998              -0.000003140               0.000099815               0.999999998              -0.000001427               0.000098750               0.999999998               0.000000987               0.000102876               0.999999998               0.000004285               0.000110049               0.999999998               0.000008488               0.000119222               0.999999998               0.000013418               0.000129960               0.999999998               0.000019011               0.000141773               0.999999998               0.000025219               0.000154592               0.999999998               0.000032059               0.000168211               0.999999998               0.000039482               0.000182770               0.999999998               0.000047445               0.000198208               0.999999998               0.000055916               0.000214405               0.999999998               0.000064695               0.000230981               0.999999998               0.000073693               0.000247821               0.999999998               0.000082876               0.000264735               0.999999998               0.000092262               0.000281954               0.999999998              -0.000004739               0.000131195               0.999999998              -0.000005269               0.000117904               0.999999998              -0.000003986               0.000117196               0.999999998              -0.000001103               0.000122560               0.999999998               0.000003192               0.000131419               0.999999998               0.000008489               0.000142605               0.999999998               0.000014573               0.000155495               0.999999998               0.000021329               0.000169696               0.999999998               0.000028701               0.000185072               0.999999998               0.000036629               0.000201543               0.999999998               0.000045083               0.000219071               0.999999998               0.000054037               0.000237701               0.999999998               0.000063412               0.000257068               0.999999998               0.000072995               0.000276542               0.999999998               0.000082737               0.000296198               0.999999998               0.000092671               0.000316087               0.999999998               0.000102940               0.000336468               0.999999998              -0.000004246               0.000149931               0.999999998              -0.000007468               0.000135188               0.999999998              -0.000006360               0.000135009               0.999999998              -0.000002693               0.000141660               0.999999998               0.000002684               0.000152254               0.999999998               0.000009132               0.000165486               0.999999998               0.000016396               0.000180589               0.999999998               0.000024307               0.000197307               0.999999998               0.000032691               0.000215415               0.999999998               0.000041570               0.000234785               0.999999998               0.000051058               0.000255380               0.999999998               0.000061015               0.000277075               0.999999998               0.000071188               0.000299323               0.999999998               0.000081455               0.000321789               0.999999998               0.000092003               0.000344664               0.999999998               0.000102906               0.000368043               0.999999998               0.000114265               0.000392226               0.999999998              -0.000003678               0.000167041               0.999999998              -0.000009640               0.000151650               0.999999998              -0.000008265               0.000152069               0.999999998              -0.000003684               0.000160013               0.999999998               0.000002767               0.000172432               0.999999998               0.000010362               0.000187757               0.999999998               0.000018671               0.000205226               0.999999998               0.000027478               0.000224576               0.999999998               0.000036735               0.000245530               0.999999998               0.000046641               0.000267961               0.999999998               0.000057086               0.000291664               0.999999998               0.000067883               0.000316396               0.999999998               0.000078685               0.000341791               0.999999998               0.000089714               0.000367835               0.999999998               0.000101124               0.000394659               0.999999998               0.000112947               0.000422501               0.999999998               0.000125134               0.000451193               0.999999998              -0.000002836               0.000183021               0.999999998              -0.000010927               0.000168734               0.999999998              -0.000010547               0.000167504               0.999999998              -0.000006796               0.000173544               0.999999998              -0.000001067               0.000184028               0.999999998               0.000005739               0.000197496               0.999999998               0.000013211               0.000213098               0.999999998               0.000021050               0.000230468               0.999999998               0.000029168               0.000249458               0.999999998               0.000037720               0.000269828               0.999999998               0.000046772               0.000291491               0.999999998               0.000056307               0.000314255               0.999999998               0.000065941               0.000337909               0.999999998               0.000075639               0.000362369               0.999999998               0.000085421               0.000387572               0.999999998               0.000095333               0.000413812               0.999999998               0.000105648               0.000441247               0.999999998              -0.000002163               0.000197454               0.999999998              -0.000011401               0.000185072               0.999999998              -0.000012101               0.000183064               0.999999998              -0.000009262               0.000187536               0.999999998              -0.000004449               0.000196343               0.999999998               0.000001504               0.000208080               0.999999998               0.000008044               0.000221944               0.999999998               0.000014877               0.000237544               0.999999998               0.000021998               0.000254657               0.999999998               0.000029221               0.000273188               0.999999998               0.000036873               0.000292956               0.999999998               0.000045076               0.000313866               0.999999998               0.000053557               0.000335683               0.999999998               0.000062006               0.000358427               0.999999998               0.000070349               0.000382066               0.999999998               0.000078492               0.000406685               0.999999998               0.000086803               0.000432436               0.999999998              -0.000001595               0.000210035               0.999999998              -0.000011053               0.000200207               0.999999998              -0.000012629               0.000198098               0.999999998              -0.000010746               0.000201527               0.999999998              -0.000006947               0.000208927               0.999999998              -0.000001942               0.000219168               0.999999998               0.000003625               0.000231493               0.999999998               0.000009515               0.000245466               0.999999998               0.000015515               0.000260957               0.999999998               0.000021591               0.000277790               0.999999998               0.000027911               0.000295893               0.999999998               0.000034788               0.000315107               0.999999998               0.000041936               0.000335274               0.999999998               0.000048979               0.000356428               0.999999998               0.000055653               0.000378568               0.999999998               0.000062211               0.000401734               0.999999998               0.000068675               0.000425948               0.999999998              -0.000001122               0.000220560               0.999999998              -0.000009913               0.000213570               0.999999998              -0.000012009               0.000211965               0.999999998              -0.000010972               0.000214819               0.999999998              -0.000008190               0.000221183               0.999999998              -0.000004276               0.000230179               0.999999998               0.000000312               0.000241263               0.999999998               0.000005185               0.000253919               0.999999998               0.000010072               0.000268041               0.999999998               0.000014998               0.000283458               0.999999998               0.000020039               0.000300148               0.999999998               0.000025509               0.000318006               0.999999998               0.000031163               0.000336845               0.999999998               0.000036644               0.000356588               0.999999998               0.000041902               0.000377305               0.999999998               0.000046717               0.000399115               0.999999998               0.000051163               0.000422055               0.999999998              -0.000000740               0.000228906               0.999999998              -0.000008072               0.000224615               0.999999998              -0.000010255               0.000223874               0.999999998              -0.000009836               0.000226583               0.999999998              -0.000007964               0.000232285               0.999999998              -0.000005154               0.000240446               0.999999998              -0.000001676               0.000250518               0.999999998               0.000002035               0.000262256               0.999999998               0.000005786               0.000275424               0.999999998               0.000009525               0.000289785               0.999999998               0.000013391               0.000305387               0.999999998               0.000017372               0.000322200               0.999999998               0.000021554               0.000340095               0.999999998               0.000025679               0.000358835               0.999999998               0.000029360               0.000378492               0.999999998               0.000032420               0.000399209               0.999999998               0.000034870               0.000421112               0.999999998              -0.000000444               0.000234959               0.999999998              -0.000005685               0.000232919               0.999999998              -0.000007493               0.000233056               0.999999998              -0.000007424               0.000235926               0.999999998              -0.000006332               0.000241304               0.999999998              -0.000004496               0.000248908               0.999999998              -0.000002242               0.000258371               0.999999998               0.000000286               0.000269462               0.999999998               0.000002737               0.000281966               0.999999998               0.000005285               0.000295696               0.999999998               0.000007927               0.000310580               0.999999998               0.000010651               0.000326613               0.999999998               0.000013373               0.000343752               0.999999998               0.000016076               0.000361932               0.999999998               0.000018293               0.000381113               0.999999998               0.000019935               0.000401255               0.999999998               0.000020841               0.000422525               0.999999998              -0.000000204               0.000238604               0.999999998              -0.000002929               0.000238064               0.999999998              -0.000003955               0.000238881               0.999999998              -0.000003990               0.000241950               0.999999998              -0.000003497               0.000247234               0.999999998              -0.000002630               0.000254545               0.999999998              -0.000001489               0.000263641               0.999999998              -0.000000230               0.000274348               0.999999998               0.000000996               0.000286489               0.999999998               0.000002206               0.000299901               0.999999998               0.000003616               0.000314371               0.999999998               0.000005170               0.000330002               0.999999998               0.000006401               0.000346784               0.999999998               0.000007441               0.000364656               0.999999998               0.000008707               0.000383640               0.999999998               0.000009369               0.000403662               0.999999998               0.000009373               0.000424713               0.999999998              -0.000000000               0.000239845               0.999999998              -0.000000000               0.000239823               0.999999998              -0.000000000               0.000240881               0.999999998               0.000000000               0.000244028               0.999999998               0.000000000               0.000249300               0.999999998               0.000000000               0.000256529               0.999999998               0.000000000               0.000265548               0.999999998               0.000000000               0.000276141               0.999999998               0.000000000               0.000288101               0.999999998               0.000000000               0.000301327               0.999999998              -0.000000000               0.000315746               0.999999998              -0.000000000               0.000331304               0.999999998               0.000000000               0.000347943               0.999999998               0.000000000               0.000365758               0.999999998              -0.000000000               0.000384677               0.999999998               0.000000000               0.000404710               0.999999998               0.000000000               0.000425768               0.999999998 </DataArray>
<DataArray type="Float64"                                    Name="defo"                                                      NumberOfComponents=" 3" format="ascii">
              0.000007151               0.000000000               0.999999998              -0.000002193              -0.000000000               0.999999998              -0.000006752              -0.000000000               0.999999998              -0.000009347              -0.000000000               0.999999998              -0.000011237              -0.000000000               0.999999998              -0.000013018               0.000000000               0.999999998              -0.000015013               0.000000000               0.999999998              -0.000017358              -0.000000000               0.999999998              -0.000020177              -0.000000000               0.999999998              -0.000023583              -0.000000000               0.999999998              -0.000027533               0.000000000               0.999999998              -0.000031955              -0.000000000               0.999999998              -0.000036860              -0.000000000               0.999999998              -0.000042295              -0.000000000               0.999999998              -0.000048255              -0.000000000               0.999999998              -0.000054672               0.000000000               0.999999998              -0.000061503              -0.000000000               0.999999998               0.000007044               0.000023076               0.999999998              -0.000001974               0.000020822               0.999999998              -0.000006337               0.000020349               0.999999998              -0.000008890               0.000020905               0.999999998              -0.000010789               0.000022145               0.999999998              -0.000012618               0.000023842               0.999999998              -0.000014734               0.000025923               0.999999998              -0.000017237               0.000028295               0.999999998              -0.000020215               0.000030857               0.999999998              -0.000023738               0.000033646               0.999999998              -0.000027781               0.000036541               0.999999998              -0.000032371               0.000039626               0.999999998              -0.000037490               0.000042839               0.999999998              -0.000043110               0.000046367               0.999999998              -0.000049237               0.000050056               0.999999998              -0.000055815               0.000053780               0.999999998              -0.000062788               0.000057617               0.999999998               0.000006750               0.000045948               0.999999998              -0.000001339               0.000041409               0.999999998              -0.000005206               0.000040532               0.999999998              -0.000007567               0.000041739               0.999999998              -0.000009530               0.000044272               0.999999998              -0.000011617               0.000047778               0.999999998              -0.000014047               0.000051924               0.999999998              -0.000016946               0.000056640               0.999999998              -0.000020373               0.000061823               0.999999998              -0.000024342               0.000067310               0.999999998              -0.000028890               0.000073132               0.999999998              -0.000033991               0.000079252               0.999999998              -0.000039573               0.000085802               0.999999998              -0.000045710               0.000092826               0.999999998              -0.000052345               0.000100075               0.999999998              -0.000059370               0.000107373               0.999999998              -0.000066746               0.000114894               0.999999998               0.000006344               0.000068400               0.999999998              -0.000000247               0.000061536               0.999999998              -0.000003412               0.000060368               0.999999998              -0.000005610               0.000062361               0.999999998              -0.000007784               0.000066338               0.999999998              -0.000010299               0.000071631               0.999999998              -0.000013303               0.000077973               0.999999998              -0.000016892               0.000085116               0.999999998              -0.000021032               0.000092832               0.999999998              -0.000025782               0.000101087               0.999999998              -0.000031112               0.000109790               0.999999998              -0.000037006               0.000119035               0.999999998              -0.000043477               0.000128768               0.999999998              -0.000050418               0.000139147               0.999999998              -0.000057770               0.000149794               0.999999998              -0.000065449               0.000160461               0.999999998              -0.000073418               0.000171483               0.999999998               0.000005818               0.000090214               0.999999998               0.000001245               0.000081010               0.999999998              -0.000001113               0.000079780               0.999999998              -0.000003312               0.000082767               0.999999998              -0.000005910               0.000088302               0.999999998              -0.000009115               0.000095544               0.999999998              -0.000013018               0.000104067               0.999999998              -0.000017504               0.000113570               0.999999998              -0.000022633               0.000123839               0.999999998              -0.000028347               0.000134769               0.999999998              -0.000034639               0.000146382               0.999999998              -0.000041567               0.000158678               0.999999998              -0.000049020               0.000171664               0.999999998              -0.000056910               0.000185234               0.999999998              -0.000065079               0.000199061               0.999999998              -0.000073527               0.000212912               0.999999998              -0.000082264               0.000227093               0.999999998               0.000005266               0.000111214               0.999999998               0.000003140               0.000099815               0.999999998               0.000001427               0.000098750               0.999999998              -0.000000987               0.000102876               0.999999998              -0.000004285               0.000110049               0.999999998              -0.000008488               0.000119222               0.999999998              -0.000013418               0.000129960               0.999999998              -0.000019011               0.000141773               0.999999998              -0.000025219               0.000154592               0.999999998              -0.000032059               0.000168211               0.999999998              -0.000039482               0.000182770               0.999999998              -0.000047445               0.000198208               0.999999998              -0.000055916               0.000214405               0.999999998              -0.000064695               0.000230981               0.999999998              -0.000073693               0.000247821               0.999999998              -0.000082876               0.000264735               0.999999998              -0.000092262               0.000281954               0.999999998               0.000004739               0.000131195               0.999999998               0.000005269               0.000117904               0.999999998               0.000003986               0.000117196               0.999999998               0.000001103               0.000122560               0.999999998              -0.000003192               0.000131419               0.999999998              -0.000008489               0.000142605               0.999999998              -0.000014573               0.000155495               0.999999998              -0.000021329               0.000169696               0.999999998              -0.000028701               0.000185072               0.999999998              -0.000036629               0.000201543               0.999999998              -0.000045083               0.000219071               0.999999998              -0.000054037               0.000237701               0.999999998              -0.000063412               0.000257068               0.999999998              -0.000072995               0.000276542               0.999999998              -0.000082737               0.000296198               0.999999998              -0.000092671               0.000316087               0.999999998              -0.000102940               0.000336468               0.999999998               0.000004246               0.000149931               0.999999998               0.000007468               0.000135188               0.999999998               0.000006360               0.000135009               0.999999998               0.000002693               0.000141660               0.999999998              -0.000002684               0.000152254               0.999999998              -0.000009132               0.000165486               0.999999998              -0.000016396               0.000180589               0.999999998              -0.000024307               0.000197307               0.999999998              -0.000032691               0.000215415               0.999999998              -0.000041570               0.000234785               0.999999998              -0.000051058               0.000255380               0.999999998              -0.000061015               0.000277075               0.999999998              -0.000071188               0.000299323               0.999999998              -0.000081455               0.000321789               0.999999998              -0.000092003               0.000344664               0.999999998              -0.000102906               0.000368043               0.999999998              -0.000114265               0.000392226               0.999999998               0.000003678               0.000167041               0.999999998               0.000009640               0.000151650               0.999999998               0.000008265               0.000152069               0.999999998               0.000003684               0.000160013               0.999999998              -0.000002767               0.000172432               0.999999998              -0.000010362               0.000187757               0.999999998              -0.000018671               0.000205226               0.999999998              -0.000027478               0.000224576               0.999999998              -0.000036735               0.000245530               0.999999998              -0.000046641               0.000267961               0.999999998              -0.000057086               0.000291664               0.999999998              -0.000067883               0.000316396               0.999999998              -0.000078685               0.000341791               0.999999998              -0.000089714               0.000367835               0.999999998              -0.000101124               0.000394659               0.999999998              -0.000112947               0.000422501               0.999999998              -0.000125134               0.000451193               0.999999998               0.000002836               0.000183021               0.999999998               0.000010927               0.000168734               0.999999998               0.000010547               0.000167504               0.999999998               0.000006796               0.000173544               0.999999998               0.000001067               0.000184028               0.999999998              -0.000005739               0.000197496               0.999999998              -0.000013211               0.000213098               0.999999998              -0.000021050               0.000230468               0.999999998              -0.000029168               0.000249458               0.999999998              -0.000037720               0.000269828               0.999999998              -0.000046772               0.000291491               0.999999998              -0.000056307               0.000314255               0.999999998              -0.000065941               0.000337909               0.999999998              -0.000075639               0.000362369               0.999999998              -0.000085421               0.000387572               0.999999998              -0.000095333               0.000413812               0.999999998              -0.000105648               0.000441247               0.999999998               0.000002163               0.000197454               0.999999998               0.000011401               0.000185072               0.999999998               0.000012101               0.000183064               0.999999998               0.000009262               0.000187536               0.999999998               0.000004449               0.000196343               0.999999998              -0.000001504               0.000208080               0.999999998              -0.000008044               0.000221944               0.999999998              -0.000014877               0.000237544               0.999999998              -0.000021998               0.000254657               0.999999998              -0.000029221               0.000273188               0.999999998              -0.000036873               0.000292956               0.999999998              -0.000045076               0.000313866               0.999999998              -0.000053557               0.000335683               0.999999998              -0.000062006               0.000358427               0.999999998              -0.000070349               0.000382066               0.999999998              -0.000078492               0.000406685               0.999999998              -0.000086803               0.000432436               0.999999998               0.000001595               0.000210035               0.999999998               0.000011053               0.000200207               0.999999998               0.000012629               0.000198098               0.999999998               0.000010746               0.000201527               0.999999998               0.000006947               0.000208927               0.999999998               0.000001942               0.000219168               0.999999998              -0.000003625               0.000231493               0.999999998              -0.000009515               0.000245466               0.999999998              -0.000015515               0.000260957               0.999999998              -0.000021591               0.000277790               0.999999998              -0.000027911               0.000295893               0.999999998              -0.000034788               0.000315107               0.999999998              -0.000041936               0.000335274               0.999999998              -0.000048979               0.000356428               0.999999998              -0.000055653               0.000378568               0.999999998              -0.000062211               0.000401734               0.999999998              -0.000068675               0.000425948               0.999999998               0.000001122               0.000220560               0.999999998               0.000009913               0.000213570               0.999999998               0.000012009               0.000211965               0.999999998               0.000010972               0.000214819               0.999999998               0.000008190               0.000221183               0.999999998               0.000004276               0.000230179               0.999999998              -0.000000312               0.000241263               0.999999998              -0.000005185               0.000253919               0.999999998              -0.000010072               0.000268041               0.999999998              -0.000014998               0.000283458               0.999999998              -0.000020039               0.000300148               0.999999998              -0.000025509               0.000318006               0.999999998              -0.000031163               0.000336845               0.999999998              -0.000036644               0.000356588               0.999999998              -0.000041902               0.000377305               0.999999998              -0.000046717               0.000399115               0.999999998              -0.000051163               0.000422055               0.999999998               0.000000740               0.000228906               0.999999998               0.000008072               0.000224615               0.999999998               0.000010255               0.000223874               0.999999998               0.000009836               0.000226583               0.999999998               0.000007964               0.000232285               0.999999998               0.000005154               0.000240446               0.999999998               0.000001676               0.000250518               0.999999998              -0.000002035               0.000262256               0.999999998              -0.000005786               0.000275424               0.999999998              -0.000009525               0.000289785               0.999999998              -0.000013391               0.000305387               0.999999998              -0.000017372               0.000322200               0.999999998              -0.000021554               0.000340095               0.999999998              -0.000025679               0.000358835               0.999999998              -0.000029360               0.000378492               0.999999998              -0.000032420               0.000399209               0.999999998              -0.000034870               0.000421112               0.999999998               0.000000444               0.000234959               0.999999998               0.000005685               0.000232919               0.999999998               0.000007493               0.000233056               0.999999998               0.000007424               0.000235926               0.999999998               0.000006332               0.000241304               0.999999998               0.000004496               0.000248908               0.999999998               0.000002242               0.000258371               0.999999998              -0.000000286               0.000269462               0.999999998              -0.000002737               0.000281966               0.999999998              -0.000005285               0.000295696               0.999999998              -0.000007927               0.000310580               0.999999998              -0.000010651               0.000326613               0.999999998              -0.000013373               0.000343752               0.999999998              -0.000016076               0.000361932               0.999999998              -0.000018293               0.000381113               0.999999998              -0.000019935               0.000401255               0.999999998              -0.000020841               0.000422525               0.999999998               0.000000204               0.000238604               0.999999998               0.000002929               0.000238064               0.999999998               0.000003955               0.000238881               0.999999998               0.000003990               0.000241950               0.999999998               0.000003497               0.000247234               0.999999998               0.000002630               0.000254545               0.999999998               0.000001489               0.000263641               0.999999998               0.000000230               0.000274348               0.999999998              -0.000000996               0.000286489               0.999999998              -0.000002206               0.000299901               0.999999998              -0.000003616               0.000314371               0.999999998              -0.000005170               0.000330002               0.999999998              -0.000006401               0.000346784               0.999999998              -0.000007441               0.000364656               0.999999998              -0.000008707               0.000383640               0.999999998              -0.000009369               0.000403662               0.999999998              -0.000009373               0.000424713               0.999999998              -0.000000000               0.000239845               0.999999998              -0.000000000               0.000239823               0.999999998              -0.000000000               0.000240881               0.999999998               0.000000000               0.000244028               0.999999998               0.000000000               0.000249300               0.999999998               0.000000000               0.000256529               0.999999998               0.000000000               0.000265548               0.999999998               0.000000000               0.000276141               0.999999998               0.000000000               0.000288101               0.999999998               0.000000000               0.000301327               0.999999998              -0.000000000               0.000315746               0.999999998              -0.000000000               0.000331304               0.999999998               0.000000000               0.000347943               0.999999998               0.000000000               0.000365758               0.999999998              -0.000000000               0.000384677               0.999999998               0.000000000               0.000404710               0.999999998               0.000000000               0.000425768               0.999999998               0.000007151               0.000000000               0.999999998              -0.000002193              -0.000000000               0.999999998              -0.000006752              -0.000000000               0.999999998              -0.000009347              -0.000000000               0.999999998              -0.000011237              -0.000000000               0.999999998              -0.000013018               0.000000000               0.999999998              -0.000015013               0.000000000               0.999999998              -0.000017358              -0.000000000               0.999999998              -0.000020177              -0.000000000               0.999999998              -0.000023583              -0.000000000               0.999999998              -0.000027533               0.000000000               0.999999998              -0.000031955              -0.000000000               0.999999998              -0.000036860              -0.000000000               0.999999998              -0.000042295              -0.000000000               0.999999998              -0.000048255              -0.000000000               0.999999998              -0.000054672               0.000000000               0.999999998              -0.000061503              -0.000000000               0.999999998               0.000007044              -0.000023076               0.999999998              -0.000001974              -0.000020822               0.999999998              -0.000006337              -0.000020349               0.999999998              -0.000008890              -0.000020905               0.999999998              -0.000010789              -0.000022145               0.999999998              -0.000012618              -0.000023842               0.999999998              -0.000014734              -0.000025923               0.999999998              -0.000017237              -0.000028295               0.999999998              -0.000020215              -0.000030857               0.999999998              -0.000023738              -0.000033646               0.999999998              -0.000027781              -0.000036541               0.999999998              -0.000032371              -0.000039626               0.999999998              -0.000037490              -0.000042839               0.999999998              -0.000043110              -0.000046367               0.999999998              -0.000049237              -0.000050056               0.999999998              -0.000055815              -0.000053780               0.999999998              -0.000062788              -0.000057617               0.999999998               0.000006750              -0.000045948               0.999999998              -0.000001339              -0.000041409               0.999999998              -0.000005206              -0.000040532               0.999999998              -0.000007567              -0.000041739               0.999999998              -0.000009530              -0.000044272               0.999999998              -0.000011617              -0.000047778               0.999999998              -0.000014047              -0.000051924               0.999999998              -0.000016946              -0.000056640               0.999999998              -0.000020373              -0.000061823               0.999999998              -0.000024342              -0.000067310               0.999999998              -0.000028890              -0.000073132               0.999999998              -0.000033991              -0.000079252               0.999999998              -0.000039573              -0.000085802               0.999999998              -0.000045710              -0.000092826               0.999999998              -0.000052345              -0.000100075               0.999999998              -0.000059370              -0.000107373               0.999999998              -0.000066746              -0.000114894               0.999999998               0.000006344              -0.000068400               0.999999998              -0.000000247              -0.000061536               0.999999998              -0.000003412              -0.000060368               0.999999998              -0.000005610              -0.000062361               0.999999998              -0.000007784              -0.000066338               0.999999998              -0.000010299              -0.000071631               0.999999998              -0.000013303              -0.000077973               0.999999998              -0.000016892              -0.000085116               0.999999998              -0.000021032              -0.000092832               0.999999998              -0.000025782              -0.000101087               0.999999998              -0.000031112              -0.000109790               0.999999998              -0.000037006              -0.000119035               0.999999998              -0.000043477              -0.000128768               0.999999998              -0.000050418              -0.000139147               0.999999998              -0.000057770              -0.000149794               0.999999998              -0.000065449              -0.000160461               0.999999998              -0.000073418              -0.000171483               0.999999998               0.000005818              -0.000090214               0.999999998               0.000001245              -0.000081010               0.999999998              -0.000001113              -0.000079780               0.999999998              -0.000003312              -0.000082767               0.999999998              -0.000005910              -0.000088302               0.999999998              -0.000009115              -0.000095544               0.999999998              -0.000013018              -0.000104067               0.999999998              -0.000017504              -0.000113570               0.999999998              -0.000022633              -0.000123839               0.999999998              -0.000028347              -0.000134769               0.999999998              -0.000034639              -0.000146382               0.999999998              -0.000041567              -0.000158678               0.999999998              -0.000049020              -0.000171664               0.999999998              -0.000056910              -0.000185234               0.999999998              -0.000065079              -0.000199061               0.999999998              -0.000073527              -0.000212912               0.999999998              -0.000082264              -0.000227093               0.999999998               0.000005266              -0.000111214               0.999999998               0.000003140              -0.000099815               0.999999998               0.000001427              -0.000098750               0.999999998              -0.000000987              -0.000102876               0.999999998              -0.000004285              -0.000110049               0.999999998              -0.000008488              -0.000119222               0.999999998              -0.000013418              -0.000129960               0.999999998              -0.000019011              -0.000141773               0.999999998              -0.000025219              -0.000154592               0.999999998              -0.000032059              -0.000168211               0.999999998              -0.000039482              -0.000182770               0.999999998              -0.000047445              -0.000198208               0.999999998              -0.000055916              -0.000214405               0.999999998              -0.000064695              -0.000230981               0.999999998              -0.000073693              -0.000247821               0.999999998              -0.000082876              -0.000264735               0.999999998              -0.000092262              -0.000281954               0.999999998               0.000004739              -0.000131195               0.999999998               0.000005269              -0.000117904               0.999999998               0.000003986              -0.000117196               0.999999998               0.000001103              -0.000122560               0.999999998              -0.000003192              -0.000131419               0.999999998              -0.000008489              -0.000142605               0.999999998              -0.000014573              -0.000155495               0.999999998              -0.000021329              -0.000169696               0.999999998              -0.000028701              -0.000185072               0.999999998              -0.000036629              -0.000201543               0.999999998              -0.000045083              -0.000219071               0.999999998              -0.000054037              -0.000237701               0.999999998              -0.000063412              -0.000257068               0.999999998              -0.000072995              -0.000276542               0.999999998              -0.000082737              -0.000296198               0.999999998              -0.000092671              -0.000316087               0.999999998              -0.000102940              -0.000336468               0.999999998               0.000004246              -0.000149931               0.999999998               0.000007468              -0.000135188               0.999999998               0.000006360              -0.000135009               0.999999998               0.000002693              -0.000141660               0.999999998              -0.000002684              -0.000152254               0.999999998              -0.000009132              -0.000165486               0.999999998              -0.000016396              -0.000180589               0.999999998              -0.000024307              -0.000197307               0.999999998              -0.000032691              -0.000215415               0.999999998              -0.000041570              -0.000234785               0.999999998              -0.000051058              -0.000255380               0.999999998              -0.000061015              -0.000277075               0.999999998              -0.000071188              -0.000299323               0.999999998              -0.000081455              -0.000321789               0.999999998              -0.000092003              -0.000344664               0.999999998              -0.000102906              -0.000368043               0.999999998              -0.000114265              -0.000392226               0.999999998               0.000003678              -0.000167041               0.999999998               0.000009640              -0.000151650               0.999999998               0.000008265              -0.000152069               0.999999998               0.000003684              -0.000160013               0.999999998              -0.000002767              -0.000172432               0.999999998              -0.000010362              -0.000187757               0.999999998              -0.000018671              -0.000205226               0.999999998              -0.000027478              -0.000224576               0.999999998              -0.000036735              -0.000245530               0.999999998              -0.000046641              -0.000267961               0.999999998              -0.000057086              -0.000291664               0.999999998              -0.000067883              -0.000316396               0.999999998              -0.000078685              -0.000341791               0.999999998              -0.000089714              -0.000367835               0.999999998              -0.000101124              -0.000394659               0.999999998              -0.000112947              -0.000422501               0.999999998              -0.000125134              -0.000451193               0.999999998               0.000002836              -0.000183021               0.999999998               0.000010927              -0.000168734               0.999999998               0.000010547              -0.000167504               0.999999998               0.000006796              -0.000173544               0.999999998               0.000001067              -0.000184028               0.999999998              -0.000005739              -0.000197496               0.999999998              -0.000013211              -0.000213098               0.999999998              -0.000021050              -0.000230468               0.999999998              -0.000029168              -0.000249458               0.999999998              -0.000037720              -0.000269828               0.999999998              -0.000046772              -0.000291491               0.999999998              -0.000056307              -0.000314255               0.999999998              -0.000065941              -0.000337909               0.999999998              -0.000075639              -0.000362369               0.999999998              -0.000085421              -0.000387572               0.999999998              -0.000095333              -0.000413812               0.999999998              -0.000105648              -0.000441247               0.999999998               0.000002163              -0.000197454               0.999999998               0.000011401              -0.000185072               0.999999998               0.000012101              -0.000183064               0.999999998               0.000009262              -0.000187536               0.999999998               0.000004449              -0.000196343               0.999999998              -0.000001504              -0.000208080               0.999999998              -0.000008044              -0.000221944               0.999999998              -0.000014877              -0.000237544               0.999999998              -0.000021998              -0.000254657               0.999999998              -0.000029221              -0.000273188               0.999999998              -0.000036873              -0.000292956               0.999999998              -0.000045076              -0.000313866               0.999999998              -0.000053557              -0.000335683               0.999999998              -0.000062006              -0.000358427               0.999999998              -0.000070349              -0.000382066               0.999999998              -0.000078492              -0.000406685               0.999999998              -0.000086803              -0.000432436               0.999999998               0.000001595              -0.000210035               0.999999998               0.000011053              -0.000200207               0.999999998               0.000012629              -0.000198098               0.999999998               0.000010746              -0.000201527               0.999999998               0.000006947              -0.000208927               0.999999998               0.000001942              -0.000219168               0.999999998              -0.000003625              -0.000231493               0.999999998              -0.000009515              -0.000245466               0.999999998              -0.000015515              -0.000260957               0.999999998              -0.000021591              -0.000277790               0.999999998              -0.000027911              -0.000295893               0.999999998              -0.000034788              -0.000315107               0.999999998              -0.000041936              -0.000335274               0.999999998              -0.000048979              -0.000356428               0.999999998              -0.000055653              -0.000378568               0.999999998              -0.000062211              -0.000401734               0.999999998              -0.000068675              -0.000425948               0.999999998               0.000001122              -0.000220560               0.999999998               0.000009913              -0.000213570               0.999999998               0.000012009              -0.000211965               0.999999998               0.000010972              -0.000214819               0.999999998               0.000008190              -0.000221183               0.999999998               0.000004276              -0.000230179               0.999999998              -0.000000312              -0.000241263               0.999999998              -0.000005185              -0.000253919               0.999999998              -0.000010072              -0.000268041               0.999999998              -0.000014998              -0.000283458               0.999999998              -0.000020039              -0.000300148               0.999999998              -0.000025509              -0.000318006               0.999999998              -0.000031163              -0.000336845               0.999999998              -0.000036644              -0.000356588               0.999999998              -0.000041902              -0.000377305               0.999999998              -0.000046717              -0.000399115               0.999999998              -0.000051163              -0.000422055               0.999999998               0.000000740              -0.000228906               0.999999998               0.000008072              -0.000224615               0.999999998               0.000010255              -0.000223874               0.999999998               0.000009836              -0.000226583               0.999999998               0.000007964              -0.000232285               0.999999998               0.000005154              -0.000240446               0.999999998               0.000001676              -0.000250518               0.999999998              -0.000002035              -0.000262256               0.999999998              -0.000005786              -0.000275424               0.999999998              -0.000009525              -0.000289785               0.999999998              -0.000013391              -0.000305387               0.999999998              -0.000017372              -0.000322200               0.999999998              -0.000021554              -0.000340095               0.999999998              -0.000025679              -0.000358835               0.999999998              -0.000029360              -0.000378492               0.999999998              -0.000032420              -0.000399209               0.999999998              -0.000034870              -0.000421112               0.999999998               0.000000444              -0.000234959               0.999999998               0.000005685              -0.000232919               0.999999998               0.000007493              -0.000233056               0.999999998               0.000007424              -0.000235926               0.999999998               0.000006332              -0.000241304               0.999999998               0.000004496              -0.000248908               0.999999998               0.000002242              -0.000258371               0.999999998              -0.000000286              -0.000269462               0.999999998              -0.000002737              -0.000281966               0.999999998              -0.000005285              -0.000295696               0.999999998              -0.000007927              -0.000310580               0.999999998              -0.000010651              -0.000326613               0.999999998              -0.000013373              -0.000343752               0.999999998              -0.000016076              -0.000361932               0.999999998              -0.000018293              -0.000381113               0.999999998              -0.000019935              -0.000401255               0.999999998              -0.000020841              -0.000422525               0.999999998               0.000000204              -0.000238604               0.999999998               0.000002929              -0.000238064               0.999999998               0.000003955              -0.000238881               0.999999998               0.000003990              -0.000241950               0.999999998               0.000003497              -0.000247234               0.999999998               0.000002630              -0.000254545               0.999999998               0.000001489              -0.000263641               0.999999998               0.000000230              -0.000274348               0.999999998              -0.000000996              -0.000286489               0.999999998              -0.000002206              -0.000299901               0.999999998              -0.000003616              -0.000314371               0.999999998              -0.000005170              -0.000330002               0.999999998              -0.000006401              -0.000346784               0.999999998              -0.000007441              -0.000364656               0.999999998              -0.000008707              -0.000383640               0.999999998              -0.000009369              -0.000403662               0.999999998              -0.000009373              -0.000424713               0.999999998               0.000000000              -0.000239845               0.999999998              -0.000000000              -0.000239823               0.999999998              -0.000000000              -0.000240881               0.999999998              -0.000000000              -0.000244028               0.999999998              -0.000000000              -0.000249300               0.999999998               0.000000000              -0.000256529               0.999999998              -0.000000000              -0.000265548               0.999999998              -0.000000000              -0.000276141               0.999999998               0.000000000              -0.000288101               0.999999998               0.000000000              -0.000301327               0.999999998              -0.000000000              -0.000315746               0.999999998              -0.000000000              -0.000331304               0.999999998              -0.000000000              -0.000347943               0.999999998              -0.000000000              -0.000365758               0.999999998              -0.000000000              -0.000384677               0.999999998               0.000000000              -0.000404710               0.999999998               0.000000000              -0.000425768               0.999999998              -0.000007151              -0.000000000               0.999999998               0.000002193               0.000000000               0.999999998               0.000006752               0.000000000               0.999999998               0.000009347               0.000000000               0.999999998               0.000011237               0.000000000               0.999999998               0.000013018               0.000000000               0.999999998               0.000015013               0.000000000               0.999999998               0.000017358               0.000000000               0.999999998               0.000020177               0.000000000               0.999999998               0.000023583               0.000000000               0.999999998               0.000027533               0.000000000               0.999999998               0.000031955               0.000000000               0.999999998               0.000036860               0.000000000               0.999999998               0.000042295               0.000000000               0.999999998               0.000048255               0.000000000               0.999999998               0.000054672               0.000000000               0.999999998               0.000061503              -0.000000000               0.999999998              -0.000007044              -0.000023076               0.999999998               0.000001974              -0.000020822               0.999999998               0.000006337              -0.000020349               0.999999998               0.000008890              -0.000020905               0.999999998               0.000010789              -0.000022145               0.999999998               0.000012618              -0.000023842               0.999999998               0.000014734              -0.000025923               0.999999998               0.000017237              -0.000028295               0.999999998               0.000020215              -0.000030857               0.999999998               0.000023738              -0.000033646               0.999999998               0.000027781              -0.000036541               0.999999998               0.000032371              -0.000039626               0.999999998               0.000037490              -0.000042839               0.999999998               0.000043110              -0.000046367               0.999999998               0.000049237              -0.000050056               0.999999998               0.000055815              -0.000053780               0.999999998               0.000062788              -0.000057617               0.999999998              -0.000006750              -0.000045948               0.999999998               0.000001339              -0.000041409               0.999999998               0.000005206              -0.000040532               0.999999998               0.000007567              -0.000041739               0.999999998               0.000009530              -0.000044272               0.999999998               0.000011617              -0.000047778               0.999999998               0.000014047              -0.000051924               0.999999998               0.000016946              -0.000056640               0.999999998               0.000020373              -0.000061823               0.999999998               0.000024342              -0.000067310               0.999999998               0.000028890              -0.000073132               0.999999998               0.000033991              -0.000079252               0.999999998               0.000039573              -0.000085802               0.999999998               0.000045710              -0.000092826               0.999999998               0.000052345              -0.000100075               0.999999998               0.000059370              -0.000107373               0.999999998               0.000066746              -0.000114894               0.999999998              -0.000006344              -0.000068400               0.999999998               0.000000247              -0.000061536               0.999999998               0.000003412              -0.000060368               0.999999998               0.000005610              -0.000062361               0.999999998               0.000007784              -0.000066338               0.999999998               0.000010299              -0.000071631               0.999999998               0.000013303              -0.000077973               0.999999998               0.000016892              -0.000085116               0.999999998               0.000021032              -0.000092832               0.999999998               0.000025782              -0.000101087               0.999999998               0.000031112              -0.000109790               0.999999998               0.000037006              -0.000119035               0.999999998               0.000043477              -0.000128768               0.999999998               0.000050418              -0.000139147               0.999999998               0.000057770              -0.000149794               0.999999998               0.000065449              -0.000160461               0.999999998               0.000073418              -0.000171483               0.999999998              -0.000005818              -0.000090214               0.999999998              -0.000001245              -0.000081010               0.999999998               0.000001113              -0.000079780               0.999999998               0.000003312              -0.000082767               0.999999998               0.000005910              -0.000088302               0.999999998               0.000009115              -0.000095544               0.999999998               0.000013018              -0.000104067               0.999999998               0.000017504              -0.000113570               0.999999998               0.000022633              -0.000123839               0.999999998               0.000028347              -0.000134769               0.999999998               0.000034639              -0.000146382               0.999999998               0.000041567              -0.000158678               0.999999998               0.000049020              -0.000171664               0.999999998               0.000056910              -0.000185234               0.999999998               0.000065079              -0.000199061               0.999999998               0.000073527              -0.000212912               0.999999998               0.000082264              -0.000227093               0.999999998              -0.000005266              -0.000111214               0.999999998              -0.000003140              -0.000099815               0.999999998              -0.000001427              -0.000098750               0.999999998               0.000000987              -0.000102876               0.999999998               0.000004285              -0.000110049               0.999999998               0.000008488              -0.000119222               0.999999998               0.000013418              -0.000129960               0.999999998               0.000019011              -0.000141773               0.999999998               0.000025219              -0.000154592               0.999999998               0.000032059              -0.000168211               0.999999998               0.000039482              -0.000182770               0.999999998               0.000047445              -0.000198208               0.999999998               0.000055916              -0.000214405               0.999999998               0.000064695              -0.000230981               0.999999998               0.000073693              -0.000247821               0.999999998               0.000082876              -0.000264735               0.999999998               0.000092262              -0.000281954               0.999999998              -0.000004739              -0.000131195               0.999999998              -0.000005269              -0.000117904               0.999999998              -0.000003986              -0.000117196               0.999999998              -0.000001103              -0.000122560               0.999999998               0.000003192              -0.000131419               0.999999998               0.000008489              -0.000142605               0.999999998               0.000014573              -0.000155495               0.999999998               0.000021329              -0.000169696               0.999999998               0.000028701              -0.000185072               0.999999998               0.000036629              -0.000201543               0.999999998               0.000045083              -0.000219071               0.999999998               0.000054037              -0.000237701               0.999999998               0.000063412              -0.000257068               0.999999998               0.000072995              -0.000276542               0.999999998               0.000082737              -0.000296198               0.999999998               0.000092671              -0.000316087               0.999999998               0.000102940              -0.000336468               0.999999998              -0.000004246              -0.000149931               0.999999998              -0.000007468              -0.000135188               0.999999998              -0.000006360              -0.000135009               0.999999998              -0.000002693              -0.000141660               0.999999998               0.000002684              -0.000152254               0.999999998               0.000009132              -0.000165486               0.999999998               0.000016396              -0.000180589               0.999999998               0.000024307              -0.000197307               0.999999998               0.000032691              -0.000215415               0.999999998               0.000041570              -0.000234785               0.999999998               0.000051058              -0.000255380               0.999999998               0.000061015              -0.000277075               0.999999998               0.000071188              -0.000299323               0.999999998               0.000081455              -0.000321789               0.999999998               0.000092003              -0.000344664               0.999999998               0.000102906              -0.000368043               0.999999998               0.000114265              -0.000392226               0.999999998              -0.000003678              -0.000167041               0.999999998              -0.000009640              -0.000151650               0.999999998              -0.000008265              -0.000152069               0.999999998              -0.000003684              -0.000160013               0.999999998               0.000002767              -0.000172432               0.999999998               0.000010362              -0.000187757               0.999999998               0.000018671              -0.000205226               0.999999998               0.000027478              -0.000224576               0.999999998               0.000036735              -0.000245530               0.999999998               0.000046641              -0.000267961               0.999999998               0.000057086              -0.000291664               0.999999998               0.000067883              -0.000316396               0.999999998               0.000078685              -0.000341791               0.999999998               0.000089714              -0.000367835               0.999999998               0.000101124              -0.000394659               0.999999998               0.000112947              -0.000422501               0.999999998               0.000125134              -0.000451193               0.999999998              -0.000002836              -0.000183021               0.999999998              -0.000010927              -0.000168734               0.999999998              -0.000010547              -0.000167504               0.999999998              -0.000006796              -0.000173544               0.999999998              -0.000001067              -0.000184028               0.999999998               0.000005739              -0.000197496               0.999999998               0.000013211              -0.000213098               0.999999998               0.000021050              -0.000230468               0.999999998               0.000029168              -0.000249458               0.999999998               0.000037720              -0.000269828               0.999999998               0.000046772              -0.000291491               0.999999998               0.000056307              -0.000314255               0.999999998               0.000065941              -0.000337909               0.999999998               0.000075639              -0.000362369               0.999999998               0.000085421              -0.000387572               0.999999998               0.000095333              -0.000413812               0.999999998               0.000105648              -0.000441247               0.999999998              -0.000002163              -0.000197454               0.999999998              -0.000011401              -0.000185072               0.999999998              -0.000012101              -0.000183064               0.999999998              -0.000009262              -0.000187536               0.999999998              -0.000004449              -0.000196343               0.999999998               0.000001504              -0.000208080               0.999999998               0.000008044              -0.000221944               0.999999998               0.000014877              -0.000237544               0.999999998               0.000021998              -0.000254657               0.999999998               0.000029221              -0.000273188               0.999999998               0.000036873              -0.000292956               0.999999998               0.000045076              -0.000313866               0.999999998               0.000053557              -0.000335683               0.999999998               0.000062006              -0.000358427               0.999999998               0.000070349              -0.000382066               0.999999998               0.000078492              -0.000406685               0.999999998               0.000086803              -0.000432436               0.999999998              -0.000001595              -0.000210035               0.999999998              -0.000011053              -0.000200207               0.999999998              -0.000012629              -0.000198098               0.999999998              -0.000010746              -0.000201527               0.999999998              -0.000006947              -0.000208927               0.999999998              -0.000001942              -0.000219168               0.999999998               0.000003625              -0.000231493               0.999999998               0.000009515              -0.000245466               0.999999998               0.000015515              -0.000260957               0.999999998               0.000021591              -0.000277790               0.999999998               0.000027911              -0.000295893               0.999999998               0.000034788              -0.000315107               0.999999998               0.000041936              -0.000335274               0.999999998               0.000048979              -0.000356428               0.999999998               0.000055653              -0.000378568               0.999999998               0.000062211              -0.000401734               0.999999998               0.000068675              -0.000425948               0.999999998              -0.000001122              -0.000220560               0.999999998              -0.000009913              -0.000213570               0.999999998              -0.000012009              -0.000211965               0.999999998              -0.000010972              -0.000214819               0.999999998              -0.000008190              -0.000221183               0.999999998              -0.000004276              -0.000230179               0.999999998               0.000000312              -0.000241263               0.999999998               0.000005185              -0.000253919               0.999999998               0.000010072              -0.000268041               0.999999998               0.000014998              -0.000283458               0.999999998               0.000020039              -0.000300148               0.999999998               0.000025509              -0.000318006               0.999999998               0.000031163              -0.000336845               0.999999998               0.000036644              -0.000356588               0.999999998               0.000041902              -0.000377305               0.999999998               0.000046717              -0.000399115               0.999999998               0.000051163              -0.000422055               0.999999998              -0.000000740              -0.000228906               0.999999998              -0.000008072              -0.000224615               0.999999998              -0.000010255              -0.000223874               0.999999998              -0.000009836              -0.000226583               0.999999998              -0.000007964              -0.000232285               0.999999998              -0.000005154              -0.000240446               0.999999998              -0.000001676              -0.000250518               0.999999998               0.000002035              -0.000262256               0.999999998               0.000005786              -0.000275424               0.999999998               0.000009525              -0.000289785               0.999999998               0.000013391              -0.000305387               0.999999998               0.000017372              -0.000322200               0.999999998               0.000021554              -0.000340095               0.999999998               0.000025679              -0.000358835               0.999999998               0.000029360              -0.000378492               0.999999998               0.000032420              -0.000399209               0.999999998               0.000034870              -0.000421112               0.999999998              -0.000000444              -0.000234959               0.999999998              -0.000005685              -0.000232919               0.999999998              -0.000007493              -0.000233056               0.999999998              -0.000007424              -0.000235926               0.999999998              -0.000006332              -0.000241304               0.999999998              -0.000004496              -0.000248908               0.999999998              -0.000002242              -0.000258371               0.999999998               0.000000286              -0.000269462               0.999999998               0.000002737              -0.000281966               0.999999998               0.000005285              -0.000295696               0.999999998               0.000007927              -0.000310580               0.999999998               0.000010651              -0.000326613               0.999999998               0.000013373              -0.000343752               0.999999998               0.000016076              -0.000361932               0.999999998               0.000018293              -0.000381113               0.999999998               0.000019935              -0.000401255               0.999999998               0.000020841              -0.000422525               0.999999998              -0.000000204              -0.000238604               0.999999998              -0.000002929              -0.000238064               0.999999998              -0.000003955              -0.000238881               0.999999998              -0.000003990              -0.000241950               0.999999998              -0.000003497              -0.000247234               0.999999998              -0.000002630              -0.000254545               0.999999998              -0.000001489              -0.000263641               0.999999998              -0.000000230              -0.000274348               0.999999998               0.000000996              -0.000286489               0.999999998               0.000002206              -0.000299901               0.999999998               0.000003616              -0.000314371               0.999999998               0.000005170              -0.000330002               0.999999998               0.000006401              -0.000346784               0.999999998               0.000007441              -0.000364656               0.999999998               0.000008707              -0.000383640               0.999999998               0.000009369              -0.000403662               0.999999998               0.000009373              -0.000424713               0.999999998               0.000000000              -0.000239845               0.999999998              -0.000000000              -0.000239823               0.999999998              -0.000000000              -0.000240881               0.999999998              -0.000000000              -0.000244028               0.999999998              -0.000000000              -0.000249300               0.999999998               0.000000000              -0.000256529               0.999999998              -0.000000000              -0.000265548               0.999999998              -0.000000000              -0.000276141               0.999999998               0.000000000              -0.000288101               0.999999998               0.000000000              -0.000301327               0.999999998              -0.000000000              -0.000315746               0.999999998              -0.000000000              -0.000331304               0.999999998              -0.000000000              -0.000347943               0.999999998              -0.000000000              -0.000365758               0.999999998              -0.000000000              -0.000384677               0.999999998               0.000000000              -0.000404710               0.999999998               0.000000000              -0.000425768               0.999999998              -0.000007151              -0.000000000               0.999999998               0.000002193               0.000000000               0.999999998               0.000006752               0.000000000               0.999999998               0.000009347               0.000000000               0.999999998               0.000011237               0.000000000               0.999999998               0.000013018               0.000000000               0.999999998               0.000015013               0.000000000               0.999999998               0.000017358               0.000000000               0.999999998               0.000020177               0.000000000               0.999999998               0.000023583               0.000000000               0.999999998               0.000027533               0.000000000               0.999999998               0.000031955               0.000000000               0.999999998               0.000036860               0.000000000               0.999999998               0.000042295               0.000000000               0.999999998               0.000048255               0.000000000               0.999999998               0.000054672               0.000000000               0.999999998               0.000061503              -0.000000000               0.999999998              -0.000007044               0.000023076               0.999999998               0.000001974               0.000020822               0.999999998               0.000006337               0.000020349               0.999999998               0.000008890               0.000020905               0.999999998               0.000010789               0.000022145               0.999999998               0.000012618               0.000023842               0.999999998               0.000014734               0.000025923               0.999999998               0.000017237               0.000028295               0.999999998               0.000020215               0.000030857               0.999999998               0.000023738               0.000033646               0.999999998               0.000027781               0.000036541               0.999999998               0.000032371               0.000039626               0.999999998               0.000037490               0.000042839               0.999999998               0.000043110               0.000046367               0.999999998               0.000049237               0.000050056               0.999999998               0.000055815               0.000053780               0.999999998               0.000062788               0.000057617               0.999999998              -0.000006750               0.000045948               0.999999998               0.000001339               0.000041409               0.999999998               0.000005206               0.000040532               0.999999998               0.000007567               0.000041739               0.999999998               0.000009530               0.000044272               0.999999998               0.000011617               0.000047778               0.999999998               0.000014047               0.000051924               0.999999998               0.000016946               0.000056640               0.999999998               0.000020373               0.000061823               0.999999998               0.000024342               0.000067310               0.999999998               0.000028890               0.000073132               0.999999998               0.000033991               0.000079252               0.999999998               0.000039573               0.000085802               0.999999998               0.000045710               0.000092826               0.999999998               0.000052345               0.000100075               0.999999998               0.000059370               0.000107373               0.999999998               0.000066746               0.000114894               0.999999998              -0.000006344               0.000068400               0.999999998               0.000000247               0.000061536               0.999999998               0.000003412               0.000060368               0.999999998               0.000005610               0.000062361               0.999999998               0.000007784               0.000066338               0.999999998               0.000010299               0.000071631               0.999999998               0.000013303               0.000077973               0.999999998               0.000016892               0.000085116               0.999999998               0.000021032               0.000092832               0.999999998               0.000025782               0.000101087               0.999999998               0.000031112               0.000109790               0.999999998               0.000037006               0.000119035               0.999999998               0.000043477               0.000128768               0.999999998               0.000050418               0.000139147               0.999999998               0.000057770               0.000149794               0.999999998               0.000065449               0.000160461               0.999999998               0.000073418               0.000171483               0.999999998              -0.000005818               0.000090214               0.999999998              -0.000001245               0.000081010               0.999999998               0.000001113               0.000079780               0.999999998               0.000003312               0.000082767               0.999999998               0.000005910               0.000088302               0.999999998               0.000009115               0.000095544               0.999999998               0.000013018               0.000104067               0.999999998               0.000017504               0.000113570               0.999999998               0.000022633               0.000123839               0.999999998               0.000028347               0.000134769               0.999999998               0.000034639               0.000146382               0.999999998               0.000041567               0.000158678               0.999999998               0.000049020               0.000171664               0.999999998               0.000056910               0.000185234               0.999999998               0.000065079               0.000199061               0.999999998               0.000073527               0.000212912               0.999999998               0.000082264               0.000227093               0.999999998              -0.000005266               0.000111214               0.999999998              -0.000003140               0.000099815               0.999999998              -0.000001427               0.000098750               0.999999998               0.000000987               0.000102876               0.999999998               0.000004285               0.000110049               0.999999998               0.000008488               0.000119222               0.999999998               0.000013418               0.000129960               0.999999998               0.000019011               0.000141773               0.999999998               0.000025219               0.000154592               0.999999998               0.000032059               0.000168211               0.999999998               0.000039482               0.000182770               0.999999998               0.000047445               0.000198208               0.999999998               0.000055916               0.000214405               0.999999998               0.000064695               0.000230981               0.999999998               0.000073693               0.000247821               0.999999998               0.000082876               0.000264735               0.999999998               0.000092262               0.000281954               0.999999998              -0.000004739               0.000131195               0.999999998              -0.000005269               0.000117904               0.999999998              -0.000003986               0.000117196               0.999999998              -0.000001103               0.000122560               0.999999998               0.000003192               0.000131419               0.999999998               0.000008489               0.000142605               0.999999998               0.000014573               0.000155495               0.999999998               0.000021329               0.000169696               0.999999998               0.000028701               0.000185072               0.999999998               0.000036629               0.000201543               0.999999998               0.000045083               0.000219071               0.999999998               0.000054037               0.000237701               0.999999998               0.000063412               0.000257068               0.999999998               0.000072995               0.000276542               0.999999998               0.000082737               0.000296198               0.999999998               0.000092671               0.000316087               0.999999998               0.000102940               0.000336468               0.999999998              -0.000004246               0.000149931               0.999999998              -0.000007468               0.000135188               0.999999998              -0.000006360               0.000135009               0.999999998              -0.000002693               0.000141660               0.999999998               0.000002684               0.000152254               0.999999998               0.000009132               0.000165486               0.999999998               0.000016396               0.000180589               0.999999998               0.000024307               0.000197307               0.999999998               0.000032691               0.000215415               0.999999998               0.000041570               0.000234785               0.999999998               0.000051058               0.000255380               0.999999998               0.000061015               0.000277075               0.999999998               0.000071188               0.000299323               0.999999998               0.000081455               0.000321789               0.999999998               0.000092003               0.000344664               0.999999998               0.000102906               0.000368043               0.999999998               0.000114265               0.000392226               0.999999998              -0.000003678               0.000167041               0.999999998              -0.000009640               0.000151650               0.999999998              -0.000008265               0.000152069               0.999999998              -0.000003684               0.000160013               0.999999998               0.000002767               0.000172432               0.999999998               0.000010362               0.000187757               0.999999998               0.000018671               0.000205226               0.999999998               0.000027478               0.000224576               0.999999998               0.000036735               0.000245530               0.999999998               0.000046641               0.000267961               0.999999998               0.000057086               0.000291664               0.999999998               0.000067883               0.000316396               0.999999998               0.000078685               0.000341791               0.999999998               0.000089714               0.000367835               0.999999998               0.000101124               0.000394659               0.999999998               0.000112947               0.000422501               0.999999998               0.000125134               0.000451193               0.999999998              -0.000002836               0.000183021               0.999999998              -0.000010927               0.000168734               0.999999998              -0.000010547               0.000167504               0.999999998              -0.000006796               0.000173544               0.999999998              -0.000001067               0.000184028               0.999999998               0.000005739               0.000197496               0.999999998               0.000013211               0.000213098               0.999999998               0.000021050               0.000230468               0.999999998               0.000029168               0.000249458               0.999999998               0.000037720               0.000269828               0.999999998               0.000046772               0.000291491               0.999999998               0.000056307               0.000314255               0.999999998               0.000065941               0.000337909               0.999999998               0.000075639               0.000362369               0.999999998               0.000085421               0.000387572               0.999999998               0.000095333               0.000413812               0.999999998               0.000105648               0.000441247               0.999999998              -0.000002163               0.000197454               0.999999998              -0.000011401               0.000185072               0.999999998              -0.000012101               0.000183064               0.999999998              -0.000009262               0.000187536               0.999999998              -0.000004449               0.000196343               0.999999998               0.000001504               0.000208080               0.999999998               0.000008044               0.000221944               0.999999998               0.000014877               0.000237544               0.999999998               0.000021998               0.000254657               0.999999998               0.000029221               0.000273188               0.999999998               0.000036873               0.000292956               0.999999998               0.000045076               0.000313866               0.999999998               0.000053557               0.000335683               0.999999998               0.000062006               0.000358427               0.999999998               0.000070349               0.000382066               0.999999998               0.000078492               0.000406685               0.999999998               0.000086803               0.000432436               0.999999998              -0.000001595               0.000210035               0.999999998              -0.000011053               0.000200207               0.999999998              -0.000012629               0.000198098               0.999999998              -0.000010746               0.000201527               0.999999998              -0.000006947               0.000208927               0.999999998              -0.000001942               0.000219168               0.999999998               0.000003625               0.000231493               0.999999998               0.000009515               0.000245466               0.999999998               0.000015515               0.000260957               0.999999998               0.000021591               0.000277790               0.999999998               0.000027911               0.000295893               0.999999998               0.000034788               0.000315107               0.999999998               0.000041936               0.000335274               0.999999998               0.000048979               0.000356428               0.999999998               0.000055653               0.000378568               0.999999998               0.000062211               0.000401734               0.999999998               0.000068675               0.000425948               0.999999998              -0.000001122               0.000220560               0.999999998              -0.000009913               0.000213570               0.999999998              -0.000012009               0.000211965               0.999999998              -0.000010972               0.000214819               0.999999998              -0.000008190               0.000221183               0.999999998              -0.000004276               0.000230179               0.999999998               0.000000312               0.000241263               0.999999998               0.000005185               0.000253919               0.999999998               0.000010072               0.000268041               0.999999998               0.000014998               0.000283458               0.999999998               0.000020039               0.000300148               0.999999998               0.000025509               0.000318006               0.999999998               0.000031163               0.000336845               0.999999998               0.000036644               0.000356588               0.999999998               0.000041902               0.000377305               0.999999998               0.000046717               0.000399115               0.999999998               0.000051163               0.000422055               0.999999998              -0.000000740               0.000228906               0.999999998              -0.000008072               0.000224615               0.999999998              -0.000010255               0.000223874               0.999999998              -0.000009836               0.000226583               0.999999998              -0.000007964               0.000232285               0.999999998              -0.000005154               0.000240446               0.999999998              -0.000001676               0.000250518               0.999999998               0.000002035               0.000262256               0.999999998               0.000005786               0.000275424               0.999999998               0.000009525               0.000289785               0.999999998               0.000013391               0.000305387               0.999999998               0.000017372               0.000322200               0.999999998               0.000021554               0.000340095               0.999999998               0.000025679               0.000358835               0.999999998               0.000029360               0.000378492               0.999999998               0.000032420               0.000399209               0.999999998               0.000034870               0.000421112               0.999999998              -0.000000444               0.000234959               0.999999998              -0.000005685               0.000232919               0.999999998              -0.000007493               0.000233056               0.999999998              -0.000007424               0.000235926               0.999999998              -0.000006332               0.000241304               0.999999998              -0.000004496               0.000248908               0.999999998              -0.000002242               0.000258371               0.999999998               0.000000286               0.000269462               0.999999998               0.000002737               0.000281966               0.999999998               0.000005285               0.000295696               0.999999998               0.000007927               0.000310580               0.999999998               0.000010651               0.000326613               0.999999998               0.000013373               0.000343752               0.999999998               0.000016076               0.000361932               0.999999998               0.000018293               0.000381113               0.999999998               0.000019935               0.000401255               0.999999998               0.000020841               0.000422525               0.999999998              -0.000000204               0.000238604               0.999999998              -0.000002929               0.000238064               0.999999998              -0.000003955               0.000238881               0.999999998              -0.000003990               0.000241950               0.999999998              -0.000003497               0.000247234               0.999999998              -0.000002630               0.000254545               0.999999998              -0.000001489               0.000263641               0.999999998              -0.000000230               0.000274348               0.999999998               0.000000996               0.000286489               0.999999998               0.000002206               0.000299901               0.999999998               0.000003616               0.000314371               0.999999998               0.000005170               0.000330002               0.999999998               0.000006401               0.000346784               0.999999998               0.000007441               0.000364656               0.999999998               0.000008707               0.000383640               0.999999998               0.000009369               0.000403662               0.999999998               0.000009373               0.000424713               0.999999998              -0.000000000               0.000239845               0.999999998              -0.000000000               0.000239823               0.999999998              -0.000000000               0.000240881               0.999999998               0.000000000               0.000244028               0.999999998               0.000000000               0.000249300               0.999999998               0.000000000               0.000256529               0.999999998               0.000000000               0.000265548               0.999999998               0.000000000               0.000276141               0.999999998               0.000000000               0.000288101               0.999999998               0.000000000               0.000301327               0.999999998              -0.000000000               0.000315746               0.999999998              -0.000000000               0.000331304               0.999999998               0.000000000               0.000347943               0.999999998               0.000000000               0.000365758               0.999999998              -0.000000000               0.000384677               0.999999998               0.000000000               0.000404710               0.999999998               0.000000000               0.000425768               0.999999998 </DataArray>
<DataArray type="Float64"                                    Name="stress"                                                      NumberOfComponents="10" format="ascii">
              0.000377604               0.004345701              -0.000000000              -0.000401610               0.001582422               0.001180812               0.000000000               0.000000000               0.000000000               0.000000000               0.000428851               0.003627051              -0.000000000              -0.000292562               0.001306525               0.001013964               0.000000000               0.000000000               0.000000000               0.000000000               0.000608546               0.003046382               0.000000000              -0.000152593               0.001066315               0.000913722               0.000000000               0.000000000               0.000000000               0.000000000               0.000648745               0.002726741               0.000000000              -0.000097563               0.000941425               0.000843862               0.000000000               0.000000000               0.000000000               0.000000000               0.000631376               0.002542304               0.000000000              -0.000081022               0.000874434               0.000793412               0.000000000               0.000000000               0.000000000               0.000000000               0.000586155               0.002432305               0.000000000              -0.000084230               0.000838837               0.000754607               0.000000000               0.000000000               0.000000000               0.000000000               0.000530737               0.002369471              -0.000000000              -0.000097157               0.000822201               0.000725044               0.000000000               0.000000000               0.000000000               0.000000000               0.000471224               0.002335408              -0.000000000              -0.000115217               0.000816867               0.000701650               0.000000000               0.000000000               0.000000000               0.000000000               0.000404400               0.002316232              -0.000000000              -0.000137879               0.000818029               0.000680150               0.000000000               0.000000000               0.000000000               0.000000000               0.000338347               0.002309914              -0.000000000              -0.000161859               0.000823916               0.000662058               0.000000000               0.000000000               0.000000000               0.000000000               0.000279458               0.002312253               0.000000000              -0.000184235               0.000832155               0.000647920               0.000000000               0.000000000               0.000000000               0.000000000               0.000225521               0.002322747              -0.000000000              -0.000205772               0.000842832               0.000637060               0.000000000               0.000000000               0.000000000               0.000000000               0.000172200               0.002338954              -0.000000000              -0.000227794               0.000855575               0.000627781               0.000000000               0.000000000               0.000000000               0.000000000               0.000120743               0.002364737              -0.000000000              -0.000250313               0.000871675               0.000621362               0.000000000               0.000000000               0.000000000               0.000000000               0.000074738               0.002395461               0.000000000              -0.000271405               0.000888947               0.000617542               0.000000000               0.000000000               0.000000000               0.000000000               0.000035316               0.002426689              -0.000000000              -0.000290092               0.000905586               0.000615494               0.000000000               0.000000000               0.000000000               0.000000000               0.000020176               0.002450811              -0.000000000              -0.000298785               0.000916524               0.000617739               0.000000000               0.000000000               0.000000000               0.000000000               0.000406347               0.004280345              -0.000340051              -0.000382662               0.001554321               0.001171659               0.000000000               0.000000000               0.000000000               0.000000000               0.000442023               0.003579901              -0.000227199              -0.000281728               0.001287198               0.001005469               0.000000000               0.000000000               0.000000000               0.000000000               0.000603214               0.003019793              -0.000108937              -0.000151269               0.001057010               0.000905742               0.000000000               0.000000000               0.000000000               0.000000000               0.000634294               0.002712226              -0.000051735              -0.000101168               0.000937789               0.000836621               0.000000000               0.000000000               0.000000000               0.000000000               0.000614080               0.002535095              -0.000023106              -0.000086607               0.000873892               0.000787285               0.000000000               0.000000000               0.000000000               0.000000000               0.000568129               0.002430558              -0.000008939              -0.000090771               0.000840435               0.000749664               0.000000000               0.000000000               0.000000000               0.000000000               0.000511553               0.002368053              -0.000001732              -0.000104174               0.000824068               0.000719894               0.000000000               0.000000000               0.000000000               0.000000000               0.000452835               0.002333826               0.000000617              -0.000121915               0.000818573               0.000696658               0.000000000               0.000000000               0.000000000               0.000000000               0.000390441               0.002316621               0.000001056              -0.000143162               0.000819920               0.000676758               0.000000000               0.000000000               0.000000000               0.000000000               0.000328150               0.002309692               0.000000769              -0.000165655               0.000825108               0.000659453               0.000000000               0.000000000               0.000000000               0.000000000               0.000269483               0.002311736               0.000000268              -0.000187910               0.000833208               0.000645297               0.000000000               0.000000000               0.000000000               0.000000000               0.000214345               0.002321320               0.000000333              -0.000209785               0.000843694               0.000633909               0.000000000               0.000000000               0.000000000               0.000000000               0.000162981               0.002339726               0.000003106              -0.000231347               0.000857017               0.000625669               0.000000000               0.000000000               0.000000000               0.000000000               0.000114121               0.002365406               0.000005767              -0.000252880               0.000872754               0.000619874               0.000000000               0.000000000               0.000000000               0.000000000               0.000070075               0.002393587               0.000003648              -0.000272919               0.000888827               0.000615908               0.000000000               0.000000000               0.000000000               0.000000000               0.000032488               0.002421839               0.000001955              -0.000290546               0.000904120               0.000613574               0.000000000               0.000000000               0.000000000               0.000000000               0.000018231               0.002443988               0.000001574              -0.000298661               0.000914208               0.000615547               0.000000000               0.000000000               0.000000000               0.000000000               0.000481081               0.004088499              -0.000645356              -0.000330656               0.001473038               0.001142382               0.000000000               0.000000000               0.000000000               0.000000000               0.000472591               0.003441094              -0.000431933              -0.000252915               0.001231325               0.000978410               0.000000000               0.000000000               0.000000000               0.000000000               0.000585876               0.002941206              -0.000209327              -0.000147947               0.001029708               0.000881761               0.000000000               0.000000000               0.000000000               0.000000000               0.000593938               0.002668083              -0.000103430              -0.000110783               0.000926280               0.000815497               0.000000000               0.000000000               0.000000000               0.000000000               0.000562939               0.002510605              -0.000051110              -0.000102723               0.000871101               0.000768378               0.000000000               0.000000000               0.000000000               0.000000000               0.000515650               0.002416695              -0.000025606              -0.000108718               0.000841796               0.000733078               0.000000000               0.000000000               0.000000000               0.000000000               0.000462198               0.002361736              -0.000013067              -0.000121892               0.000827868               0.000705976               0.000000000               0.000000000               0.000000000               0.000000000               0.000407084               0.002331132              -0.000007347              -0.000138735               0.000823281               0.000684546               0.000000000               0.000000000               0.000000000               0.000000000               0.000350976               0.002314959              -0.000006403              -0.000157753               0.000824230               0.000666476               0.000000000               0.000000000               0.000000000               0.000000000               0.000294188               0.002308314              -0.000007427              -0.000178218               0.000828836               0.000650618               0.000000000               0.000000000               0.000000000               0.000000000               0.000239251               0.002310511              -0.000007980              -0.000199094               0.000836528               0.000637433               0.000000000               0.000000000               0.000000000               0.000000000               0.000190010               0.002321695              -0.000006171              -0.000218958               0.000846877               0.000627919               0.000000000               0.000000000               0.000000000               0.000000000               0.000143390               0.002339612              -0.000000357              -0.000238679               0.000859423               0.000620743               0.000000000               0.000000000               0.000000000               0.000000000               0.000097946               0.002361172               0.000002896              -0.000258416               0.000873188               0.000614772               0.000000000               0.000000000               0.000000000               0.000000000               0.000059703               0.002383686              -0.000001235              -0.000275571               0.000886411               0.000610840               0.000000000               0.000000000               0.000000000               0.000000000               0.000027863               0.002405677              -0.000003128              -0.000290260               0.000898638               0.000608378               0.000000000               0.000000000               0.000000000               0.000000000               0.000015734               0.002423541              -0.000002782              -0.000297042               0.000906853               0.000609811               0.000000000               0.000000000               0.000000000               0.000000000               0.000583417               0.003787635              -0.000891318              -0.000254673               0.001347423               0.001092750               0.000000000               0.000000000               0.000000000               0.000000000               0.000509557               0.003225550              -0.000597725              -0.000212110               0.001145876               0.000933766               0.000000000               0.000000000               0.000000000               0.000000000               0.000552818               0.002822805              -0.000294600              -0.000145543               0.000989440               0.000843896               0.000000000               0.000000000               0.000000000               0.000000000               0.000531928               0.002603170              -0.000155601              -0.000125923               0.000909689               0.000783766               0.000000000               0.000000000               0.000000000               0.000000000               0.000491170               0.002475030              -0.000088734              -0.000125190               0.000866732               0.000741542               0.000000000               0.000000000               0.000000000               0.000000000               0.000444155               0.002397124              -0.000055114              -0.000133082               0.000843394               0.000710312               0.000000000               0.000000000               0.000000000               0.000000000               0.000396350               0.002351946              -0.000038078              -0.000145361               0.000832428               0.000687066               0.000000000               0.000000000               0.000000000               0.000000000               0.000348248               0.002325014              -0.000030448              -0.000160034               0.000828342               0.000668308               0.000000000               0.000000000               0.000000000               0.000000000               0.000299269               0.002309152              -0.000027612              -0.000176418               0.000828515               0.000652098               0.000000000               0.000000000               0.000000000               0.000000000               0.000249611               0.002303150              -0.000026067              -0.000194289               0.000832472               0.000638183               0.000000000               0.000000000               0.000000000               0.000000000               0.000201353               0.002306250              -0.000023163              -0.000212774               0.000839667               0.000626893               0.000000000               0.000000000               0.000000000               0.000000000               0.000155672               0.002317333              -0.000018803              -0.000231289               0.000849533               0.000618244               0.000000000               0.000000000               0.000000000               0.000000000               0.000115217               0.002333269              -0.000011421              -0.000248452               0.000860566               0.000612114               0.000000000               0.000000000               0.000000000               0.000000000               0.000080741               0.002350166              -0.000006791              -0.000263492               0.000871211               0.000607719               0.000000000               0.000000000               0.000000000               0.000000000               0.000051300               0.002365812              -0.000011256              -0.000276488               0.000880759               0.000604270               0.000000000               0.000000000               0.000000000               0.000000000               0.000025284               0.002379995              -0.000011817              -0.000288017               0.000889329               0.000601312               0.000000000               0.000000000               0.000000000               0.000000000               0.000015038               0.002391365              -0.000009703              -0.000293281               0.000894874               0.000601593               0.000000000               0.000000000               0.000000000               0.000000000               0.000692818               0.003412462              -0.001062740              -0.000166752               0.001193060               0.001026308               0.000000000               0.000000000               0.000000000               0.000000000               0.000544667               0.002965748              -0.000717129              -0.000166468               0.001044062               0.000877594               0.000000000               0.000000000               0.000000000               0.000000000               0.000508320               0.002687172              -0.000365359              -0.000145277               0.000944141               0.000798864               0.000000000               0.000000000               0.000000000               0.000000000               0.000458302               0.002528711              -0.000209731              -0.000144225               0.000890970               0.000746745               0.000000000               0.000000000               0.000000000               0.000000000               0.000411406               0.002431778              -0.000135558              -0.000149695               0.000860483               0.000710788               0.000000000               0.000000000               0.000000000               0.000000000               0.000367232               0.002371108              -0.000097797              -0.000158676               0.000843254               0.000684578               0.000000000               0.000000000               0.000000000               0.000000000               0.000327866               0.002333811              -0.000076858              -0.000168776               0.000834188               0.000665412               0.000000000               0.000000000               0.000000000               0.000000000               0.000288799               0.002308846              -0.000064709              -0.000180306               0.000829710               0.000649404               0.000000000               0.000000000               0.000000000               0.000000000               0.000248121               0.002295546              -0.000057473              -0.000193898               0.000829807               0.000635909               0.000000000               0.000000000               0.000000000               0.000000000               0.000208109               0.002291447              -0.000050392              -0.000208390               0.000833271               0.000624882               0.000000000               0.000000000               0.000000000               0.000000000               0.000166589               0.002297394              -0.000041830              -0.000224703               0.000840691               0.000615988               0.000000000               0.000000000               0.000000000               0.000000000               0.000126138               0.002310002              -0.000032171              -0.000241448               0.000850475               0.000609028               0.000000000               0.000000000               0.000000000               0.000000000               0.000093426               0.002326020              -0.000022671              -0.000255717               0.000860571               0.000604854               0.000000000               0.000000000               0.000000000               0.000000000               0.000068403               0.002337055              -0.000017349              -0.000266480               0.000867837               0.000601357               0.000000000               0.000000000               0.000000000               0.000000000               0.000047171               0.002345570              -0.000019801              -0.000275507               0.000873684               0.000598178               0.000000000               0.000000000               0.000000000               0.000000000               0.000023504               0.002352121              -0.000018503              -0.000285200               0.000879099               0.000593899               0.000000000               0.000000000               0.000000000               0.000000000               0.000012194               0.002356853              -0.000015066              -0.000290033               0.000882287               0.000592254               0.000000000               0.000000000               0.000000000               0.000000000               0.000787343               0.002998232              -0.001153945              -0.000079526               0.001025909               0.000946383               0.000000000               0.000000000               0.000000000               0.000000000               0.000567579               0.002688047              -0.000791442              -0.000123164               0.000937061               0.000813897               0.000000000               0.000000000               0.000000000               0.000000000               0.000454961               0.002544166              -0.000424840              -0.000147410               0.000897184               0.000749773               0.000000000               0.000000000               0.000000000               0.000000000               0.000382203               0.002445516              -0.000265748              -0.000162363               0.000869285               0.000706922               0.000000000               0.000000000               0.000000000               0.000000000               0.000332888               0.002378453              -0.000189659              -0.000172473               0.000850301               0.000677828               0.000000000               0.000000000               0.000000000               0.000000000               0.000296739               0.002334887              -0.000146966              -0.000180583               0.000838482               0.000657899               0.000000000               0.000000000               0.000000000               0.000000000               0.000267075               0.002306290              -0.000120150              -0.000188133               0.000831467               0.000643334               0.000000000               0.000000000               0.000000000               0.000000000               0.000238007               0.002288117              -0.000101844              -0.000196762               0.000828285               0.000631524               0.000000000               0.000000000               0.000000000               0.000000000               0.000206156               0.002280460              -0.000087231              -0.000207749               0.000829395               0.000621647               0.000000000               0.000000000               0.000000000               0.000000000               0.000173176               0.002283173              -0.000072681              -0.000220455               0.000834535               0.000614080               0.000000000               0.000000000               0.000000000               0.000000000               0.000140080               0.002294190              -0.000055391              -0.000234243               0.000842803               0.000608560               0.000000000               0.000000000               0.000000000               0.000000000               0.000106921               0.002310217              -0.000039473              -0.000248681               0.000852958               0.000604277               0.000000000               0.000000000               0.000000000               0.000000000               0.000080908               0.002323825              -0.000030152              -0.000260137               0.000861313               0.000601176               0.000000000               0.000000000               0.000000000               0.000000000               0.000061696               0.002327711              -0.000025040              -0.000267827               0.000865172               0.000597344               0.000000000               0.000000000               0.000000000               0.000000000               0.000044170               0.002328213              -0.000022787              -0.000274462               0.000867551               0.000593088               0.000000000               0.000000000               0.000000000               0.000000000               0.000024384               0.002330542              -0.000018153              -0.000282173               0.000870897               0.000588724               0.000000000               0.000000000               0.000000000               0.000000000               0.000015264               0.002334750              -0.000014408              -0.000286119               0.000873615               0.000587496               0.000000000               0.000000000               0.000000000               0.000000000               0.000849507               0.002569701              -0.001172030              -0.000002649               0.000857441               0.000854792               0.000000000               0.000000000               0.000000000               0.000000000               0.000575192               0.002405807              -0.000826785              -0.000085030               0.000830271               0.000745241               0.000000000               0.000000000               0.000000000               0.000000000               0.000399118               0.002397126              -0.000474935              -0.000149971               0.000849024               0.000699053               0.000000000               0.000000000               0.000000000               0.000000000               0.000313384               0.002355647              -0.000321679              -0.000176937               0.000844187               0.000667250               0.000000000               0.000000000               0.000000000               0.000000000               0.000267536               0.002319584              -0.000243375              -0.000189622               0.000836394               0.000646772               0.000000000               0.000000000               0.000000000               0.000000000               0.000241502               0.002295652              -0.000194969              -0.000196393               0.000830674               0.000634281               0.000000000               0.000000000               0.000000000               0.000000000               0.000220739               0.002278547              -0.000161189              -0.000202041               0.000826855               0.000624814               0.000000000               0.000000000               0.000000000               0.000000000               0.000201085               0.002273331              -0.000135071              -0.000208759               0.000827356               0.000618597               0.000000000               0.000000000               0.000000000               0.000000000               0.000177769               0.002276569              -0.000110880              -0.000217907               0.000831485               0.000613577               0.000000000               0.000000000               0.000000000               0.000000000               0.000150005               0.002286862              -0.000087033              -0.000229605               0.000838815               0.000609210               0.000000000               0.000000000               0.000000000               0.000000000               0.000121536               0.002301004              -0.000062014              -0.000242049               0.000847677               0.000605628               0.000000000               0.000000000               0.000000000               0.000000000               0.000094987               0.002314300              -0.000040996              -0.000253667               0.000855981               0.000602315               0.000000000               0.000000000               0.000000000               0.000000000               0.000074093               0.002320182              -0.000031767              -0.000262237               0.000860799               0.000598561               0.000000000               0.000000000               0.000000000               0.000000000               0.000057976               0.002321884              -0.000027964              -0.000268494               0.000863452               0.000594958               0.000000000               0.000000000               0.000000000               0.000000000               0.000041967               0.002325998              -0.000023209              -0.000275012               0.000866996               0.000591984               0.000000000               0.000000000               0.000000000               0.000000000               0.000022404               0.002336520              -0.000015963              -0.000283663               0.000873386               0.000589724               0.000000000               0.000000000               0.000000000               0.000000000               0.000015055               0.002349537              -0.000013207              -0.000288046               0.000879186               0.000591141               0.000000000               0.000000000               0.000000000               0.000000000               0.000876593               0.002148255              -0.001126476               0.000060189               0.000696014               0.000756203               0.000000000               0.000000000               0.000000000               0.000000000               0.000568850               0.002134632              -0.000829265              -0.000053511               0.000729374               0.000675863               0.000000000               0.000000000               0.000000000               0.000000000               0.000351320               0.002252442              -0.000518844              -0.000149810               0.000800743               0.000650933               0.000000000               0.000000000               0.000000000               0.000000000               0.000263987               0.002264461              -0.000373896              -0.000184062               0.000816167               0.000632105               0.000000000               0.000000000               0.000000000               0.000000000               0.000223711               0.002260144              -0.000291097              -0.000198626               0.000819582               0.000620956               0.000000000               0.000000000               0.000000000               0.000000000               0.000205049               0.002255828              -0.000236201              -0.000205085               0.000820297               0.000615212               0.000000000               0.000000000               0.000000000               0.000000000               0.000189831               0.002255464              -0.000193483              -0.000210746               0.000822062               0.000611316               0.000000000               0.000000000               0.000000000               0.000000000               0.000175994               0.002265075              -0.000156318              -0.000217136               0.000827396               0.000610260               0.000000000               0.000000000               0.000000000               0.000000000               0.000157314               0.002279842              -0.000123210              -0.000225987               0.000835269               0.000609282               0.000000000               0.000000000               0.000000000               0.000000000               0.000130500               0.002296072              -0.000093543              -0.000238071               0.000844707               0.000606636               0.000000000               0.000000000               0.000000000               0.000000000               0.000102487               0.002310788              -0.000065081              -0.000250415               0.000853727               0.000603311               0.000000000               0.000000000               0.000000000               0.000000000               0.000084045               0.002320906              -0.000042610              -0.000258596               0.000859826               0.000601230               0.000000000               0.000000000               0.000000000               0.000000000               0.000072093               0.002328571              -0.000030948              -0.000264036               0.000864195               0.000600159               0.000000000               0.000000000               0.000000000               0.000000000               0.000058290               0.002344310              -0.000025018              -0.000271179               0.000871822               0.000600643               0.000000000               0.000000000               0.000000000               0.000000000               0.000040777               0.002370917              -0.000019126              -0.000281073               0.000883989               0.000602916               0.000000000               0.000000000               0.000000000               0.000000000               0.000021791               0.002408452              -0.000011598              -0.000292884               0.000900437               0.000607553               0.000000000               0.000000000               0.000000000               0.000000000               0.000015292               0.002437655              -0.000009728              -0.000298972               0.000912201               0.000613229               0.000000000               0.000000000               0.000000000               0.000000000               0.000886137               0.001769460              -0.001035726               0.000111117               0.000552775               0.000663891               0.000000000               0.000000000               0.000000000               0.000000000               0.000570201               0.001888886              -0.000815716              -0.000022287               0.000637051               0.000614764               0.000000000               0.000000000               0.000000000               0.000000000               0.000331461               0.002118545              -0.000568020              -0.000140521               0.000753015               0.000612494               0.000000000               0.000000000               0.000000000               0.000000000               0.000245665               0.002185103              -0.000428406              -0.000181013               0.000788698               0.000607685               0.000000000               0.000000000               0.000000000               0.000000000               0.000208620               0.002211898              -0.000340259              -0.000198254               0.000803377               0.000605122               0.000000000               0.000000000               0.000000000               0.000000000               0.000192039               0.002226589              -0.000277011              -0.000206309               0.000810959               0.000604650               0.000000000               0.000000000               0.000000000               0.000000000               0.000181638               0.002243134              -0.000224367              -0.000212277               0.000818463               0.000606186               0.000000000               0.000000000               0.000000000               0.000000000               0.000169174               0.002264223              -0.000176934              -0.000219587               0.000827929               0.000608342               0.000000000               0.000000000               0.000000000               0.000000000               0.000148680               0.002287804              -0.000137830              -0.000230220               0.000839334               0.000609114               0.000000000               0.000000000               0.000000000               0.000000000               0.000122522               0.002311367              -0.000105783              -0.000242975               0.000851439               0.000608465               0.000000000               0.000000000               0.000000000               0.000000000               0.000099041               0.002332167              -0.000077271              -0.000254380               0.000862174               0.000607795               0.000000000               0.000000000               0.000000000               0.000000000               0.000086729               0.002347707              -0.000052175              -0.000260939               0.000869541               0.000608602               0.000000000               0.000000000               0.000000000               0.000000000               0.000079521               0.002366764              -0.000033954              -0.000266024               0.000877588               0.000611564               0.000000000               0.000000000               0.000000000               0.000000000               0.000068465               0.002399445              -0.000022721              -0.000274256               0.000891226               0.000616970               0.000000000               0.000000000               0.000000000               0.000000000               0.000054353               0.002449722              -0.000012032              -0.000285832               0.000911843               0.000626011               0.000000000               0.000000000               0.000000000               0.000000000               0.000040777               0.002515243              -0.000003071              -0.000299113               0.000938111               0.000638997               0.000000000               0.000000000               0.000000000               0.000000000               0.000033154               0.002553123              -0.000000452              -0.000306707               0.000953268               0.000646561               0.000000000               0.000000000               0.000000000               0.000000000               0.000869701               0.001397286              -0.000921731               0.000151475               0.000415265               0.000566740               0.000000000               0.000000000               0.000000000               0.000000000               0.000588048               0.001599031              -0.000795525               0.000020638               0.000526126               0.000546763               0.000000000               0.000000000               0.000000000               0.000000000               0.000349904               0.001910820              -0.000625806              -0.000107639               0.000672813               0.000565174               0.000000000               0.000000000               0.000000000               0.000000000               0.000262436               0.002040555              -0.000495842              -0.000156656               0.000732397               0.000575741               0.000000000               0.000000000               0.000000000               0.000000000               0.000221928               0.002106344              -0.000403689              -0.000180070               0.000762131               0.000582061               0.000000000               0.000000000               0.000000000               0.000000000               0.000201163               0.002144682              -0.000332145              -0.000192649               0.000779103               0.000586454               0.000000000               0.000000000               0.000000000               0.000000000               0.000187251               0.002174890              -0.000271320              -0.000201642               0.000792170               0.000590528               0.000000000               0.000000000               0.000000000               0.000000000               0.000175450               0.002208610              -0.000216968              -0.000210282               0.000806290               0.000596008               0.000000000               0.000000000               0.000000000               0.000000000               0.000160626               0.002244583              -0.000172044              -0.000220337               0.000821633               0.000601295               0.000000000               0.000000000               0.000000000               0.000000000               0.000136178               0.002279136              -0.000135790              -0.000233825               0.000837646               0.000603821               0.000000000               0.000000000               0.000000000               0.000000000               0.000113279               0.002313739              -0.000107916              -0.000246737               0.000853484               0.000606747               0.000000000               0.000000000               0.000000000               0.000000000               0.000099749               0.002344802              -0.000082552              -0.000255694               0.000866824               0.000611130               0.000000000               0.000000000               0.000000000               0.000000000               0.000095873               0.002378938              -0.000058667              -0.000261414               0.000880110               0.000618695               0.000000000               0.000000000               0.000000000               0.000000000               0.000091337               0.002421138              -0.000038738              -0.000268390               0.000896501               0.000628111               0.000000000               0.000000000               0.000000000               0.000000000               0.000084079               0.002482302              -0.000019950              -0.000278757               0.000920345               0.000641587               0.000000000               0.000000000               0.000000000               0.000000000               0.000075807               0.002567246              -0.000005642              -0.000292477               0.000953233               0.000660755               0.000000000               0.000000000               0.000000000               0.000000000               0.000064182               0.002608796               0.000001802              -0.000302031               0.000970267               0.000668236               0.000000000               0.000000000               0.000000000               0.000000000               0.000812695               0.001045330              -0.000786290               0.000174092               0.000290409               0.000464501               0.000000000               0.000000000               0.000000000               0.000000000               0.000609541               0.001305056              -0.000753618               0.000065444               0.000413199               0.000478643               0.000000000               0.000000000               0.000000000               0.000000000               0.000399420               0.001671247              -0.000668179              -0.000059124               0.000576784               0.000517661               0.000000000               0.000000000               0.000000000               0.000000000               0.000311548               0.001860571              -0.000559485              -0.000115741               0.000658764               0.000543023               0.000000000               0.000000000               0.000000000               0.000000000               0.000262374               0.001968681              -0.000468705              -0.000147695               0.000705452               0.000557757               0.000000000               0.000000000               0.000000000               0.000000000               0.000234800               0.002034664              -0.000393219              -0.000166283               0.000733642               0.000567359               0.000000000               0.000000000               0.000000000               0.000000000               0.000216427               0.002083385              -0.000326653              -0.000179263               0.000754209               0.000574946               0.000000000               0.000000000               0.000000000               0.000000000               0.000203523               0.002130400              -0.000268672              -0.000189979               0.000773453               0.000583474               0.000000000               0.000000000               0.000000000               0.000000000               0.000191157               0.002180241              -0.000217242              -0.000200846               0.000793688               0.000592843               0.000000000               0.000000000               0.000000000               0.000000000               0.000172718               0.002229639              -0.000175513              -0.000213935               0.000814517               0.000600582               0.000000000               0.000000000               0.000000000               0.000000000               0.000150981               0.002277092              -0.000147621              -0.000228018               0.000835029               0.000607011               0.000000000               0.000000000               0.000000000               0.000000000               0.000134438               0.002319562              -0.000123987              -0.000239530               0.000853023               0.000613493               0.000000000               0.000000000               0.000000000               0.000000000               0.000126497               0.002364016              -0.000096169              -0.000248065               0.000870686               0.000622621               0.000000000               0.000000000               0.000000000               0.000000000               0.000120963               0.002418087              -0.000065694              -0.000256899               0.000891654               0.000634755               0.000000000               0.000000000               0.000000000               0.000000000               0.000113346               0.002484981              -0.000035606              -0.000268117               0.000917691               0.000649574               0.000000000               0.000000000               0.000000000               0.000000000               0.000107219               0.002570209              -0.000012168              -0.000281068               0.000950417               0.000669349               0.000000000               0.000000000               0.000000000               0.000000000               0.000093845               0.002608274               0.000000971              -0.000290842               0.000966363               0.000675521               0.000000000               0.000000000               0.000000000               0.000000000               0.000718315               0.000731814              -0.000632100               0.000177889               0.000184639               0.000362528               0.000000000               0.000000000               0.000000000               0.000000000               0.000615177               0.001017768              -0.000677360               0.000103469               0.000304763               0.000408231               0.000000000               0.000000000               0.000000000               0.000000000               0.000464325               0.001404362              -0.000669533              -0.000001424               0.000468591               0.000467166               0.000000000               0.000000000               0.000000000               0.000000000               0.000384854               0.001638738              -0.000590980              -0.000060523               0.000566415               0.000505892               0.000000000               0.000000000               0.000000000               0.000000000               0.000329178               0.001786230              -0.000510010              -0.000099837               0.000628683               0.000528846               0.000000000               0.000000000               0.000000000               0.000000000               0.000290634               0.001883705              -0.000436762              -0.000126475               0.000670054               0.000543579               0.000000000               0.000000000               0.000000000               0.000000000               0.000266666               0.001956643              -0.000371168              -0.000144581               0.000700401               0.000555821               0.000000000               0.000000000               0.000000000               0.000000000               0.000250482               0.002022865              -0.000311411              -0.000158927               0.000727257               0.000568330               0.000000000               0.000000000               0.000000000               0.000000000               0.000235161               0.002089667              -0.000256648              -0.000173023               0.000754223               0.000581200               0.000000000               0.000000000               0.000000000               0.000000000               0.000220302               0.002156077              -0.000212202              -0.000186896               0.000780984               0.000594088               0.000000000               0.000000000               0.000000000               0.000000000               0.000201540               0.002220712              -0.000183409              -0.000202011               0.000807567               0.000605556               0.000000000               0.000000000               0.000000000               0.000000000               0.000181580               0.002277462              -0.000160646              -0.000216590               0.000831343               0.000614753               0.000000000               0.000000000               0.000000000               0.000000000               0.000165267               0.002334792              -0.000130073              -0.000229873               0.000854881               0.000625007               0.000000000               0.000000000               0.000000000               0.000000000               0.000153279               0.002400703              -0.000091636              -0.000242608               0.000881096               0.000638488               0.000000000               0.000000000               0.000000000               0.000000000               0.000144869               0.002477522              -0.000054933              -0.000255364               0.000910954               0.000655590               0.000000000               0.000000000               0.000000000               0.000000000               0.000137182               0.002565816              -0.000024873              -0.000269283               0.000945024               0.000675741               0.000000000               0.000000000               0.000000000               0.000000000               0.000121929               0.002604033              -0.000007131              -0.000279780               0.000961262               0.000681482               0.000000000               0.000000000               0.000000000               0.000000000               0.000597800               0.000476553              -0.000474105               0.000164604               0.000103981               0.000268585               0.000000000               0.000000000               0.000000000               0.000000000               0.000604522               0.000756038              -0.000570671               0.000132189               0.000207947               0.000340136               0.000000000               0.000000000               0.000000000               0.000000000               0.000532193               0.001130780              -0.000622149               0.000058224               0.000357515               0.000415738               0.000000000               0.000000000               0.000000000               0.000000000               0.000472427               0.001390825              -0.000576486               0.000003306               0.000462502               0.000465808               0.000000000               0.000000000               0.000000000               0.000000000               0.000417147               0.001572738              -0.000511758              -0.000040163               0.000537628               0.000497466               0.000000000               0.000000000               0.000000000               0.000000000               0.000368029               0.001703694              -0.000448485              -0.000074951               0.000592876               0.000517925               0.000000000               0.000000000               0.000000000               0.000000000               0.000332742               0.001804490              -0.000388897              -0.000100783               0.000635085               0.000534302               0.000000000               0.000000000               0.000000000               0.000000000               0.000306943               0.001894088              -0.000331869              -0.000121657               0.000671909               0.000550251               0.000000000               0.000000000               0.000000000               0.000000000               0.000287158               0.001980098              -0.000279733              -0.000139828               0.000706635               0.000566808               0.000000000               0.000000000               0.000000000               0.000000000               0.000270758               0.002064772              -0.000236577              -0.000156562               0.000740438               0.000583876               0.000000000               0.000000000               0.000000000               0.000000000               0.000255156               0.002150894              -0.000206862              -0.000173178               0.000774683               0.000601506               0.000000000               0.000000000               0.000000000               0.000000000               0.000233032               0.002227493              -0.000183452              -0.000191049               0.000806173               0.000615124               0.000000000               0.000000000               0.000000000               0.000000000               0.000212266               0.002296668              -0.000153891              -0.000207483               0.000834709               0.000627226               0.000000000               0.000000000               0.000000000               0.000000000               0.000198465               0.002369858              -0.000117369              -0.000221807               0.000863880               0.000642073               0.000000000               0.000000000               0.000000000               0.000000000               0.000190403               0.002457308              -0.000077204              -0.000235762               0.000897682               0.000661920               0.000000000               0.000000000               0.000000000               0.000000000               0.000179864               0.002556519              -0.000036675              -0.000252115               0.000936203               0.000684087               0.000000000               0.000000000               0.000000000               0.000000000               0.000162117               0.002600847              -0.000013951              -0.000264311               0.000955044               0.000690733               0.000000000               0.000000000               0.000000000               0.000000000               0.000467154               0.000286069              -0.000327898               0.000139423               0.000048881               0.000188304               0.000000000               0.000000000               0.000000000               0.000000000               0.000580806               0.000536888              -0.000442267               0.000150689               0.000128731               0.000279420               0.000000000               0.000000000               0.000000000               0.000000000               0.000593840               0.000876225              -0.000523436               0.000113160               0.000254352               0.000367512               0.000000000               0.000000000               0.000000000               0.000000000               0.000560854               0.001144444              -0.000506739               0.000067264               0.000359056               0.000426320               0.000000000               0.000000000               0.000000000               0.000000000               0.000512542               0.001353368              -0.000461400               0.000023032               0.000443441               0.000466473               0.000000000               0.000000000               0.000000000               0.000000000               0.000459627               0.001513447              -0.000412908              -0.000016821               0.000510084               0.000493263               0.000000000               0.000000000               0.000000000               0.000000000               0.000410772               0.001642260              -0.000363711              -0.000051243               0.000564496               0.000513252               0.000000000               0.000000000               0.000000000               0.000000000               0.000373941               0.001758709              -0.000314832              -0.000079611               0.000612767               0.000533156               0.000000000               0.000000000               0.000000000               0.000000000               0.000343412               0.001861062              -0.000270352              -0.000103853               0.000654965               0.000551112               0.000000000               0.000000000               0.000000000               0.000000000               0.000321968               0.001960816              -0.000234726              -0.000124364               0.000695053               0.000570689               0.000000000               0.000000000               0.000000000               0.000000000               0.000307596               0.002065616              -0.000206674              -0.000142853               0.000736149               0.000593296               0.000000000               0.000000000               0.000000000               0.000000000               0.000290108               0.002164352              -0.000183248              -0.000161753               0.000775361               0.000613608               0.000000000               0.000000000               0.000000000               0.000000000               0.000270501               0.002249608              -0.000159507              -0.000179763               0.000809783               0.000630020               0.000000000               0.000000000               0.000000000               0.000000000               0.000257037               0.002333455              -0.000127929              -0.000195292               0.000842908               0.000647616               0.000000000               0.000000000               0.000000000               0.000000000               0.000248307               0.002430279              -0.000087489              -0.000210669               0.000880308               0.000669639               0.000000000               0.000000000               0.000000000               0.000000000               0.000244219               0.002542691              -0.000044078              -0.000226254               0.000922973               0.000696719               0.000000000               0.000000000               0.000000000               0.000000000               0.000233124               0.002596719              -0.000019945              -0.000237168               0.000944620               0.000707453               0.000000000               0.000000000               0.000000000               0.000000000               0.000349578               0.000159746              -0.000200789               0.000111122               0.000016207               0.000127329               0.000000000               0.000000000               0.000000000               0.000000000               0.000551718               0.000371752              -0.000300319               0.000160424               0.000070441               0.000230865               0.000000000               0.000000000               0.000000000               0.000000000               0.000644094               0.000669520              -0.000378883               0.000157844               0.000170557               0.000328400               0.000000000               0.000000000               0.000000000               0.000000000               0.000639311               0.000934770              -0.000379379               0.000122894               0.000270622               0.000393516               0.000000000               0.000000000               0.000000000               0.000000000               0.000598683               0.001156513              -0.000353151               0.000079941               0.000358853               0.000438794               0.000000000               0.000000000               0.000000000               0.000000000               0.000544915               0.001338727              -0.000320083               0.000037002               0.000433904               0.000470906               0.000000000               0.000000000               0.000000000               0.000000000               0.000490024               0.001492374              -0.000285563              -0.000002788               0.000498382               0.000495594               0.000000000               0.000000000               0.000000000               0.000000000               0.000443751               0.001629033              -0.000248978              -0.000037223               0.000555413               0.000518191               0.000000000               0.000000000               0.000000000               0.000000000               0.000404929               0.001749480              -0.000215987              -0.000066837               0.000605433               0.000538597               0.000000000               0.000000000               0.000000000               0.000000000               0.000374625               0.001861084              -0.000192436              -0.000092151               0.000651072               0.000558921               0.000000000               0.000000000               0.000000000               0.000000000               0.000355814               0.001974252              -0.000172656              -0.000113351               0.000695861               0.000582510               0.000000000               0.000000000               0.000000000               0.000000000               0.000343344               0.002088598              -0.000152650              -0.000132321               0.000740299               0.000607979               0.000000000               0.000000000               0.000000000               0.000000000               0.000324755               0.002194839              -0.000132241              -0.000152571               0.000782463               0.000629892               0.000000000               0.000000000               0.000000000               0.000000000               0.000310394               0.002299490              -0.000108641              -0.000171038               0.000823502               0.000652464               0.000000000               0.000000000               0.000000000               0.000000000               0.000313593               0.002410465              -0.000077705              -0.000183710               0.000864717               0.000681007               0.000000000               0.000000000               0.000000000               0.000000000               0.000326099               0.002531888              -0.000040841              -0.000194199               0.000908687               0.000714488               0.000000000               0.000000000               0.000000000               0.000000000               0.000328924               0.002593303              -0.000019974              -0.000200816               0.000931364               0.000730548               0.000000000               0.000000000               0.000000000               0.000000000               0.000267879               0.000090708              -0.000094255               0.000089115               0.000000531               0.000089646               0.000000000               0.000000000               0.000000000               0.000000000               0.000527696               0.000269923              -0.000151559               0.000164144               0.000035259               0.000199403               0.000000000               0.000000000               0.000000000               0.000000000               0.000676891               0.000534000              -0.000199232               0.000187082               0.000115637               0.000302720               0.000000000               0.000000000               0.000000000               0.000000000               0.000693928               0.000792624              -0.000203497               0.000161144               0.000210491               0.000371634               0.000000000               0.000000000               0.000000000               0.000000000               0.000660593               0.001018899              -0.000191897               0.000120359               0.000299510               0.000419869               0.000000000               0.000000000               0.000000000               0.000000000               0.000606555               0.001213054              -0.000175856               0.000075826               0.000379072               0.000454898               0.000000000               0.000000000               0.000000000               0.000000000               0.000549121               0.001382337              -0.000158428               0.000033128               0.000449732               0.000482860               0.000000000               0.000000000               0.000000000               0.000000000               0.000496986               0.001532966              -0.000138558              -0.000005251               0.000512734               0.000507483               0.000000000               0.000000000               0.000000000               0.000000000               0.000456437               0.001668896              -0.000119733              -0.000037448               0.000568776               0.000531328               0.000000000               0.000000000               0.000000000               0.000000000               0.000421196               0.001789055              -0.000108197              -0.000065683               0.000618240               0.000552557               0.000000000               0.000000000               0.000000000               0.000000000               0.000392680               0.001906205              -0.000101439              -0.000091020               0.000665735               0.000574715               0.000000000               0.000000000               0.000000000               0.000000000               0.000373095               0.002028862              -0.000088307              -0.000113697               0.000714180               0.000600483               0.000000000               0.000000000               0.000000000               0.000000000               0.000360597               0.002151039              -0.000071481              -0.000133656               0.000761558               0.000627902               0.000000000               0.000000000               0.000000000               0.000000000               0.000356972               0.002274622              -0.000063111              -0.000150463               0.000808354               0.000657891               0.000000000               0.000000000               0.000000000               0.000000000               0.000369176               0.002400832              -0.000049075              -0.000161663               0.000854157               0.000692494               0.000000000               0.000000000               0.000000000               0.000000000               0.000398848               0.002530711              -0.000023520              -0.000166770               0.000899152               0.000732382               0.000000000               0.000000000               0.000000000               0.000000000               0.000420044               0.002596778              -0.000010120              -0.000167080               0.000921278               0.000754197               0.000000000               0.000000000               0.000000000               0.000000000               0.000238099               0.000068807              -0.000000000               0.000080685              -0.000003960               0.000076726               0.000000000               0.000000000               0.000000000               0.000000000               0.000517834               0.000235069               0.000000000               0.000164802               0.000023421               0.000188224               0.000000000               0.000000000               0.000000000               0.000000000               0.000687761               0.000486006               0.000000000               0.000197158               0.000096281               0.000293439               0.000000000               0.000000000               0.000000000               0.000000000               0.000712984               0.000741860              -0.000000000               0.000174635               0.000189072               0.000363707               0.000000000               0.000000000               0.000000000               0.000000000               0.000682919               0.000969433              -0.000000000               0.000134914               0.000278170               0.000413084               0.000000000               0.000000000               0.000000000               0.000000000               0.000630667               0.001168669              -0.000000000               0.000090416               0.000359414               0.000449830               0.000000000               0.000000000               0.000000000               0.000000000               0.000571077               0.001342982              -0.000000000               0.000046281               0.000432229               0.000478510               0.000000000               0.000000000               0.000000000               0.000000000               0.000516245               0.001495950              -0.000000000               0.000006598               0.000496446               0.000503044               0.000000000               0.000000000               0.000000000               0.000000000               0.000474492               0.001635052              -0.000000000              -0.000026447               0.000553827               0.000527380               0.000000000               0.000000000               0.000000000               0.000000000               0.000441253               0.001763164              -0.000000000              -0.000054925               0.000606024               0.000551098               0.000000000               0.000000000               0.000000000               0.000000000               0.000407033               0.001884475              -0.000000000              -0.000082922               0.000655792               0.000572871               0.000000000               0.000000000               0.000000000               0.000000000               0.000378167               0.002005077              -0.000000000              -0.000108822               0.000704626               0.000595804               0.000000000               0.000000000               0.000000000               0.000000000               0.000372296               0.002133495               0.000000000              -0.000127076               0.000753516               0.000626441               0.000000000               0.000000000               0.000000000               0.000000000               0.000380867               0.002266888              -0.000000000              -0.000140535               0.000802467               0.000661931               0.000000000               0.000000000               0.000000000               0.000000000               0.000391728               0.002397807              -0.000000000              -0.000152828               0.000850203               0.000697376               0.000000000               0.000000000               0.000000000               0.000000000               0.000428640               0.002532818              -0.000000000              -0.000155862               0.000896218               0.000740356               0.000000000               0.000000000               0.000000000               0.000000000               0.000460791               0.002602079              -0.000000000              -0.000152463               0.000918172               0.000765709               0.000000000               0.000000000               0.000000000               0.000000000               0.000000000               0.000000000               0.000000000               0.000000000               0.000000000               0.000000000               0.000000000               0.000000000               0.000000000               0.000000000               0.000000000               0.000000000               0.000000000               0.000000000               0.000000000               0.000000000               0.000000000               0.000000000               0.000000000               0.000000000               0.000000000               0.000000000               0.000000000               0.000000000               0.000000000               0.000000000               0.000000000               0.000000000               0.000000000               0.000000000               0.000000000               0.000000000               0.000000000               0.000000000               0.000000000               0.000000000               0.000000000               0.000000000               0.000000000               0.000000000               0.000000000               0.000000000               0.000000000               0.000000000               0.000000000               0.000000000               0.000000000               0.000000000               0.000000000               0.000000000               0.000000000               0.000000000               0.000000000               0.000000000               0.000000000               0.000000000               0.000000000               0.000000000               0.000000000               0.000000000               0.000000000               0.000000000               0.000000000               0.000000000               0.000000000               0.000000000               0.000000000               0.000000000               0.000000000               0.000000000               0.000000000               0.000000000               0.000000000               0.000000000               0.000000000               0.000000000               0.000000000               0.000000000               0.000000000               0.000000000               0.000000000               0.000000000               0.000000000               0.000000000               0.000000000               0.000000000               0.000000000               0.000000000               0.000000000               0.000000000               0.000000000               0.000000000               0.000000000               0.000000000               0.000000000               0.000000000               0.000000000               0.000000000               0.000000000               0.000000000               0.000000000               0.000000000               0.000000000               0.000000000               0.000000000               0.000000000               0.000000000               0.000000000               0.000000000               0.000000000               0.000000000               0.000000000               0.000000000               0.000000000               0.000000000               0.000000000               0.000000000               0.000000000               0.000000000               0.000000000               0.000000000               0.000000000               0.000000000               0.000000000               0.000000000               0.000000000               0.000000000               0.000000000               0.000000000               0.000000000               0.000000000               0.000000000               0.000000000               0.000000000               0.000000000               0.000000000               0.000000000               0.000000000               0.000000000               0.000000000               0.000000000               0.000000000               0.000000000               0.000000000               0.000000000               0.000000000               0.000000000               0.000000000               0.000000000               0.000000000               0.000000000               0.000000000               0.000000000               0.000000000               0.000000000               0.000000000               0.000000000               0.000000000               0.000000000               0.000000000               0.000000000               0.000000000               0.000000000               0.000000000               0.000000000               0.000000000               0.000000000               0.000000000               0.000000000               0.000000000               0.000406347               0.004280345               0.000340051              -0.000382662               0.001554321               0.001171659               0.000000000               0.000000000               0.000000000               0.000000000               0.000442023               0.003579901               0.000227199              -0.000281728               0.001287198               0.001005469               0.000000000               0.000000000               0.000000000               0.000000000               0.000603214               0.003019793               0.000108937              -0.000151269               0.001057010               0.000905742               0.000000000               0.000000000               0.000000000               0.000000000               0.000634294               0.002712226               0.000051735              -0.000101168               0.000937789               0.000836621               0.000000000               0.000000000               0.000000000               0.000000000               0.000614080               0.002535095               0.000023106              -0.000086607               0.000873892               0.000787285               0.000000000               0.000000000               0.000000000               0.000000000               0.000568129               0.002430558               0.000008939              -0.000090771               0.000840435               0.000749664               0.000000000               0.000000000               0.000000000               0.000000000               0.000511553               0.002368053               0.000001732              -0.000104174               0.000824068               0.000719894               0.000000000               0.000000000               0.000000000               0.000000000               0.000452835               0.002333826              -0.000000617              -0.000121915               0.000818573               0.000696658               0.000000000               0.000000000               0.000000000               0.000000000               0.000390441               0.002316621              -0.000001056              -0.000143162               0.000819920               0.000676758               0.000000000               0.000000000               0.000000000               0.000000000               0.000328150               0.002309692              -0.000000769              -0.000165655               0.000825108               0.000659453               0.000000000               0.000000000               0.000000000               0.000000000               0.000269483               0.002311736              -0.000000268              -0.000187910               0.000833208               0.000645297               0.000000000               0.000000000               0.000000000               0.000000000               0.000214345               0.002321320              -0.000000333              -0.000209785               0.000843694               0.000633909               0.000000000               0.000000000               0.000000000               0.000000000               0.000162981               0.002339726              -0.000003106              -0.000231347               0.000857017               0.000625669               0.000000000               0.000000000               0.000000000               0.000000000               0.000114121               0.002365406              -0.000005767              -0.000252880               0.000872754               0.000619874               0.000000000               0.000000000               0.000000000               0.000000000               0.000070075               0.002393587              -0.000003648              -0.000272919               0.000888827               0.000615908               0.000000000               0.000000000               0.000000000               0.000000000               0.000032488               0.002421839              -0.000001955              -0.000290546               0.000904120               0.000613574               0.000000000               0.000000000               0.000000000               0.000000000               0.000018231               0.002443988              -0.000001574              -0.000298661               0.000914208               0.000615547               0.000000000               0.000000000               0.000000000               0.000000000               0.000481081               0.004088499               0.000645356              -0.000330656               0.001473038               0.001142382               0.000000000               0.000000000               0.000000000               0.000000000               0.000472591               0.003441094               0.000431933              -0.000252915               0.001231325               0.000978410               0.000000000               0.000000000               0.000000000               0.000000000               0.000585876               0.002941206               0.000209327              -0.000147947               0.001029708               0.000881761               0.000000000               0.000000000               0.000000000               0.000000000               0.000593938               0.002668083               0.000103430              -0.000110783               0.000926280               0.000815497               0.000000000               0.000000000               0.000000000               0.000000000               0.000562939               0.002510605               0.000051110              -0.000102723               0.000871101               0.000768378               0.000000000               0.000000000               0.000000000               0.000000000               0.000515650               0.002416695               0.000025606              -0.000108718               0.000841796               0.000733078               0.000000000               0.000000000               0.000000000               0.000000000               0.000462198               0.002361736               0.000013067              -0.000121892               0.000827868               0.000705976               0.000000000               0.000000000               0.000000000               0.000000000               0.000407084               0.002331132               0.000007347              -0.000138735               0.000823281               0.000684546               0.000000000               0.000000000               0.000000000               0.000000000               0.000350976               0.002314959               0.000006403              -0.000157753               0.000824230               0.000666476               0.000000000               0.000000000               0.000000000               0.000000000               0.000294188               0.002308314               0.000007427              -0.000178218               0.000828836               0.000650618               0.000000000               0.000000000               0.000000000               0.000000000               0.000239251               0.002310511               0.000007980              -0.000199094               0.000836528               0.000637433               0.000000000               0.000000000               0.000000000               0.000000000               0.000190010               0.002321695               0.000006171              -0.000218958               0.000846877               0.000627919               0.000000000               0.000000000               0.000000000               0.000000000               0.000143390               0.002339612               0.000000357              -0.000238679               0.000859423               0.000620743               0.000000000               0.000000000               0.000000000               0.000000000               0.000097946               0.002361172              -0.000002896              -0.000258416               0.000873188               0.000614772               0.000000000               0.000000000               0.000000000               0.000000000               0.000059703               0.002383686               0.000001235              -0.000275571               0.000886411               0.000610840               0.000000000               0.000000000               0.000000000               0.000000000               0.000027863               0.002405677               0.000003128              -0.000290260               0.000898638               0.000608378               0.000000000               0.000000000               0.000000000               0.000000000               0.000015734               0.002423541               0.000002782              -0.000297042               0.000906853               0.000609811               0.000000000               0.000000000               0.000000000               0.000000000               0.000583417               0.003787635               0.000891318              -0.000254673               0.001347423               0.001092750               0.000000000               0.000000000               0.000000000               0.000000000               0.000509557               0.003225550               0.000597725              -0.000212110               0.001145876               0.000933766               0.000000000               0.000000000               0.000000000               0.000000000               0.000552818               0.002822805               0.000294600              -0.000145543               0.000989440               0.000843896               0.000000000               0.000000000               0.000000000               0.000000000               0.000531928               0.002603170               0.000155601              -0.000125923               0.000909689               0.000783766               0.000000000               0.000000000               0.000000000               0.000000000               0.000491170               0.002475030               0.000088734              -0.000125190               0.000866732               0.000741542               0.000000000               0.000000000               0.000000000               0.000000000               0.000444155               0.002397124               0.000055114              -0.000133082               0.000843394               0.000710312               0.000000000               0.000000000               0.000000000               0.000000000               0.000396350               0.002351946               0.000038078              -0.000145361               0.000832428               0.000687066               0.000000000               0.000000000               0.000000000               0.000000000               0.000348248               0.002325014               0.000030448              -0.000160034               0.000828342               0.000668308               0.000000000               0.000000000               0.000000000               0.000000000               0.000299269               0.002309152               0.000027612              -0.000176418               0.000828515               0.000652098               0.000000000               0.000000000               0.000000000               0.000000000               0.000249611               0.002303150               0.000026067              -0.000194289               0.000832472               0.000638183               0.000000000               0.000000000               0.000000000               0.000000000               0.000201353               0.002306250               0.000023163              -0.000212774               0.000839667               0.000626893               0.000000000               0.000000000               0.000000000               0.000000000               0.000155672               0.002317333               0.000018803              -0.000231289               0.000849533               0.000618244               0.000000000               0.000000000               0.000000000               0.000000000               0.000115217               0.002333269               0.000011421              -0.000248452               0.000860566               0.000612114               0.000000000               0.000000000               0.000000000               0.000000000               0.000080741               0.002350166               0.000006791              -0.000263492               0.000871211               0.000607719               0.000000000               0.000000000               0.000000000               0.000000000               0.000051300               0.002365812               0.000011256              -0.000276488               0.000880759               0.000604270               0.000000000               0.000000000               0.000000000               0.000000000               0.000025284               0.002379995               0.000011817              -0.000288017               0.000889329               0.000601312               0.000000000               0.000000000               0.000000000               0.000000000               0.000015038               0.002391365               0.000009703              -0.000293281               0.000894874               0.000601593               0.000000000               0.000000000               0.000000000               0.000000000               0.000692818               0.003412462               0.001062740              -0.000166752               0.001193060               0.001026308               0.000000000               0.000000000               0.000000000               0.000000000               0.000544667               0.002965748               0.000717129              -0.000166468               0.001044062               0.000877594               0.000000000               0.000000000               0.000000000               0.000000000               0.000508320               0.002687172               0.000365359              -0.000145277               0.000944141               0.000798864               0.000000000               0.000000000               0.000000000               0.000000000               0.000458302               0.002528711               0.000209731              -0.000144225               0.000890970               0.000746745               0.000000000               0.000000000               0.000000000               0.000000000               0.000411406               0.002431778               0.000135558              -0.000149695               0.000860483               0.000710788               0.000000000               0.000000000               0.000000000               0.000000000               0.000367232               0.002371108               0.000097797              -0.000158676               0.000843254               0.000684578               0.000000000               0.000000000               0.000000000               0.000000000               0.000327866               0.002333811               0.000076858              -0.000168776               0.000834188               0.000665412               0.000000000               0.000000000               0.000000000               0.000000000               0.000288799               0.002308846               0.000064709              -0.000180306               0.000829710               0.000649404               0.000000000               0.000000000               0.000000000               0.000000000               0.000248121               0.002295546               0.000057473              -0.000193898               0.000829807               0.000635909               0.000000000               0.000000000               0.000000000               0.000000000               0.000208109               0.002291447               0.000050392              -0.000208390               0.000833271               0.000624882               0.000000000               0.000000000               0.000000000               0.000000000               0.000166589               0.002297394               0.000041830              -0.000224703               0.000840691               0.000615988               0.000000000               0.000000000               0.000000000               0.000000000               0.000126138               0.002310002               0.000032171              -0.000241448               0.000850475               0.000609028               0.000000000               0.000000000               0.000000000               0.000000000               0.000093426               0.002326020               0.000022671              -0.000255717               0.000860571               0.000604854               0.000000000               0.000000000               0.000000000               0.000000000               0.000068403               0.002337055               0.000017349              -0.000266480               0.000867837               0.000601357               0.000000000               0.000000000               0.000000000               0.000000000               0.000047171               0.002345570               0.000019801              -0.000275507               0.000873684               0.000598178               0.000000000               0.000000000               0.000000000               0.000000000               0.000023504               0.002352121               0.000018503              -0.000285200               0.000879099               0.000593899               0.000000000               0.000000000               0.000000000               0.000000000               0.000012194               0.002356853               0.000015066              -0.000290033               0.000882287               0.000592254               0.000000000               0.000000000               0.000000000               0.000000000               0.000787343               0.002998232               0.001153945              -0.000079526               0.001025909               0.000946383               0.000000000               0.000000000               0.000000000               0.000000000               0.000567579               0.002688047               0.000791442              -0.000123164               0.000937061               0.000813897               0.000000000               0.000000000               0.000000000               0.000000000               0.000454961               0.002544166               0.000424840              -0.000147410               0.000897184               0.000749773               0.000000000               0.000000000               0.000000000               0.000000000               0.000382203               0.002445516               0.000265748              -0.000162363               0.000869285               0.000706922               0.000000000               0.000000000               0.000000000               0.000000000               0.000332888               0.002378453               0.000189659              -0.000172473               0.000850301               0.000677828               0.000000000               0.000000000               0.000000000               0.000000000               0.000296739               0.002334887               0.000146966              -0.000180583               0.000838482               0.000657899               0.000000000               0.000000000               0.000000000               0.000000000               0.000267075               0.002306290               0.000120150              -0.000188133               0.000831467               0.000643334               0.000000000               0.000000000               0.000000000               0.000000000               0.000238007               0.002288117               0.000101844              -0.000196762               0.000828285               0.000631524               0.000000000               0.000000000               0.000000000               0.000000000               0.000206156               0.002280460               0.000087231              -0.000207749               0.000829395               0.000621647               0.000000000               0.000000000               0.000000000               0.000000000               0.000173176               0.002283173               0.000072681              -0.000220455               0.000834535               0.000614080               0.000000000               0.000000000               0.000000000               0.000000000               0.000140080               0.002294190               0.000055391              -0.000234243               0.000842803               0.000608560               0.000000000               0.000000000               0.000000000               0.000000000               0.000106921               0.002310217               0.000039473              -0.000248681               0.000852958               0.000604277               0.000000000               0.000000000               0.000000000               0.000000000               0.000080908               0.002323825               0.000030152              -0.000260137               0.000861313               0.000601176               0.000000000               0.000000000               0.000000000               0.000000000               0.000061696               0.002327711               0.000025040              -0.000267827               0.000865172               0.000597344               0.000000000               0.000000000               0.000000000               0.000000000               0.000044170               0.002328213               0.000022787              -0.000274462               0.000867551               0.000593088               0.000000000               0.000000000               0.000000000               0.000000000               0.000024384               0.002330542               0.000018153              -0.000282173               0.000870897               0.000588724               0.000000000               0.000000000               0.000000000               0.000000000               0.000015264               0.002334750               0.000014408              -0.000286119               0.000873615               0.000587496               0.000000000               0.000000000               0.000000000               0.000000000               0.000849507               0.002569701               0.001172030              -0.000002649               0.000857441               0.000854792               0.000000000               0.000000000               0.000000000               0.000000000               0.000575192               0.002405807               0.000826785              -0.000085030               0.000830271               0.000745241               0.000000000               0.000000000               0.000000000               0.000000000               0.000399118               0.002397126               0.000474935              -0.000149971               0.000849024               0.000699053               0.000000000               0.000000000               0.000000000               0.000000000               0.000313384               0.002355647               0.000321679              -0.000176937               0.000844187               0.000667250               0.000000000               0.000000000               0.000000000               0.000000000               0.000267536               0.002319584               0.000243375              -0.000189622               0.000836394               0.000646772               0.000000000               0.000000000               0.000000000               0.000000000               0.000241502               0.002295652               0.000194969              -0.000196393               0.000830674               0.000634281               0.000000000               0.000000000               0.000000000               0.000000000               0.000220739               0.002278547               0.000161189              -0.000202041               0.000826855               0.000624814               0.000000000               0.000000000               0.000000000               0.000000000               0.000201085               0.002273331               0.000135071              -0.000208759               0.000827356               0.000618597               0.000000000               0.000000000               0.000000000               0.000000000               0.000177769               0.002276569               0.000110880              -0.000217907               0.000831485               0.000613577               0.000000000               0.000000000               0.000000000               0.000000000               0.000150005               0.002286862               0.000087033              -0.000229605               0.000838815               0.000609210               0.000000000               0.000000000               0.000000000               0.000000000               0.000121536               0.002301004               0.000062014              -0.000242049               0.000847677               0.000605628               0.000000000               0.000000000               0.000000000               0.000000000               0.000094987               0.002314300               0.000040996              -0.000253667               0.000855981               0.000602315               0.000000000               0.000000000               0.000000000               0.000000000               0.000074093               0.002320182               0.000031767              -0.000262237               0.000860799               0.000598561               0.000000000               0.000000000               0.000000000               0.000000000               0.000057976               0.002321884               0.000027964              -0.000268494               0.000863452               0.000594958               0.000000000               0.000000000               0.000000000               0.000000000               0.000041967               0.002325998               0.000023209              -0.000275012               0.000866996               0.000591984               0.000000000               0.000000000               0.000000000               0.000000000               0.000022404               0.002336520               0.000015963              -0.000283663               0.000873386               0.000589724               0.000000000               0.000000000               0.000000000               0.000000000               0.000015055               0.002349537               0.000013207              -0.000288046               0.000879186               0.000591141               0.000000000               0.000000000               0.000000000               0.000000000               0.000876593               0.002148255               0.001126476               0.000060189               0.000696014               0.000756203               0.000000000               0.000000000               0.000000000               0.000000000               0.000568850               0.002134632               0.000829265              -0.000053511               0.000729374               0.000675863               0.000000000               0.000000000               0.000000000               0.000000000               0.000351320               0.002252442               0.000518844              -0.000149810               0.000800743               0.000650933               0.000000000               0.000000000               0.000000000               0.000000000               0.000263987               0.002264461               0.000373896              -0.000184062               0.000816167               0.000632105               0.000000000               0.000000000               0.000000000               0.000000000               0.000223711               0.002260144               0.000291097              -0.000198626               0.000819582               0.000620956               0.000000000               0.000000000               0.000000000               0.000000000               0.000205049               0.002255828               0.000236201              -0.000205085               0.000820297               0.000615212               0.000000000               0.000000000               0.000000000               0.000000000               0.000189831               0.002255464               0.000193483              -0.000210746               0.000822062               0.000611316               0.000000000               0.000000000               0.000000000               0.000000000               0.000175994               0.002265075               0.000156318              -0.000217136               0.000827396               0.000610260               0.000000000               0.000000000               0.000000000               0.000000000               0.000157314               0.002279842               0.000123210              -0.000225987               0.000835269               0.000609282               0.000000000               0.000000000               0.000000000               0.000000000               0.000130500               0.002296072               0.000093543              -0.000238071               0.000844707               0.000606636               0.000000000               0.000000000               0.000000000               0.000000000               0.000102487               0.002310788               0.000065081              -0.000250415               0.000853727               0.000603311               0.000000000               0.000000000               0.000000000               0.000000000               0.000084045               0.002320906               0.000042610              -0.000258596               0.000859826               0.000601230               0.000000000               0.000000000               0.000000000               0.000000000               0.000072093               0.002328571               0.000030948              -0.000264036               0.000864195               0.000600159               0.000000000               0.000000000               0.000000000               0.000000000               0.000058290               0.002344310               0.000025018              -0.000271179               0.000871822               0.000600643               0.000000000               0.000000000               0.000000000               0.000000000               0.000040777               0.002370917               0.000019126              -0.000281073               0.000883989               0.000602916               0.000000000               0.000000000               0.000000000               0.000000000               0.000021791               0.002408452               0.000011598              -0.000292884               0.000900437               0.000607553               0.000000000               0.000000000               0.000000000               0.000000000               0.000015292               0.002437655               0.000009728              -0.000298972               0.000912201               0.000613229               0.000000000               0.000000000               0.000000000               0.000000000               0.000886137               0.001769460               0.001035726               0.000111117               0.000552775               0.000663891               0.000000000               0.000000000               0.000000000               0.000000000               0.000570201               0.001888886               0.000815716              -0.000022287               0.000637051               0.000614764               0.000000000               0.000000000               0.000000000               0.000000000               0.000331461               0.002118545               0.000568020              -0.000140521               0.000753015               0.000612494               0.000000000               0.000000000               0.000000000               0.000000000               0.000245665               0.002185103               0.000428406              -0.000181013               0.000788698               0.000607685               0.000000000               0.000000000               0.000000000               0.000000000               0.000208620               0.002211898               0.000340259              -0.000198254               0.000803377               0.000605122               0.000000000               0.000000000               0.000000000               0.000000000               0.000192039               0.002226589               0.000277011              -0.000206309               0.000810959               0.000604650               0.000000000               0.000000000               0.000000000               0.000000000               0.000181638               0.002243134               0.000224367              -0.000212277               0.000818463               0.000606186               0.000000000               0.000000000               0.000000000               0.000000000               0.000169174               0.002264223               0.000176934              -0.000219587               0.000827929               0.000608342               0.000000000               0.000000000               0.000000000               0.000000000               0.000148680               0.002287804               0.000137830              -0.000230220               0.000839334               0.000609114               0.000000000               0.000000000               0.000000000               0.000000000               0.000122522               0.002311367               0.000105783              -0.000242975               0.000851439               0.000608465               0.000000000               0.000000000               0.000000000               0.000000000               0.000099041               0.002332167               0.000077271              -0.000254380               0.000862174               0.000607795               0.000000000               0.000000000               0.000000000               0.000000000               0.000086729               0.002347707               0.000052175              -0.000260939               0.000869541               0.000608602               0.000000000               0.000000000               0.000000000               0.000000000               0.000079521               0.002366764               0.000033954              -0.000266024               0.000877588               0.000611564               0.000000000               0.000000000               0.000000000               0.000000000               0.000068465               0.002399445               0.000022721              -0.000274256               0.000891226               0.000616970               0.000000000               0.000000000               0.000000000               0.000000000               0.000054353               0.002449722               0.000012032              -0.000285832               0.000911843               0.000626011               0.000000000               0.000000000               0.000000000               0.000000000               0.000040777               0.002515243               0.000003071              -0.000299113               0.000938111               0.000638997               0.000000000               0.000000000               0.000000000               0.000000000               0.000033154               0.002553123               0.000000452              -0.000306707               0.000953268               0.000646561               0.000000000               0.000000000               0.000000000               0.000000000               0.000869701               0.001397286               0.000921731               0.000151475               0.000415265               0.000566740               0.000000000               0.000000000               0.000000000               0.000000000               0.000588048               0.001599031               0.000795525               0.000020638               0.000526126               0.000546763               0.000000000               0.000000000               0.000000000               0.000000000               0.000349904               0.001910820               0.000625806              -0.000107639               0.000672813               0.000565174               0.000000000               0.000000000               0.000000000               0.000000000               0.000262436               0.002040555               0.000495842              -0.000156656               0.000732397               0.000575741               0.000000000               0.000000000               0.000000000               0.000000000               0.000221928               0.002106344               0.000403689              -0.000180070               0.000762131               0.000582061               0.000000000               0.000000000               0.000000000               0.000000000               0.000201163               0.002144682               0.000332145              -0.000192649               0.000779103               0.000586454               0.000000000               0.000000000               0.000000000               0.000000000               0.000187251               0.002174890               0.000271320              -0.000201642               0.000792170               0.000590528               0.000000000               0.000000000               0.000000000               0.000000000               0.000175450               0.002208610               0.000216968              -0.000210282               0.000806290               0.000596008               0.000000000               0.000000000               0.000000000               0.000000000               0.000160626               0.002244583               0.000172044              -0.000220337               0.000821633               0.000601295               0.000000000               0.000000000               0.000000000               0.000000000               0.000136178               0.002279136               0.000135790              -0.000233825               0.000837646               0.000603821               0.000000000               0.000000000               0.000000000               0.000000000               0.000113279               0.002313739               0.000107916              -0.000246737               0.000853484               0.000606747               0.000000000               0.000000000               0.000000000               0.000000000               0.000099749               0.002344802               0.000082552              -0.000255694               0.000866824               0.000611130               0.000000000               0.000000000               0.000000000               0.000000000               0.000095873               0.002378938               0.000058667              -0.000261414               0.000880110               0.000618695               0.000000000               0.000000000               0.000000000               0.000000000               0.000091337               0.002421138               0.000038738              -0.000268390               0.000896501               0.000628111               0.000000000               0.000000000               0.000000000               0.000000000               0.000084079               0.002482302               0.000019950              -0.000278757               0.000920345               0.000641587               0.000000000               0.000000000               0.000000000               0.000000000               0.000075807               0.002567246               0.000005642              -0.000292477               0.000953233               0.000660755               0.000000000               0.000000000               0.000000000               0.000000000               0.000064182               0.002608796              -0.000001802              -0.000302031               0.000970267               0.000668236               0.000000000               0.000000000               0.000000000               0.000000000               0.000812695               0.001045330               0.000786290               0.000174092               0.000290409               0.000464501               0.000000000               0.000000000               0.000000000               0.000000000               0.000609541               0.001305056               0.000753618               0.000065444               0.000413199               0.000478643               0.000000000               0.000000000               0.000000000               0.000000000               0.000399420               0.001671247               0.000668179              -0.000059124               0.000576784               0.000517661               0.000000000               0.000000000               0.000000000               0.000000000               0.000311548               0.001860571               0.000559485              -0.000115741               0.000658764               0.000543023               0.000000000               0.000000000               0.000000000               0.000000000               0.000262374               0.001968681               0.000468705              -0.000147695               0.000705452               0.000557757               0.000000000               0.000000000               0.000000000               0.000000000               0.000234800               0.002034664               0.000393219              -0.000166283               0.000733642               0.000567359               0.000000000               0.000000000               0.000000000               0.000000000               0.000216427               0.002083385               0.000326653              -0.000179263               0.000754209               0.000574946               0.000000000               0.000000000               0.000000000               0.000000000               0.000203523               0.002130400               0.000268672              -0.000189979               0.000773453               0.000583474               0.000000000               0.000000000               0.000000000               0.000000000               0.000191157               0.002180241               0.000217242              -0.000200846               0.000793688               0.000592843               0.000000000               0.000000000               0.000000000               0.000000000               0.000172718               0.002229639               0.000175513              -0.000213935               0.000814517               0.000600582               0.000000000               0.000000000               0.000000000               0.000000000               0.000150981               0.002277092               0.000147621              -0.000228018               0.000835029               0.000607011               0.000000000               0.000000000               0.000000000               0.000000000               0.000134438               0.002319562               0.000123987              -0.000239530               0.000853023               0.000613493               0.000000000               0.000000000               0.000000000               0.000000000               0.000126497               0.002364016               0.000096169              -0.000248065               0.000870686               0.000622621               0.000000000               0.000000000               0.000000000               0.000000000               0.000120963               0.002418087               0.000065694              -0.000256899               0.000891654               0.000634755               0.000000000               0.000000000               0.000000000               0.000000000               0.000113346               0.002484981               0.000035606              -0.000268117               0.000917691               0.000649574               0.000000000               0.000000000               0.000000000               0.000000000               0.000107219               0.002570209               0.000012168              -0.000281068               0.000950417               0.000669349               0.000000000               0.000000000               0.000000000               0.000000000               0.000093845               0.002608274              -0.000000971              -0.000290842               0.000966363               0.000675521               0.000000000               0.000000000               0.000000000               0.000000000               0.000718315               0.000731814               0.000632100               0.000177889               0.000184639               0.000362528               0.000000000               0.000000000               0.000000000               0.000000000               0.000615177               0.001017768               0.000677360               0.000103469               0.000304763               0.000408231               0.000000000               0.000000000               0.000000000               0.000000000               0.000464325               0.001404362               0.000669533              -0.000001424               0.000468591               0.000467166               0.000000000               0.000000000               0.000000000               0.000000000               0.000384854               0.001638738               0.000590980              -0.000060523               0.000566415               0.000505892               0.000000000               0.000000000               0.000000000               0.000000000               0.000329178               0.001786230               0.000510010              -0.000099837               0.000628683               0.000528846               0.000000000               0.000000000               0.000000000               0.000000000               0.000290634               0.001883705               0.000436762              -0.000126475               0.000670054               0.000543579               0.000000000               0.000000000               0.000000000               0.000000000               0.000266666               0.001956643               0.000371168              -0.000144581               0.000700401               0.000555821               0.000000000               0.000000000               0.000000000               0.000000000               0.000250482               0.002022865               0.000311411              -0.000158927               0.000727257               0.000568330               0.000000000               0.000000000               0.000000000               0.000000000               0.000235161               0.002089667               0.000256648              -0.000173023               0.000754223               0.000581200               0.000000000               0.000000000               0.000000000               0.000000000               0.000220302               0.002156077               0.000212202              -0.000186896               0.000780984               0.000594088               0.000000000               0.000000000               0.000000000               0.000000000               0.000201540               0.002220712               0.000183409              -0.000202011               0.000807567               0.000605556               0.000000000               0.000000000               0.000000000               0.000000000               0.000181580               0.002277462               0.000160646              -0.000216590               0.000831343               0.000614753               0.000000000               0.000000000               0.000000000               0.000000000               0.000165267               0.002334792               0.000130073              -0.000229873               0.000854881               0.000625007               0.000000000               0.000000000               0.000000000               0.000000000               0.000153279               0.002400703               0.000091636              -0.000242608               0.000881096               0.000638488               0.000000000               0.000000000               0.000000000               0.000000000               0.000144869               0.002477522               0.000054933              -0.000255364               0.000910954               0.000655590               0.000000000               0.000000000               0.000000000               0.000000000               0.000137182               0.002565816               0.000024873              -0.000269283               0.000945024               0.000675741               0.000000000               0.000000000               0.000000000               0.000000000               0.000121929               0.002604033               0.000007131              -0.000279780               0.000961262               0.000681482               0.000000000               0.000000000               0.000000000               0.000000000               0.000597800               0.000476553               0.000474105               0.000164604               0.000103981               0.000268585               0.000000000               0.000000000               0.000000000               0.000000000               0.000604522               0.000756038               0.000570671               0.000132189               0.000207947               0.000340136               0.000000000               0.000000000               0.000000000               0.000000000               0.000532193               0.001130780               0.000622149               0.000058224               0.000357515               0.000415738               0.000000000               0.000000000               0.000000000               0.000000000               0.000472427               0.001390825               0.000576486               0.000003306               0.000462502               0.000465808               0.000000000               0.000000000               0.000000000               0.000000000               0.000417147               0.001572738               0.000511758              -0.000040163               0.000537628               0.000497466               0.000000000               0.000000000               0.000000000               0.000000000               0.000368029               0.001703694               0.000448485              -0.000074951               0.000592876               0.000517925               0.000000000               0.000000000               0.000000000               0.000000000               0.000332742               0.001804490               0.000388897              -0.000100783               0.000635085               0.000534302               0.000000000               0.000000000               0.000000000               0.000000000               0.000306943               0.001894088               0.000331869              -0.000121657               0.000671909               0.000550251               0.000000000               0.000000000               0.000000000               0.000000000               0.000287158               0.001980098               0.000279733              -0.000139828               0.000706635               0.000566808               0.000000000               0.000000000               0.000000000               0.000000000               0.000270758               0.002064772               0.000236577              -0.000156562               0.000740438               0.000583876               0.000000000               0.000000000               0.000000000               0.000000000               0.000255156               0.002150894               0.000206862              -0.000173178               0.000774683               0.000601506               0.000000000               0.000000000               0.000000000               0.000000000               0.000233032               0.002227493               0.000183452              -0.000191049               0.000806173               0.000615124               0.000000000               0.000000000               0.000000000               0.000000000               0.000212266               0.002296668               0.000153891              -0.000207483               0.000834709               0.000627226               0.000000000               0.000000000               0.000000000               0.000000000               0.000198465               0.002369858               0.000117369              -0.000221807               0.000863880               0.000642073               0.000000000               0.000000000               0.000000000               0.000000000               0.000190403               0.002457308               0.000077204              -0.000235762               0.000897682               0.000661920               0.000000000               0.000000000               0.000000000               0.000000000               0.000179864               0.002556519               0.000036675              -0.000252115               0.000936203               0.000684087               0.000000000               0.000000000               0.000000000               0.000000000               0.000162117               0.002600847               0.000013951              -0.000264311               0.000955044               0.000690733               0.000000000               0.000000000               0.000000000               0.000000000               0.000467154               0.000286069               0.000327898               0.000139423               0.000048881               0.000188304               0.000000000               0.000000000               0.000000000               0.000000000               0.000580806               0.000536888               0.000442267               0.000150689               0.000128731               0.000279420               0.000000000               0.000000000               0.000000000               0.000000000               0.000593840               0.000876225               0.000523436               0.000113160               0.000254352               0.000367512               0.000000000               0.000000000               0.000000000               0.000000000               0.000560854               0.001144444               0.000506739               0.000067264               0.000359056               0.000426320               0.000000000               0.000000000               0.000000000               0.000000000               0.000512542               0.001353368               0.000461400               0.000023032               0.000443441               0.000466473               0.000000000               0.000000000               0.000000000               0.000000000               0.000459627               0.001513447               0.000412908              -0.000016821               0.000510084               0.000493263               0.000000000               0.000000000               0.000000000               0.000000000               0.000410772               0.001642260               0.000363711              -0.000051243               0.000564496               0.000513252               0.000000000               0.000000000               0.000000000               0.000000000               0.000373941               0.001758709               0.000314832              -0.000079611               0.000612767               0.000533156               0.000000000               0.000000000               0.000000000               0.000000000               0.000343412               0.001861062               0.000270352              -0.000103853               0.000654965               0.000551112               0.000000000               0.000000000               0.000000000               0.000000000               0.000321968               0.001960816               0.000234726              -0.000124364               0.000695053               0.000570689               0.000000000               0.000000000               0.000000000               0.000000000               0.000307596               0.002065616               0.000206674              -0.000142853               0.000736149               0.000593296               0.000000000               0.000000000               0.000000000               0.000000000               0.000290108               0.002164352               0.000183248              -0.000161753               0.000775361               0.000613608               0.000000000               0.000000000               0.000000000               0.000000000               0.000270501               0.002249608               0.000159507              -0.000179763               0.000809783               0.000630020               0.000000000               0.000000000               0.000000000               0.000000000               0.000257037               0.002333455               0.000127929              -0.000195292               0.000842908               0.000647616               0.000000000               0.000000000               0.000000000               0.000000000               0.000248307               0.002430279               0.000087489              -0.000210669               0.000880308               0.000669639               0.000000000               0.000000000               0.000000000               0.000000000               0.000244219               0.002542691               0.000044078              -0.000226254               0.000922973               0.000696719               0.000000000               0.000000000               0.000000000               0.000000000               0.000233124               0.002596719               0.000019945              -0.000237168               0.000944620               0.000707453               0.000000000               0.000000000               0.000000000               0.000000000               0.000349578               0.000159746               0.000200789               0.000111122               0.000016207               0.000127329               0.000000000               0.000000000               0.000000000               0.000000000               0.000551718               0.000371752               0.000300319               0.000160424               0.000070441               0.000230865               0.000000000               0.000000000               0.000000000               0.000000000               0.000644094               0.000669520               0.000378883               0.000157844               0.000170557               0.000328400               0.000000000               0.000000000               0.000000000               0.000000000               0.000639311               0.000934770               0.000379379               0.000122894               0.000270622               0.000393516               0.000000000               0.000000000               0.000000000               0.000000000               0.000598683               0.001156513               0.000353151               0.000079941               0.000358853               0.000438794               0.000000000               0.000000000               0.000000000               0.000000000               0.000544915               0.001338727               0.000320083               0.000037002               0.000433904               0.000470906               0.000000000               0.000000000               0.000000000               0.000000000               0.000490024               0.001492374               0.000285563              -0.000002788               0.000498382               0.000495594               0.000000000               0.000000000               0.000000000               0.000000000               0.000443751               0.001629033               0.000248978              -0.000037223               0.000555413               0.000518191               0.000000000               0.000000000               0.000000000               0.000000000               0.000404929               0.001749480               0.000215987              -0.000066837               0.000605433               0.000538597               0.000000000               0.000000000               0.000000000               0.000000000               0.000374625               0.001861084               0.000192436              -0.000092151               0.000651072               0.000558921               0.000000000               0.000000000               0.000000000               0.000000000               0.000355814               0.001974252               0.000172656              -0.000113351               0.000695861               0.000582510               0.000000000               0.000000000               0.000000000               0.000000000               0.000343344               0.002088598               0.000152650              -0.000132321               0.000740299               0.000607979               0.000000000               0.000000000               0.000000000               0.000000000               0.000324755               0.002194839               0.000132241              -0.000152571               0.000782463               0.000629892               0.000000000               0.000000000               0.000000000               0.000000000               0.000310394               0.002299490               0.000108641              -0.000171038               0.000823502               0.000652464               0.000000000               0.000000000               0.000000000               0.000000000               0.000313593               0.002410465               0.000077705              -0.000183710               0.000864717               0.000681007               0.000000000               0.000000000               0.000000000               0.000000000               0.000326099               0.002531888               0.000040841              -0.000194199               0.000908687               0.000714488               0.000000000               0.000000000               0.000000000               0.000000000               0.000328924               0.002593303               0.000019974              -0.000200816               0.000931364               0.000730548               0.000000000               0.000000000               0.000000000               0.000000000               0.000267879               0.000090708               0.000094255               0.000089115               0.000000531               0.000089646               0.000000000               0.000000000               0.000000000               0.000000000               0.000527696               0.000269923               0.000151559               0.000164144               0.000035259               0.000199403               0.000000000               0.000000000               0.000000000               0.000000000               0.000676891               0.000534000               0.000199232               0.000187082               0.000115637               0.000302720               0.000000000               0.000000000               0.000000000               0.000000000               0.000693928               0.000792624               0.000203497               0.000161144               0.000210491               0.000371634               0.000000000               0.000000000               0.000000000               0.000000000               0.000660593               0.001018899               0.000191897               0.000120359               0.000299510               0.000419869               0.000000000               0.000000000               0.000000000               0.000000000               0.000606555               0.001213054               0.000175856               0.000075826               0.000379072               0.000454898               0.000000000               0.000000000               0.000000000               0.000000000               0.000549121               0.001382337               0.000158428               0.000033128               0.000449732               0.000482860               0.000000000               0.000000000               0.000000000               0.000000000               0.000496986               0.001532966               0.000138558              -0.000005251               0.000512734               0.000507483               0.000000000               0.000000000               0.000000000               0.000000000               0.000456437               0.001668896               0.000119733              -0.000037448               0.000568776               0.000531328               0.000000000               0.000000000               0.000000000               0.000000000               0.000421196               0.001789055               0.000108197              -0.000065683               0.000618240               0.000552557               0.000000000               0.000000000               0.000000000               0.000000000               0.000392680               0.001906205               0.000101439              -0.000091020               0.000665735               0.000574715               0.000000000               0.000000000               0.000000000               0.000000000               0.000373095               0.002028862               0.000088307              -0.000113697               0.000714180               0.000600483               0.000000000               0.000000000               0.000000000               0.000000000               0.000360597               0.002151039               0.000071481              -0.000133656               0.000761558               0.000627902               0.000000000               0.000000000               0.000000000               0.000000000               0.000356972               0.002274622               0.000063111              -0.000150463               0.000808354               0.000657891               0.000000000               0.000000000               0.000000000               0.000000000               0.000369176               0.002400832               0.000049075              -0.000161663               0.000854157               0.000692494               0.000000000               0.000000000               0.000000000               0.000000000               0.000398848               0.002530711               0.000023520              -0.000166770               0.000899152               0.000732382               0.000000000               0.000000000               0.000000000               0.000000000               0.000420044               0.002596778               0.000010120              -0.000167080               0.000921278               0.000754197               0.000000000               0.000000000               0.000000000               0.000000000               0.000238099               0.000068807               0.000000000               0.000080685              -0.000003960               0.000076726               0.000000000               0.000000000               0.000000000               0.000000000               0.000517834               0.000235069               0.000000000               0.000164802               0.000023421               0.000188224               0.000000000               0.000000000               0.000000000               0.000000000               0.000687761               0.000486006               0.000000000               0.000197158               0.000096281               0.000293439               0.000000000               0.000000000               0.000000000               0.000000000               0.000712984               0.000741860              -0.000000000               0.000174635               0.000189072               0.000363707               0.000000000               0.000000000               0.000000000               0.000000000               0.000682919               0.000969433              -0.000000000               0.000134914               0.000278170               0.000413084               0.000000000               0.000000000               0.000000000               0.000000000               0.000630667               0.001168669               0.000000000               0.000090416               0.000359414               0.000449830               0.000000000               0.000000000               0.000000000               0.000000000               0.000571077               0.001342982               0.000000000               0.000046281               0.000432229               0.000478510               0.000000000               0.000000000               0.000000000               0.000000000               0.000516245               0.001495950              -0.000000000               0.000006598               0.000496446               0.000503044               0.000000000               0.000000000               0.000000000               0.000000000               0.000474492               0.001635052              -0.000000000              -0.000026447               0.000553827               0.000527380               0.000000000               0.000000000               0.000000000               0.000000000               0.000441253               0.001763164               0.000000000              -0.000054925               0.000606024               0.000551098               0.000000000               0.000000000               0.000000000               0.000000000               0.000407033               0.001884475              -0.000000000              -0.000082922               0.000655792               0.000572871               0.000000000               0.000000000               0.000000000               0.000000000               0.000378167               0.002005077              -0.000000000              -0.000108822               0.000704626               0.000595804               0.000000000               0.000000000               0.000000000               0.000000000               0.000372296               0.002133495               0.000000000              -0.000127076               0.000753516               0.000626441               0.000000000               0.000000000               0.000000000               0.000000000               0.000380867               0.002266888               0.000000000              -0.000140535               0.000802467               0.000661931               0.000000000               0.000000000               0.000000000               0.000000000               0.000391728               0.002397807              -0.000000000              -0.000152828               0.000850203               0.000697376               0.000000000               0.000000000               0.000000000               0.000000000               0.000428640               0.002532818              -0.000000000              -0.000155862               0.000896218               0.000740356               0.000000000               0.000000000               0.000000000               0.000000000               0.000460791               0.002602079              -0.000000000              -0.000152463               0.000918172               0.000765709               0.000000000               0.000000000               0.000000000               0.000000000               0.000377604               0.004345701               0.000000000              -0.000401610               0.001582422               0.001180812               0.000000000               0.000000000               0.000000000               0.000000000               0.000428851               0.003627051               0.000000000              -0.000292562               0.001306525               0.001013964               0.000000000               0.000000000               0.000000000               0.000000000               0.000608546               0.003046382               0.000000000              -0.000152593               0.001066315               0.000913722               0.000000000               0.000000000               0.000000000               0.000000000               0.000648745               0.002726741              -0.000000000              -0.000097563               0.000941425               0.000843862               0.000000000               0.000000000               0.000000000               0.000000000               0.000631376               0.002542304              -0.000000000              -0.000081022               0.000874434               0.000793412               0.000000000               0.000000000               0.000000000               0.000000000               0.000586155               0.002432305              -0.000000000              -0.000084230               0.000838837               0.000754607               0.000000000               0.000000000               0.000000000               0.000000000               0.000530737               0.002369471              -0.000000000              -0.000097157               0.000822201               0.000725044               0.000000000               0.000000000               0.000000000               0.000000000               0.000471224               0.002335408              -0.000000000              -0.000115217               0.000816867               0.000701650               0.000000000               0.000000000               0.000000000               0.000000000               0.000404400               0.002316232              -0.000000000              -0.000137879               0.000818029               0.000680150               0.000000000               0.000000000               0.000000000               0.000000000               0.000338347               0.002309914               0.000000000              -0.000161859               0.000823916               0.000662058               0.000000000               0.000000000               0.000000000               0.000000000               0.000279458               0.002312253               0.000000000              -0.000184235               0.000832155               0.000647920               0.000000000               0.000000000               0.000000000               0.000000000               0.000225521               0.002322747               0.000000000              -0.000205772               0.000842832               0.000637060               0.000000000               0.000000000               0.000000000               0.000000000               0.000172200               0.002338954               0.000000000              -0.000227794               0.000855575               0.000627781               0.000000000               0.000000000               0.000000000               0.000000000               0.000120743               0.002364737               0.000000000              -0.000250313               0.000871675               0.000621362               0.000000000               0.000000000               0.000000000               0.000000000               0.000074738               0.002395461               0.000000000              -0.000271405               0.000888947               0.000617542               0.000000000               0.000000000               0.000000000               0.000000000               0.000035316               0.002426689               0.000000000              -0.000290092               0.000905586               0.000615494               0.000000000               0.000000000               0.000000000               0.000000000               0.000020176               0.002450811               0.000000000              -0.000298785               0.000916524               0.000617739               0.000000000               0.000000000               0.000000000               0.000000000               0.000406347               0.004280345              -0.000340051              -0.000382662               0.001554321               0.001171659               0.000000000               0.000000000               0.000000000               0.000000000               0.000442023               0.003579901              -0.000227199              -0.000281728               0.001287198               0.001005469               0.000000000               0.000000000               0.000000000               0.000000000               0.000603214               0.003019793              -0.000108937              -0.000151269               0.001057010               0.000905742               0.000000000               0.000000000               0.000000000               0.000000000               0.000634294               0.002712226              -0.000051735              -0.000101168               0.000937789               0.000836621               0.000000000               0.000000000               0.000000000               0.000000000               0.000614080               0.002535095              -0.000023106              -0.000086607               0.000873892               0.000787285               0.000000000               0.000000000               0.000000000               0.000000000               0.000568129               0.002430558              -0.000008939              -0.000090771               0.000840435               0.000749664               0.000000000               0.000000000               0.000000000               0.000000000               0.000511553               0.002368053              -0.000001732              -0.000104174               0.000824068               0.000719894               0.000000000               0.000000000               0.000000000               0.000000000               0.000452835               0.002333826               0.000000617              -0.000121915               0.000818573               0.000696658               0.000000000               0.000000000               0.000000000               0.000000000               0.000390441               0.002316621               0.000001056              -0.000143162               0.000819920               0.000676758               0.000000000               0.000000000               0.000000000               0.000000000               0.000328150               0.002309692               0.000000769              -0.000165655               0.000825108               0.000659453               0.000000000               0.000000000               0.000000000               0.000000000               0.000269483               0.002311736               0.000000268              -0.000187910               0.000833208               0.000645297               0.000000000               0.000000000               0.000000000               0.000000000               0.000214345               0.002321320               0.000000333              -0.000209785               0.000843694               0.000633909               0.000000000               0.000000000               0.000000000               0.000000000               0.000162981               0.002339726               0.000003106              -0.000231347               0.000857017               0.000625669               0.000000000               0.000000000               0.000000000               0.000000000               0.000114121               0.002365406               0.000005767              -0.000252880               0.000872754               0.000619874               0.000000000               0.000000000               0.000000000               0.000000000               0.000070075               0.002393587               0.000003648              -0.000272919               0.000888827               0.000615908               0.000000000               0.000000000               0.000000000               0.000000000               0.000032488               0.002421839               0.000001955              -0.000290546               0.000904120               0.000613574               0.000000000               0.000000000               0.000000000               0.000000000               0.000018231               0.002443988               0.000001574              -0.000298661               0.000914208               0.000615547               0.000000000               0.000000000               0.000000000               0.000000000               0.000481081               0.004088499              -0.000645356              -0.000330656               0.001473038               0.001142382               0.000000000               0.000000000               0.000000000               0.000000000               0.000472591               0.003441094              -0.000431933              -0.000252915               0.001231325               0.000978410               0.000000000               0.000000000               0.000000000               0.000000000               0.000585876               0.002941206              -0.000209327              -0.000147947               0.001029708               0.000881761               0.000000000               0.000000000               0.000000000               0.000000000               0.000593938               0.002668083              -0.000103430              -0.000110783               0.000926280               0.000815497               0.000000000               0.000000000               0.000000000               0.000000000               0.000562939               0.002510605              -0.000051110              -0.000102723               0.000871101               0.000768378               0.000000000               0.000000000               0.000000000               0.000000000               0.000515650               0.002416695              -0.000025606              -0.000108718               0.000841796               0.000733078               0.000000000               0.000000000               0.000000000               0.000000000               0.000462198               0.002361736              -0.000013067              -0.000121892               0.000827868               0.000705976               0.000000000               0.000000000               0.000000000               0.000000000               0.000407084               0.002331132              -0.000007347              -0.000138735               0.000823281               0.000684546               0.000000000               0.000000000               0.000000000               0.000000000               0.000350976               0.002314959              -0.000006403              -0.000157753               0.000824230               0.000666476               0.000000000               0.000000000               0.000000000               0.000000000               0.000294188               0.002308314              -0.000007427              -0.000178218               0.000828836               0.000650618               0.000000000               0.000000000               0.000000000               0.000000000               0.000239251               0.002310511              -0.000007980              -0.000199094               0.000836528               0.000637433               0.000000000               0.000000000               0.000000000               0.000000000               0.000190010               0.002321695              -0.000006171              -0.000218958               0.000846877               0.000627919               0.000000000               0.000000000               0.000000000               0.000000000               0.000143390               0.002339612              -0.000000357              -0.000238679               0.000859423               0.000620743               0.000000000               0.000000000               0.000000000               0.000000000               0.000097946               0.002361172               0.000002896              -0.000258416               0.000873188               0.000614772               0.000000000               0.000000000               0.000000000               0.000000000               0.000059703               0.002383686              -0.000001235              -0.000275571               0.000886411               0.000610840               0.000000000               0.000000000               0.000000000               0.000000000               0.000027863               0.002405677              -0.000003128              -0.000290260               0.000898638               0.000608378               0.000000000               0.000000000               0.000000000               0.000000000               0.000015734               0.002423541              -0.000002782              -0.000297042               0.000906853               0.000609811               0.000000000               0.000000000               0.000000000               0.000000000               0.000583417               0.003787635              -0.000891318              -0.000254673               0.001347423               0.001092750               0.000000000               0.000000000               0.000000000               0.000000000               0.000509557               0.003225550              -0.000597725              -0.000212110               0.001145876               0.000933766               0.000000000               0.000000000               0.000000000               0.000000000               0.000552818               0.002822805              -0.000294600              -0.000145543               0.000989440               0.000843896               0.000000000               0.000000000               0.000000000               0.000000000               0.000531928               0.002603170              -0.000155601              -0.000125923               0.000909689               0.000783766               0.000000000               0.000000000               0.000000000               0.000000000               0.000491170               0.002475030              -0.000088734              -0.000125190               0.000866732               0.000741542               0.000000000               0.000000000               0.000000000               0.000000000               0.000444155               0.002397124              -0.000055114              -0.000133082               0.000843394               0.000710312               0.000000000               0.000000000               0.000000000               0.000000000               0.000396350               0.002351946              -0.000038078              -0.000145361               0.000832428               0.000687066               0.000000000               0.000000000               0.000000000               0.000000000               0.000348248               0.002325014              -0.000030448              -0.000160034               0.000828342               0.000668308               0.000000000               0.000000000               0.000000000               0.000000000               0.000299269               0.002309152              -0.000027612              -0.000176418               0.000828515               0.000652098               0.000000000               0.000000000               0.000000000               0.000000000               0.000249611               0.002303150              -0.000026067              -0.000194289               0.000832472               0.000638183               0.000000000               0.000000000               0.000000000               0.000000000               0.000201353               0.002306250              -0.000023163              -0.000212774               0.000839667               0.000626893               0.000000000               0.000000000               0.000000000               0.000000000               0.000155672               0.002317333              -0.000018803              -0.000231289               0.000849533               0.000618244               0.000000000               0.000000000               0.000000000               0.000000000               0.000115217               0.002333269              -0.000011421              -0.000248452               0.000860566               0.000612114               0.000000000               0.000000000               0.000000000               0.000000000               0.000080741               0.002350166              -0.000006791              -0.000263492               0.000871211               0.000607719               0.000000000               0.000000000               0.000000000               0.000000000               0.000051300               0.002365812              -0.000011256              -0.000276488               0.000880759               0.000604270               0.000000000               0.000000000               0.000000000               0.000000000               0.000025284               0.002379995              -0.000011817              -0.000288017               0.000889329               0.000601312               0.000000000               0.000000000               0.000000000               0.000000000               0.000015038               0.002391365              -0.000009703              -0.000293281               0.000894874               0.000601593               0.000000000               0.000000000               0.000000000               0.000000000               0.000692818               0.003412462              -0.001062740              -0.000166752               0.001193060               0.001026308               0.000000000               0.000000000               0.000000000               0.000000000               0.000544667               0.002965748              -0.000717129              -0.000166468               0.001044062               0.000877594               0.000000000               0.000000000               0.000000000               0.000000000               0.000508320               0.002687172              -0.000365359              -0.000145277               0.000944141               0.000798864               0.000000000               0.000000000               0.000000000               0.000000000               0.000458302               0.002528711              -0.000209731              -0.000144225               0.000890970               0.000746745               0.000000000               0.000000000               0.000000000               0.000000000               0.000411406               0.002431778              -0.000135558              -0.000149695               0.000860483               0.000710788               0.000000000               0.000000000               0.000000000               0.000000000               0.000367232               0.002371108              -0.000097797              -0.000158676               0.000843254               0.000684578               0.000000000               0.000000000               0.000000000               0.000000000               0.000327866               0.002333811              -0.000076858              -0.000168776               0.000834188               0.000665412               0.000000000               0.000000000               0.000000000               0.000000000               0.000288799               0.002308846              -0.000064709              -0.000180306               0.000829710               0.000649404               0.000000000               0.000000000               0.000000000               0.000000000               0.000248121               0.002295546              -0.000057473              -0.000193898               0.000829807               0.000635909               0.000000000               0.000000000               0.000000000               0.000000000               0.000208109               0.002291447              -0.000050392              -0.000208390               0.000833271               0.000624882               0.000000000               0.000000000               0.000000000               0.000000000               0.000166589               0.002297394              -0.000041830              -0.000224703               0.000840691               0.000615988               0.000000000               0.000000000               0.000000000               0.000000000               0.000126138               0.002310002              -0.000032171              -0.000241448               0.000850475               0.000609028               0.000000000               0.000000000               0.000000000               0.000000000               0.000093426               0.002326020              -0.000022671              -0.000255717               0.000860571               0.000604854               0.000000000               0.000000000               0.000000000               0.000000000               0.000068403               0.002337055              -0.000017349              -0.000266480               0.000867837               0.000601357               0.000000000               0.000000000               0.000000000               0.000000000               0.000047171               0.002345570              -0.000019801              -0.000275507               0.000873684               0.000598178               0.000000000               0.000000000               0.000000000               0.000000000               0.000023504               0.002352121              -0.000018503              -0.000285200               0.000879099               0.000593899               0.000000000               0.000000000               0.000000000               0.000000000               0.000012194               0.002356853              -0.000015066              -0.000290033               0.000882287               0.000592254               0.000000000               0.000000000               0.000000000               0.000000000               0.000787343               0.002998232              -0.001153945              -0.000079526               0.001025909               0.000946383               0.000000000               0.000000000               0.000000000               0.000000000               0.000567579               0.002688047              -0.000791442              -0.000123164               0.000937061               0.000813897               0.000000000               0.000000000               0.000000000               0.000000000               0.000454961               0.002544166              -0.000424840              -0.000147410               0.000897184               0.000749773               0.000000000               0.000000000               0.000000000               0.000000000               0.000382203               0.002445516              -0.000265748              -0.000162363               0.000869285               0.000706922               0.000000000               0.000000000               0.000000000               0.000000000               0.000332888               0.002378453              -0.000189659              -0.000172473               0.000850301               0.000677828               0.000000000               0.000000000               0.000000000               0.000000000               0.000296739               0.002334887              -0.000146966              -0.000180583               0.000838482               0.000657899               0.000000000               0.000000000               0.000000000               0.000000000               0.000267075               0.002306290              -0.000120150              -0.000188133               0.000831467               0.000643334               0.000000000               0.000000000               0.000000000               0.000000000               0.000238007               0.002288117              -0.000101844              -0.000196762               0.000828285               0.000631524               0.000000000               0.000000000               0.000000000               0.000000000               0.000206156               0.002280460              -0.000087231              -0.000207749               0.000829395               0.000621647               0.000000000               0.000000000               0.000000000               0.000000000               0.000173176               0.002283173              -0.000072681              -0.000220455               0.000834535               0.000614080               0.000000000               0.000000000               0.000000000               0.000000000               0.000140080               0.002294190              -0.000055391              -0.000234243               0.000842803               0.000608560               0.000000000               0.000000000               0.000000000               0.000000000               0.000106921               0.002310217              -0.000039473              -0.000248681               0.000852958               0.000604277               0.000000000               0.000000000               0.000000000               0.000000000               0.000080908               0.002323825              -0.000030152              -0.000260137               0.000861313               0.000601176               0.000000000               0.000000000               0.000000000               0.000000000               0.000061696               0.002327711              -0.000025040              -0.000267827               0.000865172               0.000597344               0.000000000               0.000000000               0.000000000               0.000000000               0.000044170               0.002328213              -0.000022787              -0.000274462               0.000867551               0.000593088               0.000000000               0.000000000               0.000000000               0.000000000               0.000024384               0.002330542              -0.000018153              -0.000282173               0.000870897               0.000588724               0.000000000               0.000000000               0.000000000               0.000000000               0.000015264               0.002334750              -0.000014408              -0.000286119               0.000873615               0.000587496               0.000000000               0.000000000               0.000000000               0.000000000               0.000849507               0.002569701              -0.001172030              -0.000002649               0.000857441               0.000854792               0.000000000               0.000000000               0.000000000               0.000000000               0.000575192               0.002405807              -0.000826785              -0.000085030               0.000830271               0.000745241               0.000000000               0.000000000               0.000000000               0.000000000               0.000399118               0.002397126              -0.000474935              -0.000149971               0.000849024               0.000699053               0.000000000               0.000000000               0.000000000               0.000000000               0.000313384               0.002355647              -0.000321679              -0.000176937               0.000844187               0.000667250               0.000000000               0.000000000               0.000000000               0.000000000               0.000267536               0.002319584              -0.000243375              -0.000189622               0.000836394               0.000646772               0.000000000               0.000000000               0.000000000               0.000000000               0.000241502               0.002295652              -0.000194969              -0.000196393               0.000830674               0.000634281               0.000000000               0.000000000               0.000000000               0.000000000               0.000220739               0.002278547              -0.000161189              -0.000202041               0.000826855               0.000624814               0.000000000               0.000000000               0.000000000               0.000000000               0.000201085               0.002273331              -0.000135071              -0.000208759               0.000827356               0.000618597               0.000000000               0.000000000               0.000000000               0.000000000               0.000177769               0.002276569              -0.000110880              -0.000217907               0.000831485               0.000613577               0.000000000               0.000000000               0.000000000               0.000000000               0.000150005               0.002286862              -0.000087033              -0.000229605               0.000838815               0.000609210               0.000000000               0.000000000               0.000000000               0.000000000               0.000121536               0.002301004              -0.000062014              -0.000242049               0.000847677               0.000605628               0.000000000               0.000000000               0.000000000               0.000000000               0.000094987               0.002314300              -0.000040996              -0.000253667               0.000855981               0.000602315               0.000000000               0.000000000               0.000000000               0.000000000               0.000074093               0.002320182              -0.000031767              -0.000262237               0.000860799               0.000598561               0.000000000               0.000000000               0.000000000               0.000000000               0.000057976               0.002321884              -0.000027964              -0.000268494               0.000863452               0.000594958               0.000000000               0.000000000               0.000000000               0.000000000               0.000041967               0.002325998              -0.000023209              -0.000275012               0.000866996               0.000591984               0.000000000               0.000000000               0.000000000               0.000000000               0.000022404               0.002336520              -0.000015963              -0.000283663               0.000873386               0.000589724               0.000000000               0.000000000               0.000000000               0.000000000               0.000015055               0.002349537              -0.000013207              -0.000288046               0.000879186               0.000591141               0.000000000               0.000000000               0.000000000               0.000000000               0.000876593               0.002148255              -0.001126476               0.000060189               0.000696014               0.000756203               0.000000000               0.000000000               0.000000000               0.000000000               0.000568850               0.002134632              -0.000829265              -0.000053511               0.000729374               0.000675863               0.000000000               0.000000000               0.000000000               0.000000000               0.000351320               0.002252442              -0.000518844              -0.000149810               0.000800743               0.000650933               0.000000000               0.000000000               0.000000000               0.000000000               0.000263987               0.002264461              -0.000373896              -0.000184062               0.000816167               0.000632105               0.000000000               0.000000000               0.000000000               0.000000000               0.000223711               0.002260144              -0.000291097              -0.000198626               0.000819582               0.000620956               0.000000000               0.000000000               0.000000000               0.000000000               0.000205049               0.002255828              -0.000236201              -0.000205085               0.000820297               0.000615212               0.000000000               0.000000000               0.000000000               0.000000000               0.000189831               0.002255464              -0.000193483              -0.000210746               0.000822062               0.000611316               0.000000000               0.000000000               0.000000000               0.000000000               0.000175994               0.002265075              -0.000156318              -0.000217136               0.000827396               0.000610260               0.000000000               0.000000000               0.000000000               0.000000000               0.000157314               0.002279842              -0.000123210              -0.000225987               0.000835269               0.000609282               0.000000000               0.000000000               0.000000000               0.000000000               0.000130500               0.002296072              -0.000093543              -0.000238071               0.000844707               0.000606636               0.000000000               0.000000000               0.000000000               0.000000000               0.000102487               0.002310788              -0.000065081              -0.000250415               0.000853727               0.000603311               0.000000000               0.000000000               0.000000000               0.000000000               0.000084045               0.002320906              -0.000042610              -0.000258596               0.000859826               0.000601230               0.000000000               0.000000000               0.000000000               0.000000000               0.000072093               0.002328571              -0.000030948              -0.000264036               0.000864195               0.000600159               0.000000000               0.000000000               0.000000000               0.000000000               0.000058290               0.002344310              -0.000025018              -0.000271179               0.000871822               0.000600643               0.000000000               0.000000000               0.000000000               0.000000000               0.000040777               0.002370917              -0.000019126              -0.000281073               0.000883989               0.000602916               0.000000000               0.000000000               0.000000000               0.000000000               0.000021791               0.002408452              -0.000011598              -0.000292884               0.000900437               0.000607553               0.000000000               0.000000000               0.000000000               0.000000000               0.000015292               0.002437655              -0.000009728              -0.000298972               0.000912201               0.000613229               0.000000000               0.000000000               0.000000000               0.000000000               0.000886137               0.001769460              -0.001035726               0.000111117               0.000552775               0.000663891               0.000000000               0.000000000               0.000000000               0.000000000               0.000570201               0.001888886              -0.000815716              -0.000022287               0.000637051               0.000614764               0.000000000               0.000000000               0.000000000               0.000000000               0.000331461               0.002118545              -0.000568020              -0.000140521               0.000753015               0.000612494               0.000000000               0.000000000               0.000000000               0.000000000               0.000245665               0.002185103              -0.000428406              -0.000181013               0.000788698               0.000607685               0.000000000               0.000000000               0.000000000               0.000000000               0.000208620               0.002211898              -0.000340259              -0.000198254               0.000803377               0.000605122               0.000000000               0.000000000               0.000000000               0.000000000               0.000192039               0.002226589              -0.000277011              -0.000206309               0.000810959               0.000604650               0.000000000               0.000000000               0.000000000               0.000000000               0.000181638               0.002243134              -0.000224367              -0.000212277               0.000818463               0.000606186               0.000000000               0.000000000               0.000000000               0.000000000               0.000169174               0.002264223              -0.000176934              -0.000219587               0.000827929               0.000608342               0.000000000               0.000000000               0.000000000               0.000000000               0.000148680               0.002287804              -0.000137830              -0.000230220               0.000839334               0.000609114               0.000000000               0.000000000               0.000000000               0.000000000               0.000122522               0.002311367              -0.000105783              -0.000242975               0.000851439               0.000608465               0.000000000               0.000000000               0.000000000               0.000000000               0.000099041               0.002332167              -0.000077271              -0.000254380               0.000862174               0.000607795               0.000000000               0.000000000               0.000000000               0.000000000               0.000086729               0.002347707              -0.000052175              -0.000260939               0.000869541               0.000608602               0.000000000               0.000000000               0.000000000               0.000000000               0.000079521               0.002366764              -0.000033954              -0.000266024               0.000877588               0.000611564               0.000000000               0.000000000               0.000000000               0.000000000               0.000068465               0.002399445              -0.000022721              -0.000274256               0.000891226               0.000616970               0.000000000               0.000000000               0.000000000               0.000000000               0.000054353               0.002449722              -0.000012032              -0.000285832               0.000911843               0.000626011               0.000000000               0.000000000               0.000000000               0.000000000               0.000040777               0.002515243              -0.000003071              -0.000299113               0.000938111               0.000638997               0.000000000               0.000000000               0.000000000               0.000000000               0.000033154               0.002553123              -0.000000452              -0.000306707               0.000953268               0.000646561               0.000000000               0.000000000               0.000000000               0.000000000               0.000869701               0.001397286              -0.000921731               0.000151475               0.000415265               0.000566740               0.000000000               0.000000000               0.000000000               0.000000000               0.000588048               0.001599031              -0.000795525               0.000020638               0.000526126               0.000546763               0.000000000               0.000000000               0.000000000               0.000000000               0.000349904               0.001910820              -0.000625806              -0.000107639               0.000672813               0.000565174               0.000000000               0.000000000               0.000000000               0.000000000               0.000262436               0.002040555              -0.000495842              -0.000156656               0.000732397               0.000575741               0.000000000               0.000000000               0.000000000               0.000000000               0.000221928               0.002106344              -0.000403689              -0.000180070               0.000762131               0.000582061               0.000000000               0.000000000               0.000000000               0.000000000               0.000201163               0.002144682              -0.000332145              -0.000192649               0.000779103               0.000586454               0.000000000               0.000000000               0.000000000               0.000000000               0.000187251               0.002174890              -0.000271320              -0.000201642               0.000792170               0.000590528               0.000000000               0.000000000               0.000000000               0.000000000               0.000175450               0.002208610              -0.000216968              -0.000210282               0.000806290               0.000596008               0.000000000               0.000000000               0.000000000               0.000000000               0.000160626               0.002244583              -0.000172044              -0.000220337               0.000821633               0.000601295               0.000000000               0.000000000               0.000000000               0.000000000               0.000136178               0.002279136              -0.000135790              -0.000233825               0.000837646               0.000603821               0.000000000               0.000000000               0.000000000               0.000000000               0.000113279               0.002313739              -0.000107916              -0.000246737               0.000853484               0.000606747               0.000000000               0.000000000               0.000000000               0.000000000               0.000099749               0.002344802              -0.000082552              -0.000255694               0.000866824               0.000611130               0.000000000               0.000000000               0.000000000               0.000000000               0.000095873               0.002378938              -0.000058667              -0.000261414               0.000880110               0.000618695               0.000000000               0.000000000               0.000000000               0.000000000               0.000091337               0.002421138              -0.000038738              -0.000268390               0.000896501               0.000628111               0.000000000               0.000000000               0.000000000               0.000000000               0.000084079               0.002482302              -0.000019950              -0.000278757               0.000920345               0.000641587               0.000000000               0.000000000               0.000000000               0.000000000               0.000075807               0.002567246              -0.000005642              -0.000292477               0.000953233               0.000660755               0.000000000               0.000000000               0.000000000               0.000000000               0.000064182               0.002608796               0.000001802              -0.000302031               0.000970267               0.000668236               0.000000000               0.000000000               0.000000000               0.000000000               0.000812695               0.001045330              -0.000786290               0.000174092               0.000290409               0.000464501               0.000000000               0.000000000               0.000000000               0.000000000               0.000609541               0.001305056              -0.000753618               0.000065444               0.000413199               0.000478643               0.000000000               0.000000000               0.000000000               0.000000000               0.000399420               0.001671247              -0.000668179              -0.000059124               0.000576784               0.000517661               0.000000000               0.000000000               0.000000000               0.000000000               0.000311548               0.001860571              -0.000559485              -0.000115741               0.000658764               0.000543023               0.000000000               0.000000000               0.000000000               0.000000000               0.000262374               0.001968681              -0.000468705              -0.000147695               0.000705452               0.000557757               0.000000000               0.000000000               0.000000000               0.000000000               0.000234800               0.002034664              -0.000393219              -0.000166283               0.000733642               0.000567359               0.000000000               0.000000000               0.000000000               0.000000000               0.000216427               0.002083385              -0.000326653              -0.000179263               0.000754209               0.000574946               0.000000000               0.000000000               0.000000000               0.000000000               0.000203523               0.002130400              -0.000268672              -0.000189979               0.000773453               0.000583474               0.000000000               0.000000000               0.000000000               0.000000000               0.000191157               0.002180241              -0.000217242              -0.000200846               0.000793688               0.000592843               0.000000000               0.000000000               0.000000000               0.000000000               0.000172718               0.002229639              -0.000175513              -0.000213935               0.000814517               0.000600582               0.000000000               0.000000000               0.000000000               0.000000000               0.000150981               0.002277092              -0.000147621              -0.000228018               0.000835029               0.000607011               0.000000000               0.000000000               0.000000000               0.000000000               0.000134438               0.002319562              -0.000123987              -0.000239530               0.000853023               0.000613493               0.000000000               0.000000000               0.000000000               0.000000000               0.000126497               0.002364016              -0.000096169              -0.000248065               0.000870686               0.000622621               0.000000000               0.000000000               0.000000000               0.000000000               0.000120963               0.002418087              -0.000065694              -0.000256899               0.000891654               0.000634755               0.000000000               0.000000000               0.000000000               0.000000000               0.000113346               0.002484981              -0.000035606              -0.000268117               0.000917691               0.000649574               0.000000000               0.000000000               0.000000000               0.000000000               0.000107219               0.002570209              -0.000012168              -0.000281068               0.000950417               0.000669349               0.000000000               0.000000000               0.000000000               0.000000000               0.000093845               0.002608274               0.000000971              -0.000290842               0.000966363               0.000675521               0.000000000               0.000000000               0.000000000               0.000000000               0.000718315               0.000731814              -0.000632100               0.000177889               0.000184639               0.000362528               0.000000000               0.000000000               0.000000000               0.000000000               0.000615177               0.001017768              -0.000677360               0.000103469               0.000304763               0.000408231               0.000000000               0.000000000               0.000000000               0.000000000               0.000464325               0.001404362              -0.000669533              -0.000001424               0.000468591               0.000467166               0.000000000               0.000000000               0.000000000               0.000000000               0.000384854               0.001638738              -0.000590980              -0.000060523               0.000566415               0.000505892               0.000000000               0.000000000               0.000000000               0.000000000               0.000329178               0.001786230              -0.000510010              -0.000099837               0.000628683               0.000528846               0.000000000               0.000000000               0.000000000               0.000000000               0.000290634               0.001883705              -0.000436762              -0.000126475               0.000670054               0.000543579               0.000000000               0.000000000               0.000000000               0.000000000               0.000266666               0.001956643              -0.000371168              -0.000144581               0.000700401               0.000555821               0.000000000               0.000000000               0.000000000               0.000000000               0.000250482               0.002022865              -0.000311411              -0.000158927               0.000727257               0.000568330               0.000000000               0.000000000               0.000000000               0.000000000               0.000235161               0.002089667              -0.000256648              -0.000173023               0.000754223               0.000581200               0.000000000               0.000000000               0.000000000               0.000000000               0.000220302               0.002156077              -0.000212202              -0.000186896               0.000780984               0.000594088               0.000000000               0.000000000               0.000000000               0.000000000               0.000201540               0.002220712              -0.000183409              -0.000202011               0.000807567               0.000605556               0.000000000               0.000000000               0.000000000               0.000000000               0.000181580               0.002277462              -0.000160646              -0.000216590               0.000831343               0.000614753               0.000000000               0.000000000               0.000000000               0.000000000               0.000165267               0.002334792              -0.000130073              -0.000229873               0.000854881               0.000625007               0.000000000               0.000000000               0.000000000               0.000000000               0.000153279               0.002400703              -0.000091636              -0.000242608               0.000881096               0.000638488               0.000000000               0.000000000               0.000000000               0.000000000               0.000144869               0.002477522              -0.000054933              -0.000255364               0.000910954               0.000655590               0.000000000               0.000000000               0.000000000               0.000000000               0.000137182               0.002565816              -0.000024873              -0.000269283               0.000945024               0.000675741               0.000000000               0.000000000               0.000000000               0.000000000               0.000121929               0.002604033              -0.000007131              -0.000279780               0.000961262               0.000681482               0.000000000               0.000000000               0.000000000               0.000000000               0.000597800               0.000476553              -0.000474105               0.000164604               0.000103981               0.000268585               0.000000000               0.000000000               0.000000000               0.000000000               0.000604522               0.000756038              -0.000570671               0.000132189               0.000207947               0.000340136               0.000000000               0.000000000               0.000000000               0.000000000               0.000532193               0.001130780              -0.000622149               0.000058224               0.000357515               0.000415738               0.000000000               0.000000000               0.000000000               0.000000000               0.000472427               0.001390825              -0.000576486               0.000003306               0.000462502               0.000465808               0.000000000               0.000000000               0.000000000               0.000000000               0.000417147               0.001572738              -0.000511758              -0.000040163               0.000537628               0.000497466               0.000000000               0.000000000               0.000000000               0.000000000               0.000368029               0.001703694              -0.000448485              -0.000074951               0.000592876               0.000517925               0.000000000               0.000000000               0.000000000               0.000000000               0.000332742               0.001804490              -0.000388897              -0.000100783               0.000635085               0.000534302               0.000000000               0.000000000               0.000000000               0.000000000               0.000306943               0.001894088              -0.000331869              -0.000121657               0.000671909               0.000550251               0.000000000               0.000000000               0.000000000               0.000000000               0.000287158               0.001980098              -0.000279733              -0.000139828               0.000706635               0.000566808               0.000000000               0.000000000               0.000000000               0.000000000               0.000270758               0.002064772              -0.000236577              -0.000156562               0.000740438               0.000583876               0.000000000               0.000000000               0.000000000               0.000000000               0.000255156               0.002150894              -0.000206862              -0.000173178               0.000774683               0.000601506               0.000000000               0.000000000               0.000000000               0.000000000               0.000233032               0.002227493              -0.000183452              -0.000191049               0.000806173               0.000615124               0.000000000               0.000000000               0.000000000               0.000000000               0.000212266               0.002296668              -0.000153891              -0.000207483               0.000834709               0.000627226               0.000000000               0.000000000               0.000000000               0.000000000               0.000198465               0.002369858              -0.000117369              -0.000221807               0.000863880               0.000642073               0.000000000               0.000000000               0.000000000               0.000000000               0.000190403               0.002457308              -0.000077204              -0.000235762               0.000897682               0.000661920               0.000000000               0.000000000               0.000000000               0.000000000               0.000179864               0.002556519              -0.000036675              -0.000252115               0.000936203               0.000684087               0.000000000               0.000000000               0.000000000               0.000000000               0.000162117               0.002600847              -0.000013951              -0.000264311               0.000955044               0.000690733               0.000000000               0.000000000               0.000000000               0.000000000               0.000467154               0.000286069              -0.000327898               0.000139423               0.000048881               0.000188304               0.000000000               0.000000000               0.000000000               0.000000000               0.000580806               0.000536888              -0.000442267               0.000150689               0.000128731               0.000279420               0.000000000               0.000000000               0.000000000               0.000000000               0.000593840               0.000876225              -0.000523436               0.000113160               0.000254352               0.000367512               0.000000000               0.000000000               0.000000000               0.000000000               0.000560854               0.001144444              -0.000506739               0.000067264               0.000359056               0.000426320               0.000000000               0.000000000               0.000000000               0.000000000               0.000512542               0.001353368              -0.000461400               0.000023032               0.000443441               0.000466473               0.000000000               0.000000000               0.000000000               0.000000000               0.000459627               0.001513447              -0.000412908              -0.000016821               0.000510084               0.000493263               0.000000000               0.000000000               0.000000000               0.000000000               0.000410772               0.001642260              -0.000363711              -0.000051243               0.000564496               0.000513252               0.000000000               0.000000000               0.000000000               0.000000000               0.000373941               0.001758709              -0.000314832              -0.000079611               0.000612767               0.000533156               0.000000000               0.000000000               0.000000000               0.000000000               0.000343412               0.001861062              -0.000270352              -0.000103853               0.000654965               0.000551112               0.000000000               0.000000000               0.000000000               0.000000000               0.000321968               0.001960816              -0.000234726              -0.000124364               0.000695053               0.000570689               0.000000000               0.000000000               0.000000000               0.000000000               0.000307596               0.002065616              -0.000206674              -0.000142853               0.000736149               0.000593296               0.000000000               0.000000000               0.000000000               0.000000000               0.000290108               0.002164352              -0.000183248              -0.000161753               0.000775361               0.000613608               0.000000000               0.000000000               0.000000000               0.000000000               0.000270501               0.002249608              -0.000159507              -0.000179763               0.000809783               0.000630020               0.000000000               0.000000000               0.000000000               0.000000000               0.000257037               0.002333455              -0.000127929              -0.000195292               0.000842908               0.000647616               0.000000000               0.000000000               0.000000000               0.000000000               0.000248307               0.002430279              -0.000087489              -0.000210669               0.000880308               0.000669639               0.000000000               0.000000000               0.000000000               0.000000000               0.000244219               0.002542691              -0.000044078              -0.000226254               0.000922973               0.000696719               0.000000000               0.000000000               0.000000000               0.000000000               0.000233124               0.002596719              -0.000019945              -0.000237168               0.000944620               0.000707453               0.000000000               0.000000000               0.000000000               0.000000000               0.000349578               0.000159746              -0.000200789               0.000111122               0.000016207               0.000127329               0.000000000               0.000000000               0.000000000               0.000000000               0.000551718               0.000371752              -0.000300319               0.000160424               0.000070441               0.000230865               0.000000000               0.000000000               0.000000000               0.000000000               0.000644094               0.000669520              -0.000378883               0.000157844               0.000170557               0.000328400               0.000000000               0.000000000               0.000000000               0.000000000               0.000639311               0.000934770              -0.000379379               0.000122894               0.000270622               0.000393516               0.000000000               0.000000000               0.000000000               0.000000000               0.000598683               0.001156513              -0.000353151               0.000079941               0.000358853               0.000438794               0.000000000               0.000000000               0.000000000               0.000000000               0.000544915               0.001338727              -0.000320083               0.000037002               0.000433904               0.000470906               0.000000000               0.000000000               0.000000000               0.000000000               0.000490024               0.001492374              -0.000285563              -0.000002788               0.000498382               0.000495594               0.000000000               0.000000000               0.000000000               0.000000000               0.000443751               0.001629033              -0.000248978              -0.000037223               0.000555413               0.000518191               0.000000000               0.000000000               0.000000000               0.000000000               0.000404929               0.001749480              -0.000215987              -0.000066837               0.000605433               0.000538597               0.000000000               0.000000000               0.000000000               0.000000000               0.000374625               0.001861084              -0.000192436              -0.000092151               0.000651072               0.000558921               0.000000000               0.000000000               0.000000000               0.000000000               0.000355814               0.001974252              -0.000172656              -0.000113351               0.000695861               0.000582510               0.000000000               0.000000000               0.000000000               0.000000000               0.000343344               0.002088598              -0.000152650              -0.000132321               0.000740299               0.000607979               0.000000000               0.000000000               0.000000000               0.000000000               0.000324755               0.002194839              -0.000132241              -0.000152571               0.000782463               0.000629892               0.000000000               0.000000000               0.000000000               0.000000000               0.000310394               0.002299490              -0.000108641              -0.000171038               0.000823502               0.000652464               0.000000000               0.000000000               0.000000000               0.000000000               0.000313593               0.002410465              -0.000077705              -0.000183710               0.000864717               0.000681007               0.000000000               0.000000000               0.000000000               0.000000000               0.000326099               0.002531888              -0.000040841              -0.000194199               0.000908687               0.000714488               0.000000000               0.000000000               0.000000000               0.000000000               0.000328924               0.002593303              -0.000019974              -0.000200816               0.000931364               0.000730548               0.000000000               0.000000000               0.000000000               0.000000000               0.000267879               0.000090708              -0.000094255               0.000089115               0.000000531               0.000089646               0.000000000               0.000000000               0.000000000               0.000000000               0.000527696               0.000269923              -0.000151559               0.000164144               0.000035259               0.000199403               0.000000000               0.000000000               0.000000000               0.000000000               0.000676891               0.000534000              -0.000199232               0.000187082               0.000115637               0.000302720               0.000000000               0.000000000               0.000000000               0.000000000               0.000693928               0.000792624              -0.000203497               0.000161144               0.000210491               0.000371634               0.000000000               0.000000000               0.000000000               0.000000000               0.000660593               0.001018899              -0.000191897               0.000120359               0.000299510               0.000419869               0.000000000               0.000000000               0.000000000               0.000000000               0.000606555               0.001213054              -0.000175856               0.000075826               0.000379072               0.000454898               0.000000000               0.000000000               0.000000000               0.000000000               0.000549121               0.001382337              -0.000158428               0.000033128               0.000449732               0.000482860               0.000000000               0.000000000               0.000000000               0.000000000               0.000496986               0.001532966              -0.000138558              -0.000005251               0.000512734               0.000507483               0.000000000               0.000000000               0.000000000               0.000000000               0.000456437               0.001668896              -0.000119733              -0.000037448               0.000568776               0.000531328               0.000000000               0.000000000               0.000000000               0.000000000               0.000421196               0.001789055              -0.000108197              -0.000065683               0.000618240               0.000552557               0.000000000               0.000000000               0.000000000               0.000000000               0.000392680               0.001906205              -0.000101439              -0.000091020               0.000665735               0.000574715               0.000000000               0.000000000               0.000000000               0.000000000               0.000373095               0.002028862              -0.000088307              -0.000113697               0.000714180               0.000600483               0.000000000               0.000000000               0.000000000               0.000000000               0.000360597               0.002151039              -0.000071481              -0.000133656               0.000761558               0.000627902               0.000000000               0.000000000               0.000000000               0.000000000               0.000356972               0.002274622              -0.000063111              -0.000150463               0.000808354               0.000657891               0.000000000               0.000000000               0.000000000               0.000000000               0.000369176               0.002400832              -0.000049075              -0.000161663               0.000854157               0.000692494               0.000000000               0.000000000               0.000000000               0.000000000               0.000398848               0.002530711              -0.000023520              -0.000166770               0.000899152               0.000732382               0.000000000               0.000000000               0.000000000               0.000000000               0.000420044               0.002596778              -0.000010120              -0.000167080               0.000921278               0.000754197               0.000000000               0.000000000               0.000000000               0.000000000               0.000000000               0.000000000               0.000000000               0.000000000               0.000000000               0.000000000               0.000000000               0.000000000               0.000000000               0.000000000               0.000000000               0.000000000               0.000000000               0.000000000               0.000000000               0.000000000               0.000000000               0.000000000               0.000000000               0.000000000               0.000000000               0.000000000               0.000000000               0.000000000               0.000000000               0.000000000               0.000000000               0.000000000               0.000000000               0.000000000               0.000000000               0.000000000               0.000000000               0.000000000               0.000000000               0.000000000               0.000000000               0.000000000               0.000000000               0.000000000               0.000000000               0.000000000               0.000000000               0.000000000               0.000000000               0.000000000               0.000000000               0.000000000               0.000000000               0.000000000               0.000000000               0.000000000               0.000000000               0.000000000               0.000000000               0.000000000               0.000000000               0.000000000               0.000000000               0.000000000               0.000000000               0.000000000               0.000000000               0.000000000               0.000000000               0.000000000               0.000000000               0.000000000               0.000000000               0.000000000               0.000000000               0.000000000               0.000000000               0.000000000               0.000000000               0.000000000               0.000000000               0.000000000               0.000000000               0.000000000               0.000000000               0.000000000               0.000000000               0.000000000               0.000000000               0.000000000               0.000000000               0.000000000               0.000000000               0.000000000               0.000000000               0.000000000               0.000000000               0.000000000               0.000000000               0.000000000               0.000000000               0.000000000               0.000000000               0.000000000               0.000000000               0.000000000               0.000000000               0.000000000               0.000000000               0.000000000               0.000000000               0.000000000               0.000000000               0.000000000               0.000000000               0.000000000               0.000000000               0.000000000               0.000000000               0.000000000               0.000000000               0.000000000               0.000000000               0.000000000               0.000000000               0.000000000               0.000000000               0.000000000               0.000000000               0.000000000               0.000000000               0.000000000               0.000000000               0.000000000               0.000000000               0.000000000               0.000000000               0.000000000               0.000000000               0.000000000               0.000000000               0.000000000               0.000000000               0.000000000               0.000000000               0.000000000               0.000000000               0.000000000               0.000000000               0.000000000               0.000000000               0.000000000               0.000000000               0.000000000               0.000000000               0.000000000               0.000000000               0.000000000               0.000000000               0.000000000               0.000000000               0.000000000               0.000000000               0.000000000               0.000000000               0.000000000               0.000000000               0.000000000               0.000000000               0.000000000               0.000000000               0.000000000               0.000000000               0.000000000               0.000000000               0.000000000               0.000000000               0.000000000               0.000000000               0.000000000               0.000000000               0.000000000               0.000000000               0.000000000               0.000000000               0.000000000               0.000000000               0.000000000               0.000000000               0.000000000               0.000000000               0.000000000               0.000000000               0.000000000               0.000000000               0.000000000               0.000000000               0.000000000               0.000000000               0.000000000               0.000000000               0.000000000               0.000000000               0.000000000               0.000000000               0.000000000               0.000000000               0.000000000               0.000000000               0.000000000               0.000000000               0.000000000               0.000000000               0.000000000               0.000000000               0.000000000               0.000000000               0.000000000               0.000000000               0.000000000               0.000000000               0.000000000               0.000000000               0.000000000               0.000000000               0.000000000               0.000000000               0.000000000               0.000000000               0.000000000               0.000000000               0.000000000               0.000000000               0.000000000               0.000000000               0.000000000               0.000000000               0.000000000               0.000000000               0.000000000               0.000000000               0.000000000               0.000000000               0.000000000               0.000000000               0.000000000               0.000000000               0.000000000               0.000000000               0.000000000               0.000000000               0.000000000               0.000000000               0.000000000               0.000000000               0.000000000               0.000000000               0.000000000               0.000000000               0.000000000               0.000000000               0.000000000               0.000000000               0.000000000               0.000000000               0.000000000               0.000000000               0.000000000               0.000000000               0.000000000               0.000000000               0.000000000               0.000000000               0.000000000               0.000000000               0.000000000               0.000000000               0.000000000               0.000000000               0.000000000               0.000000000               0.000000000               0.000000000               0.000000000               0.000000000               0.000000000               0.000000000               0.000000000               0.000000000               0.000000000               0.000000000               0.000000000               0.000000000               0.000000000               0.000000000               0.000000000               0.000000000               0.000000000               0.000000000               0.000000000               0.000000000               0.000000000               0.000000000               0.000000000               0.000000000               0.000000000               0.000000000               0.000000000               0.000000000               0.000000000               0.000000000               0.000000000               0.000000000               0.000000000               0.000000000               0.000000000               0.000000000               0.000000000               0.000000000               0.000000000               0.000000000               0.000000000               0.000000000               0.000000000               0.000000000               0.000000000               0.000000000               0.000000000               0.000000000               0.000000000               0.000000000               0.000000000               0.000000000               0.000000000               0.000000000               0.000000000               0.000000000               0.000000000               0.000000000               0.000000000               0.000000000               0.000000000               0.000000000               0.000000000               0.000406347               0.004280345               0.000340051              -0.000382662               0.001554321               0.001171659               0.000000000               0.000000000               0.000000000               0.000000000               0.000442023               0.003579901               0.000227199              -0.000281728               0.001287198               0.001005469               0.000000000               0.000000000               0.000000000               0.000000000               0.000603214               0.003019793               0.000108937              -0.000151269               0.001057010               0.000905742               0.000000000               0.000000000               0.000000000               0.000000000               0.000634294               0.002712226               0.000051735              -0.000101168               0.000937789               0.000836621               0.000000000               0.000000000               0.000000000               0.000000000               0.000614080               0.002535095               0.000023106              -0.000086607               0.000873892               0.000787285               0.000000000               0.000000000               0.000000000               0.000000000               0.000568129               0.002430558               0.000008939              -0.000090771               0.000840435               0.000749664               0.000000000               0.000000000               0.000000000               0.000000000               0.000511553               0.002368053               0.000001732              -0.000104174               0.000824068               0.000719894               0.000000000               0.000000000               0.000000000               0.000000000               0.000452835               0.002333826              -0.000000617              -0.000121915               0.000818573               0.000696658               0.000000000               0.000000000               0.000000000               0.000000000               0.000390441               0.002316621              -0.000001056              -0.000143162               0.000819920               0.000676758               0.000000000               0.000000000               0.000000000               0.000000000               0.000328150               0.002309692              -0.000000769              -0.000165655               0.000825108               0.000659453               0.000000000               0.000000000               0.000000000               0.000000000               0.000269483               0.002311736              -0.000000268              -0.000187910               0.000833208               0.000645297               0.000000000               0.000000000               0.000000000               0.000000000               0.000214345               0.002321320              -0.000000333              -0.000209785               0.000843694               0.000633909               0.000000000               0.000000000               0.000000000               0.000000000               0.000162981               0.002339726              -0.000003106              -0.000231347               0.000857017               0.000625669               0.000000000               0.000000000               0.000000000               0.000000000               0.000114121               0.002365406              -0.000005767              -0.000252880               0.000872754               0.000619874               0.000000000               0.000000000               0.000000000               0.000000000               0.000070075               0.002393587              -0.000003648              -0.000272919               0.000888827               0.000615908               0.000000000               0.000000000               0.000000000               0.000000000               0.000032488               0.002421839              -0.000001955              -0.000290546               0.000904120               0.000613574               0.000000000               0.000000000               0.000000000               0.000000000               0.000018231               0.002443988              -0.000001574              -0.000298661               0.000914208               0.000615547               0.000000000               0.000000000               0.000000000               0.000000000               0.000481081               0.004088499               0.000645356              -0.000330656               0.001473038               0.001142382               0.000000000               0.000000000               0.000000000               0.000000000               0.000472591               0.003441094               0.000431933              -0.000252915               0.001231325               0.000978410               0.000000000               0.000000000               0.000000000               0.000000000               0.000585876               0.002941206               0.000209327              -0.000147947               0.001029708               0.000881761               0.000000000               0.000000000               0.000000000               0.000000000               0.000593938               0.002668083               0.000103430              -0.000110783               0.000926280               0.000815497               0.000000000               0.000000000               0.000000000               0.000000000               0.000562939               0.002510605               0.000051110              -0.000102723               0.000871101               0.000768378               0.000000000               0.000000000               0.000000000               0.000000000               0.000515650               0.002416695               0.000025606              -0.000108718               0.000841796               0.000733078               0.000000000               0.000000000               0.000000000               0.000000000               0.000462198               0.002361736               0.000013067              -0.000121892               0.000827868               0.000705976               0.000000000               0.000000000               0.000000000               0.000000000               0.000407084               0.002331132               0.000007347              -0.000138735               0.000823281               0.000684546               0.000000000               0.000000000               0.000000000               0.000000000               0.000350976               0.002314959               0.000006403              -0.000157753               0.000824230               0.000666476               0.000000000               0.000000000               0.000000000               0.000000000               0.000294188               0.002308314               0.000007427              -0.000178218               0.000828836               0.000650618               0.000000000               0.000000000               0.000000000               0.000000000               0.000239251               0.002310511               0.000007980              -0.000199094               0.000836528               0.000637433               0.000000000               0.000000000               0.000000000               0.000000000               0.000190010               0.002321695               0.000006171              -0.000218958               0.000846877               0.000627919               0.000000000               0.000000000               0.000000000               0.000000000               0.000143390               0.002339612               0.000000357              -0.000238679               0.000859423               0.000620743               0.000000000               0.000000000               0.000000000               0.000000000               0.000097946               0.002361172              -0.000002896              -0.000258416               0.000873188               0.000614772               0.000000000               0.000000000               0.000000000               0.000000000               0.000059703               0.002383686               0.000001235              -0.000275571               0.000886411               0.000610840               0.000000000               0.000000000               0.000000000               0.000000000               0.000027863               0.002405677               0.000003128              -0.000290260               0.000898638               0.000608378               0.000000000               0.000000000               0.000000000               0.000000000               0.000015734               0.002423541               0.000002782              -0.000297042               0.000906853               0.000609811               0.000000000               0.000000000               0.000000000               0.000000000               0.000583417               0.003787635               0.000891318              -0.000254673               0.001347423               0.001092750               0.000000000               0.000000000               0.000000000               0.000000000               0.000509557               0.003225550               0.000597725              -0.000212110               0.001145876               0.000933766               0.000000000               0.000000000               0.000000000               0.000000000               0.000552818               0.002822805               0.000294600              -0.000145543               0.000989440               0.000843896               0.000000000               0.000000000               0.000000000               0.000000000               0.000531928               0.002603170               0.000155601              -0.000125923               0.000909689               0.000783766               0.000000000               0.000000000               0.000000000               0.000000000               0.000491170               0.002475030               0.000088734              -0.000125190               0.000866732               0.000741542               0.000000000               0.000000000               0.000000000               0.000000000               0.000444155               0.002397124               0.000055114              -0.000133082               0.000843394               0.000710312               0.000000000               0.000000000               0.000000000               0.000000000               0.000396350               0.002351946               0.000038078              -0.000145361               0.000832428               0.000687066               0.000000000               0.000000000               0.000000000               0.000000000               0.000348248               0.002325014               0.000030448              -0.000160034               0.000828342               0.000668308               0.000000000               0.000000000               0.000000000               0.000000000               0.000299269               0.002309152               0.000027612              -0.000176418               0.000828515               0.000652098               0.000000000               0.000000000               0.000000000               0.000000000               0.000249611               0.002303150               0.000026067              -0.000194289               0.000832472               0.000638183               0.000000000               0.000000000               0.000000000               0.000000000               0.000201353               0.002306250               0.000023163              -0.000212774               0.000839667               0.000626893               0.000000000               0.000000000               0.000000000               0.000000000               0.000155672               0.002317333               0.000018803              -0.000231289               0.000849533               0.000618244               0.000000000               0.000000000               0.000000000               0.000000000               0.000115217               0.002333269               0.000011421              -0.000248452               0.000860566               0.000612114               0.000000000               0.000000000               0.000000000               0.000000000               0.000080741               0.002350166               0.000006791              -0.000263492               0.000871211               0.000607719               0.000000000               0.000000000               0.000000000               0.000000000               0.000051300               0.002365812               0.000011256              -0.000276488               0.000880759               0.000604270               0.000000000               0.000000000               0.000000000               0.000000000               0.000025284               0.002379995               0.000011817              -0.000288017               0.000889329               0.000601312               0.000000000               0.000000000               0.000000000               0.000000000               0.000015038               0.002391365               0.000009703              -0.000293281               0.000894874               0.000601593               0.000000000               0.000000000               0.000000000               0.000000000               0.000692818               0.003412462               0.001062740              -0.000166752               0.001193060               0.001026308               0.000000000               0.000000000               0.000000000               0.000000000               0.000544667               0.002965748               0.000717129              -0.000166468               0.001044062               0.000877594               0.000000000               0.000000000               0.000000000               0.000000000               0.000508320               0.002687172               0.000365359              -0.000145277               0.000944141               0.000798864               0.000000000               0.000000000               0.000000000               0.000000000               0.000458302               0.002528711               0.000209731              -0.000144225               0.000890970               0.000746745               0.000000000               0.000000000               0.000000000               0.000000000               0.000411406               0.002431778               0.000135558              -0.000149695               0.000860483               0.000710788               0.000000000               0.000000000               0.000000000               0.000000000               0.000367232               0.002371108               0.000097797              -0.000158676               0.000843254               0.000684578               0.000000000               0.000000000               0.000000000               0.000000000               0.000327866               0.002333811               0.000076858              -0.000168776               0.000834188               0.000665412               0.000000000               0.000000000               0.000000000               0.000000000               0.000288799               0.002308846               0.000064709              -0.000180306               0.000829710               0.000649404               0.000000000               0.000000000               0.000000000               0.000000000               0.000248121               0.002295546               0.000057473              -0.000193898               0.000829807               0.000635909               0.000000000               0.000000000               0.000000000               0.000000000               0.000208109               0.002291447               0.000050392              -0.000208390               0.000833271               0.000624882               0.000000000               0.000000000               0.000000000               0.000000000               0.000166589               0.002297394               0.000041830              -0.000224703               0.000840691               0.000615988               0.000000000               0.000000000               0.000000000               0.000000000               0.000126138               0.002310002               0.000032171              -0.000241448               0.000850475               0.000609028               0.000000000               0.000000000               0.000000000               0.000000000               0.000093426               0.002326020               0.000022671              -0.000255717               0.000860571               0.000604854               0.000000000               0.000000000               0.000000000               0.000000000               0.000068403               0.002337055               0.000017349              -0.000266480               0.000867837               0.000601357               0.000000000               0.000000000               0.000000000               0.000000000               0.000047171               0.002345570               0.000019801              -0.000275507               0.000873684               0.000598178               0.000000000               0.000000000               0.000000000               0.000000000               0.000023504               0.002352121               0.000018503              -0.000285200               0.000879099               0.000593899               0.000000000               0.000000000               0.000000000               0.000000000               0.000012194               0.002356853               0.000015066              -0.000290033               0.000882287               0.000592254               0.000000000               0.000000000               0.000000000               0.000000000               0.000787343               0.002998232               0.001153945              -0.000079526               0.001025909               0.000946383               0.000000000               0.000000000               0.000000000               0.000000000               0.000567579               0.002688047               0.000791442              -0.000123164               0.000937061               0.000813897               0.000000000               0.000000000               0.000000000               0.000000000               0.000454961               0.002544166               0.000424840              -0.000147410               0.000897184               0.000749773               0.000000000               0.000000000               0.000000000               0.000000000               0.000382203               0.002445516               0.000265748              -0.000162363               0.000869285               0.000706922               0.000000000               0.000000000               0.000000000               0.000000000               0.000332888               0.002378453               0.000189659              -0.000172473               0.000850301               0.000677828               0.000000000               0.000000000               0.000000000               0.000000000               0.000296739               0.002334887               0.000146966              -0.000180583               0.000838482               0.000657899               0.000000000               0.000000000               0.000000000               0.000000000               0.000267075               0.002306290               0.000120150              -0.000188133               0.000831467               0.000643334               0.000000000               0.000000000               0.000000000               0.000000000               0.000238007               0.002288117               0.000101844              -0.000196762               0.000828285               0.000631524               0.000000000               0.000000000               0.000000000               0.000000000               0.000206156               0.002280460               0.000087231              -0.000207749               0.000829395               0.000621647               0.000000000               0.000000000               0.000000000               0.000000000               0.000173176               0.002283173               0.000072681              -0.000220455               0.000834535               0.000614080               0.000000000               0.000000000               0.000000000               0.000000000               0.000140080               0.002294190               0.000055391              -0.000234243               0.000842803               0.000608560               0.000000000               0.000000000               0.000000000               0.000000000               0.000106921               0.002310217               0.000039473              -0.000248681               0.000852958               0.000604277               0.000000000               0.000000000               0.000000000               0.000000000               0.000080908               0.002323825               0.000030152              -0.000260137               0.000861313               0.000601176               0.000000000               0.000000000               0.000000000               0.000000000               0.000061696               0.002327711               0.000025040              -0.000267827               0.000865172               0.000597344               0.000000000               0.000000000               0.000000000               0.000000000               0.000044170               0.002328213               0.000022787              -0.000274462               0.000867551               0.000593088               0.000000000               0.000000000               0.000000000               0.000000000               0.000024384               0.002330542               0.000018153              -0.000282173               0.000870897               0.000588724               0.000000000               0.000000000               0.000000000               0.000000000               0.000015264               0.002334750               0.000014408              -0.000286119               0.000873615               0.000587496               0.000000000               0.000000000               0.000000000               0.000000000               0.000849507               0.002569701               0.001172030              -0.000002649               0.000857441               0.000854792               0.000000000               0.000000000               0.000000000               0.000000000               0.000575192               0.002405807               0.000826785              -0.000085030               0.000830271               0.000745241               0.000000000               0.000000000               0.000000000               0.000000000               0.000399118               0.002397126               0.000474935              -0.000149971               0.000849024               0.000699053               0.000000000               0.000000000               0.000000000               0.000000000               0.000313384               0.002355647               0.000321679              -0.000176937               0.000844187               0.000667250               0.000000000               0.000000000               0.000000000               0.000000000               0.000267536               0.002319584               0.000243375              -0.000189622               0.000836394               0.000646772               0.000000000               0.000000000               0.000000000               0.000000000               0.000241502               0.002295652               0.000194969              -0.000196393               0.000830674               0.000634281               0.000000000               0.000000000               0.000000000               0.000000000               0.000220739               0.002278547               0.000161189              -0.000202041               0.000826855               0.000624814               0.000000000               0.000000000               0.000000000               0.000000000               0.000201085               0.002273331               0.000135071              -0.000208759               0.000827356               0.000618597               0.000000000               0.000000000               0.000000000               0.000000000               0.000177769               0.002276569               0.000110880              -0.000217907               0.000831485               0.000613577               0.000000000               0.000000000               0.000000000               0.000000000               0.000150005               0.002286862               0.000087033              -0.000229605               0.000838815               0.000609210               0.000000000               0.000000000               0.000000000               0.000000000               0.000121536               0.002301004               0.000062014              -0.000242049               0.000847677               0.000605628               0.000000000               0.000000000               0.000000000               0.000000000               0.000094987               0.002314300               0.000040996              -0.000253667               0.000855981               0.000602315               0.000000000               0.000000000               0.000000000               0.000000000               0.000074093               0.002320182               0.000031767              -0.000262237               0.000860799               0.000598561               0.000000000               0.000000000               0.000000000               0.000000000               0.000057976               0.002321884               0.000027964              -0.000268494               0.000863452               0.000594958               0.000000000               0.000000000               0.000000000               0.000000000               0.000041967               0.002325998               0.000023209              -0.000275012               0.000866996               0.000591984               0.000000000               0.000000000               0.000000000               0.000000000               0.000022404               0.002336520               0.000015963              -0.000283663               0.000873386               0.000589724               0.000000000               0.000000000               0.000000000               0.000000000               0.000015055               0.002349537               0.000013207              -0.000288046               0.000879186               0.000591141               0.000000000               0.000000000               0.000000000               0.000000000               0.000876593               0.002148255               0.001126476               0.000060189               0.000696014               0.000756203               0.000000000               0.000000000               0.000000000               0.000000000               0.000568850               0.002134632               0.000829265              -0.000053511               0.000729374               0.000675863               0.000000000               0.000000000               0.000000000               0.000000000               0.000351320               0.002252442               0.000518844              -0.000149810               0.000800743               0.000650933               0.000000000               0.000000000               0.000000000               0.000000000               0.000263987               0.002264461               0.000373896              -0.000184062               0.000816167               0.000632105               0.000000000               0.000000000               0.000000000               0.000000000               0.000223711               0.002260144               0.000291097              -0.000198626               0.000819582               0.000620956               0.000000000               0.000000000               0.000000000               0.000000000               0.000205049               0.002255828               0.000236201              -0.000205085               0.000820297               0.000615212               0.000000000               0.000000000               0.000000000               0.000000000               0.000189831               0.002255464               0.000193483              -0.000210746               0.000822062               0.000611316               0.000000000               0.000000000               0.000000000               0.000000000               0.000175994               0.002265075               0.000156318              -0.000217136               0.000827396               0.000610260               0.000000000               0.000000000               0.000000000               0.000000000               0.000157314               0.002279842               0.000123210              -0.000225987               0.000835269               0.000609282               0.000000000               0.000000000               0.000000000               0.000000000               0.000130500               0.002296072               0.000093543              -0.000238071               0.000844707               0.000606636               0.000000000               0.000000000               0.000000000               0.000000000               0.000102487               0.002310788               0.000065081              -0.000250415               0.000853727               0.000603311               0.000000000               0.000000000               0.000000000               0.000000000               0.000084045               0.002320906               0.000042610              -0.000258596               0.000859826               0.000601230               0.000000000               0.000000000               0.000000000               0.000000000               0.000072093               0.002328571               0.000030948              -0.000264036               0.000864195               0.000600159               0.000000000               0.000000000               0.000000000               0.000000000               0.000058290               0.002344310               0.000025018              -0.000271179               0.000871822               0.000600643               0.000000000               0.000000000               0.000000000               0.000000000               0.000040777               0.002370917               0.000019126              -0.000281073               0.000883989               0.000602916               0.000000000               0.000000000               0.000000000               0.000000000               0.000021791               0.002408452               0.000011598              -0.000292884               0.000900437               0.000607553               0.000000000               0.000000000               0.000000000               0.000000000               0.000015292               0.002437655               0.000009728              -0.000298972               0.000912201               0.000613229               0.000000000               0.000000000               0.000000000               0.000000000               0.000886137               0.001769460               0.001035726               0.000111117               0.000552775               0.000663891               0.000000000               0.000000000               0.000000000               0.000000000               0.000570201               0.001888886               0.000815716              -0.000022287               0.000637051               0.000614764               0.000000000               0.000000000               0.000000000               0.000000000               0.000331461               0.002118545               0.000568020              -0.000140521               0.000753015               0.000612494               0.000000000               0.000000000               0.000000000               0.000000000               0.000245665               0.002185103               0.000428406              -0.000181013               0.000788698               0.000607685               0.000000000               0.000000000               0.000000000               0.000000000               0.000208620               0.002211898               0.000340259              -0.000198254               0.000803377               0.000605122               0.000000000               0.000000000               0.000000000               0.000000000               0.000192039               0.002226589               0.000277011              -0.000206309               0.000810959               0.000604650               0.000000000               0.000000000               0.000000000               0.000000000               0.000181638               0.002243134               0.000224367              -0.000212277               0.000818463               0.000606186               0.000000000               0.000000000               0.000000000               0.000000000               0.000169174               0.002264223               0.000176934              -0.000219587               0.000827929               0.000608342               0.000000000               0.000000000               0.000000000               0.000000000               0.000148680               0.002287804               0.000137830              -0.000230220               0.000839334               0.000609114               0.000000000               0.000000000               0.000000000               0.000000000               0.000122522               0.002311367               0.000105783              -0.000242975               0.000851439               0.000608465               0.000000000               0.000000000               0.000000000               0.000000000               0.000099041               0.002332167               0.000077271              -0.000254380               0.000862174               0.000607795               0.000000000               0.000000000               0.000000000               0.000000000               0.000086729               0.002347707               0.000052175              -0.000260939               0.000869541               0.000608602               0.000000000               0.000000000               0.000000000               0.000000000               0.000079521               0.002366764               0.000033954              -0.000266024               0.000877588               0.000611564               0.000000000               0.000000000               0.000000000               0.000000000               0.000068465               0.002399445               0.000022721              -0.000274256               0.000891226               0.000616970               0.000000000               0.000000000               0.000000000               0.000000000               0.000054353               0.002449722               0.000012032              -0.000285832               0.000911843               0.000626011               0.000000000               0.000000000               0.000000000               0.000000000               0.000040777               0.002515243               0.000003071              -0.000299113               0.000938111               0.000638997               0.000000000               0.000000000               0.000000000               0.000000000               0.000033154               0.002553123               0.000000452              -0.000306707               0.000953268               0.000646561               0.000000000               0.000000000               0.000000000               0.000000000               0.000869701               0.001397286               0.000921731               0.000151475               0.000415265               0.000566740               0.000000000               0.000000000               0.000000000               0.000000000               0.000588048               0.001599031               0.000795525               0.000020638               0.000526126               0.000546763               0.000000000               0.000000000               0.000000000               0.000000000               0.000349904               0.001910820               0.000625806              -0.000107639               0.000672813               0.000565174               0.000000000               0.000000000               0.000000000               0.000000000               0.000262436               0.002040555               0.000495842              -0.000156656               0.000732397               0.000575741               0.000000000               0.000000000               0.000000000               0.000000000               0.000221928               0.002106344               0.000403689              -0.000180070               0.000762131               0.000582061               0.000000000               0.000000000               0.000000000               0.000000000               0.000201163               0.002144682               0.000332145              -0.000192649               0.000779103               0.000586454               0.000000000               0.000000000               0.000000000               0.000000000               0.000187251               0.002174890               0.000271320              -0.000201642               0.000792170               0.000590528               0.000000000               0.000000000               0.000000000               0.000000000               0.000175450               0.002208610               0.000216968              -0.000210282               0.000806290               0.000596008               0.000000000               0.000000000               0.000000000               0.000000000               0.000160626               0.002244583               0.000172044              -0.000220337               0.000821633               0.000601295               0.000000000               0.000000000               0.000000000               0.000000000               0.000136178               0.002279136               0.000135790              -0.000233825               0.000837646               0.000603821               0.000000000               0.000000000               0.000000000               0.000000000               0.000113279               0.002313739               0.000107916              -0.000246737               0.000853484               0.000606747               0.000000000               0.000000000               0.000000000               0.000000000               0.000099749               0.002344802               0.000082552              -0.000255694               0.000866824               0.000611130               0.000000000               0.000000000               0.000000000               0.000000000               0.000095873               0.002378938               0.000058667              -0.000261414               0.000880110               0.000618695               0.000000000               0.000000000               0.000000000               0.000000000               0.000091337               0.002421138               0.000038738              -0.000268390               0.000896501               0.000628111               0.000000000               0.000000000               0.000000000               0.000000000               0.000084079               0.002482302               0.000019950              -0.000278757               0.000920345               0.000641587               0.000000000               0.000000000               0.000000000               0.000000000               0.000075807               0.002567246               0.000005642              -0.000292477               0.000953233               0.000660755               0.000000000               0.000000000               0.000000000               0.000000000               0.000064182               0.002608796              -0.000001802              -0.000302031               0.000970267               0.000668236               0.000000000               0.000000000               0.000000000               0.000000000               0.000812695               0.001045330               0.000786290               0.000174092               0.000290409               0.000464501               0.000000000               0.000000000               0.000000000               0.000000000               0.000609541               0.001305056               0.000753618               0.000065444               0.000413199               0.000478643               0.000000000               0.000000000               0.000000000               0.000000000               0.000399420               0.001671247               0.000668179              -0.000059124               0.000576784               0.000517661               0.000000000               0.000000000               0.000000000               0.000000000               0.000311548               0.001860571               0.000559485              -0.000115741               0.000658764               0.000543023               0.000000000               0.000000000               0.000000000               0.000000000               0.000262374               0.001968681               0.000468705              -0.000147695               0.000705452               0.000557757               0.000000000               0.000000000               0.000000000               0.000000000               0.000234800               0.002034664               0.000393219              -0.000166283               0.000733642               0.000567359               0.000000000               0.000000000               0.000000000               0.000000000               0.000216427               0.002083385               0.000326653              -0.000179263               0.000754209               0.000574946               0.000000000               0.000000000               0.000000000               0.000000000               0.000203523               0.002130400               0.000268672              -0.000189979               0.000773453               0.000583474               0.000000000               0.000000000               0.000000000               0.000000000               0.000191157               0.002180241               0.000217242              -0.000200846               0.000793688               0.000592843               0.000000000               0.000000000               0.000000000               0.000000000               0.000172718               0.002229639               0.000175513              -0.000213935               0.000814517               0.000600582               0.000000000               0.000000000               0.000000000               0.000000000               0.000150981               0.002277092               0.000147621              -0.000228018               0.000835029               0.000607011               0.000000000               0.000000000               0.000000000               0.000000000               0.000134438               0.002319562               0.000123987              -0.000239530               0.000853023               0.000613493               0.000000000               0.000000000               0.000000000               0.000000000               0.000126497               0.002364016               0.000096169              -0.000248065               0.000870686               0.000622621               0.000000000               0.000000000               0.000000000               0.000000000               0.000120963               0.002418087               0.000065694              -0.000256899               0.000891654               0.000634755               0.000000000               0.000000000               0.000000000               0.000000000               0.000113346               0.002484981               0.000035606              -0.000268117               0.000917691               0.000649574               0.000000000               0.000000000               0.000000000               0.000000000               0.000107219               0.002570209               0.000012168              -0.000281068               0.000950417               0.000669349               0.000000000               0.000000000               0.000000000               0.000000000               0.000093845               0.002608274              -0.000000971              -0.000290842               0.000966363               0.000675521               0.000000000               0.000000000               0.000000000               0.000000000               0.000718315               0.000731814               0.000632100               0.000177889               0.000184639               0.000362528               0.000000000               0.000000000               0.000000000               0.000000000               0.000615177               0.001017768               0.000677360               0.000103469               0.000304763               0.000408231               0.000000000               0.000000000               0.000000000               0.000000000               0.000464325               0.001404362               0.000669533              -0.000001424               0.000468591               0.000467166               0.000000000               0.000000000               0.000000000               0.000000000               0.000384854               0.001638738               0.000590980              -0.000060523               0.000566415               0.000505892               0.000000000               0.000000000               0.000000000               0.000000000               0.000329178               0.001786230               0.000510010              -0.000099837               0.000628683               0.000528846               0.000000000               0.000000000               0.000000000               0.000000000               0.000290634               0.001883705               0.000436762              -0.000126475               0.000670054               0.000543579               0.000000000               0.000000000               0.000000000               0.000000000               0.000266666               0.001956643               0.000371168              -0.000144581               0.000700401               0.000555821               0.000000000               0.000000000               0.000000000               0.000000000               0.000250482               0.002022865               0.000311411              -0.000158927               0.000727257               0.000568330               0.000000000               0.000000000               0.000000000               0.000000000               0.000235161               0.002089667               0.000256648              -0.000173023               0.000754223               0.000581200               0.000000000               0.000000000               0.000000000               0.000000000               0.000220302               0.002156077               0.000212202              -0.000186896               0.000780984               0.000594088               0.000000000               0.000000000               0.000000000               0.000000000               0.000201540               0.002220712               0.000183409              -0.000202011               0.000807567               0.000605556               0.000000000               0.000000000               0.000000000               0.000000000               0.000181580               0.002277462               0.000160646              -0.000216590               0.000831343               0.000614753               0.000000000               0.000000000               0.000000000               0.000000000               0.000165267               0.002334792               0.000130073              -0.000229873               0.000854881               0.000625007               0.000000000               0.000000000               0.000000000               0.000000000               0.000153279               0.002400703               0.000091636              -0.000242608               0.000881096               0.000638488               0.000000000               0.000000000               0.000000000               0.000000000               0.000144869               0.002477522               0.000054933              -0.000255364               0.000910954               0.000655590               0.000000000               0.000000000               0.000000000               0.000000000               0.000137182               0.002565816               0.000024873              -0.000269283               0.000945024               0.000675741               0.000000000               0.000000000               0.000000000               0.000000000               0.000121929               0.002604033               0.000007131              -0.000279780               0.000961262               0.000681482               0.000000000               0.000000000               0.000000000               0.000000000               0.000597800               0.000476553               0.000474105               0.000164604               0.000103981               0.000268585               0.000000000               0.000000000               0.000000000               0.000000000               0.000604522               0.000756038               0.000570671               0.000132189               0.000207947               0.000340136               0.000000000               0.000000000               0.000000000               0.000000000               0.000532193               0.001130780               0.000622149               0.000058224               0.000357515               0.000415738               0.000000000               0.000000000               0.000000000               0.000000000               0.000472427               0.001390825               0.000576486               0.000003306               0.000462502               0.000465808               0.000000000               0.000000000               0.000000000               0.000000000               0.000417147               0.001572738               0.000511758              -0.000040163               0.000537628               0.000497466               0.000000000               0.000000000               0.000000000               0.000000000               0.000368029               0.001703694               0.000448485              -0.000074951               0.000592876               0.000517925               0.000000000               0.000000000               0.000000000               0.000000000               0.000332742               0.001804490               0.000388897              -0.000100783               0.000635085               0.000534302               0.000000000               0.000000000               0.000000000               0.000000000               0.000306943               0.001894088               0.000331869              -0.000121657               0.000671909               0.000550251               0.000000000               0.000000000               0.000000000               0.000000000               0.000287158               0.001980098               0.000279733              -0.000139828               0.000706635               0.000566808               0.000000000               0.000000000               0.000000000               0.000000000               0.000270758               0.002064772               0.000236577              -0.000156562               0.000740438               0.000583876               0.000000000               0.000000000               0.000000000               0.000000000               0.000255156               0.002150894               0.000206862              -0.000173178               0.000774683               0.000601506               0.000000000               0.000000000               0.000000000               0.000000000               0.000233032               0.002227493               0.000183452              -0.000191049               0.000806173               0.000615124               0.000000000               0.000000000               0.000000000               0.000000000               0.000212266               0.002296668               0.000153891              -0.000207483               0.000834709               0.000627226               0.000000000               0.000000000               0.000000000               0.000000000               0.000198465               0.002369858               0.000117369              -0.000221807               0.000863880               0.000642073               0.000000000               0.000000000               0.000000000               0.000000000               0.000190403               0.002457308               0.000077204              -0.000235762               0.000897682               0.000661920               0.000000000               0.000000000               0.000000000               0.000000000               0.000179864               0.002556519               0.000036675              -0.000252115               0.000936203               0.000684087               0.000000000               0.000000000               0.000000000               0.000000000               0.000162117               0.002600847               0.000013951              -0.000264311               0.000955044               0.000690733               0.000000000               0.000000000               0.000000000               0.000000000               0.000467154               0.000286069               0.000327898               0.000139423               0.000048881               0.000188304               0.000000000               0.000000000               0.000000000               0.000000000               0.000580806               0.000536888               0.000442267               0.000150689               0.000128731               0.000279420               0.000000000               0.000000000               0.000000000               0.000000000               0.000593840               0.000876225               0.000523436               0.000113160               0.000254352               0.000367512               0.000000000               0.000000000               0.000000000               0.000000000               0.000560854               0.001144444               0.000506739               0.000067264               0.000359056               0.000426320               0.000000000               0.000000000               0.000000000               0.000000000               0.000512542               0.001353368               0.000461400               0.000023032               0.000443441               0.000466473               0.000000000               0.000000000               0.000000000               0.000000000               0.000459627               0.001513447               0.000412908              -0.000016821               0.000510084               0.000493263               0.000000000               0.000000000               0.000000000               0.000000000               0.000410772               0.001642260               0.000363711              -0.000051243               0.000564496               0.000513252               0.000000000               0.000000000               0.000000000               0.000000000               0.000373941               0.001758709               0.000314832              -0.000079611               0.000612767               0.000533156               0.000000000               0.000000000               0.000000000               0.000000000               0.000343412               0.001861062               0.000270352              -0.000103853               0.000654965               0.000551112               0.000000000               0.000000000               0.000000000               0.000000000               0.000321968               0.001960816               0.000234726              -0.000124364               0.000695053               0.000570689               0.000000000               0.000000000               0.000000000               0.000000000               0.000307596               0.002065616               0.000206674              -0.000142853               0.000736149               0.000593296               0.000000000               0.000000000               0.000000000               0.000000000               0.000290108               0.002164352               0.000183248              -0.000161753               0.000775361               0.000613608               0.000000000               0.000000000               0.000000000               0.000000000               0.000270501               0.002249608               0.000159507              -0.000179763               0.000809783               0.000630020               0.000000000               0.000000000               0.000000000               0.000000000               0.000257037               0.002333455               0.000127929              -0.000195292               0.000842908               0.000647616               0.000000000               0.000000000               0.000000000               0.000000000               0.000248307               0.002430279               0.000087489              -0.000210669               0.000880308               0.000669639               0.000000000               0.000000000               0.000000000               0.000000000               0.000244219               0.002542691               0.000044078              -0.000226254               0.000922973               0.000696719               0.000000000               0.000000000               0.000000000               0.000000000               0.000233124               0.002596719               0.000019945              -0.000237168               0.000944620               0.000707453               0.000000000               0.000000000               0.000000000               0.000000000               0.000349578               0.000159746               0.000200789               0.000111122               0.000016207               0.000127329               0.000000000               0.000000000               0.000000000               0.000000000               0.000551718               0.000371752               0.000300319               0.000160424               0.000070441               0.000230865               0.000000000               0.000000000               0.000000000               0.000000000               0.000644094               0.000669520               0.000378883               0.000157844               0.000170557               0.000328400               0.000000000               0.000000000               0.000000000               0.000000000               0.000639311               0.000934770               0.000379379               0.000122894               0.000270622               0.000393516               0.000000000               0.000000000               0.000000000               0.000000000               0.000598683               0.001156513               0.000353151               0.000079941               0.000358853               0.000438794               0.000000000               0.000000000               0.000000000               0.000000000               0.000544915               0.001338727               0.000320083               0.000037002               0.000433904               0.000470906               0.000000000               0.000000000               0.000000000               0.000000000               0.000490024               0.001492374               0.000285563              -0.000002788               0.000498382               0.000495594               0.000000000               0.000000000               0.000000000               0.000000000               0.000443751               0.001629033               0.000248978              -0.000037223               0.000555413               0.000518191               0.000000000               0.000000000               0.000000000               0.000000000               0.000404929               0.001749480               0.000215987              -0.000066837               0.000605433               0.000538597               0.000000000               0.000000000               0.000000000               0.000000000               0.000374625               0.001861084               0.000192436              -0.000092151               0.000651072               0.000558921               0.000000000               0.000000000               0.000000000               0.000000000               0.000355814               0.001974252               0.000172656              -0.000113351               0.000695861               0.000582510               0.000000000               0.000000000               0.000000000               0.000000000               0.000343344               0.002088598               0.000152650              -0.000132321               0.000740299               0.000607979               0.000000000               0.000000000               0.000000000               0.000000000               0.000324755               0.002194839               0.000132241              -0.000152571               0.000782463               0.000629892               0.000000000               0.000000000               0.000000000               0.000000000               0.000310394               0.002299490               0.000108641              -0.000171038               0.000823502               0.000652464               0.000000000               0.000000000               0.000000000               0.000000000               0.000313593               0.002410465               0.000077705              -0.000183710               0.000864717               0.000681007               0.000000000               0.000000000               0.000000000               0.000000000               0.000326099               0.002531888               0.000040841              -0.000194199               0.000908687               0.000714488               0.000000000               0.000000000               0.000000000               0.000000000               0.000328924               0.002593303               0.000019974              -0.000200816               0.000931364               0.000730548               0.000000000               0.000000000               0.000000000               0.000000000               0.000267879               0.000090708               0.000094255               0.000089115               0.000000531               0.000089646               0.000000000               0.000000000               0.000000000               0.000000000               0.000527696               0.000269923               0.000151559               0.000164144               0.000035259               0.000199403               0.000000000               0.000000000               0.000000000               0.000000000               0.000676891               0.000534000               0.000199232               0.000187082               0.000115637               0.000302720               0.000000000               0.000000000               0.000000000               0.000000000               0.000693928               0.000792624               0.000203497               0.000161144               0.000210491               0.000371634               0.000000000               0.000000000               0.000000000               0.000000000               0.000660593               0.001018899               0.000191897               0.000120359               0.000299510               0.000419869               0.000000000               0.000000000               0.000000000               0.000000000               0.000606555               0.001213054               0.000175856               0.000075826               0.000379072               0.000454898               0.000000000               0.000000000               0.000000000               0.000000000               0.000549121               0.001382337               0.000158428               0.000033128               0.000449732               0.000482860               0.000000000               0.000000000               0.000000000               0.000000000               0.000496986               0.001532966               0.000138558              -0.000005251               0.000512734               0.000507483               0.000000000               0.000000000               0.000000000               0.000000000               0.000456437               0.001668896               0.000119733              -0.000037448               0.000568776               0.000531328               0.000000000               0.000000000               0.000000000               0.000000000               0.000421196               0.001789055               0.000108197              -0.000065683               0.000618240               0.000552557               0.000000000               0.000000000               0.000000000               0.000000000               0.000392680               0.001906205               0.000101439              -0.000091020               0.000665735               0.000574715               0.000000000               0.000000000               0.000000000               0.000000000               0.000373095               0.002028862               0.000088307              -0.000113697               0.000714180               0.000600483               0.000000000               0.000000000               0.000000000               0.000000000               0.000360597               0.002151039               0.000071481              -0.000133656               0.000761558               0.000627902               0.000000000               0.000000000               0.000000000               0.000000000               0.000356972               0.002274622               0.000063111              -0.000150463               0.000808354               0.000657891               0.000000000               0.000000000               0.000000000               0.000000000               0.000369176               0.002400832               0.000049075              -0.000161663               0.000854157               0.000692494               0.000000000               0.000000000               0.000000000               0.000000000               0.000398848               0.002530711               0.000023520              -0.000166770               0.000899152               0.000732382               0.000000000               0.000000000               0.000000000               0.000000000               0.000420044               0.002596778               0.000010120              -0.000167080               0.000921278               0.000754197               0.000000000               0.000000000               0.000000000               0.000000000               0.000000000               0.000000000               0.000000000               0.000000000               0.000000000               0.000000000               0.000000000               0.000000000               0.000000000               0.000000000               0.000000000               0.000000000               0.000000000               0.000000000               0.000000000               0.000000000               0.000000000               0.000000000               0.000000000               0.000000000               0.000000000               0.000000000               0.000000000               0.000000000               0.000000000               0.000000000               0.000000000               0.000000000               0.000000000               0.000000000               0.000000000               0.000000000               0.000000000               0.000000000               0.000000000               0.000000000               0.000000000               0.000000000               0.000000000               0.000000000               0.000000000               0.000000000               0.000000000               0.000000000               0.000000000               0.000000000               0.000000000               0.000000000               0.000000000               0.000000000               0.000000000               0.000000000               0.000000000               0.000000000               0.000000000               0.000000000               0.000000000               0.000000000               0.000000000               0.000000000               0.000000000               0.000000000               0.000000000               0.000000000               0.000000000               0.000000000               0.000000000               0.000000000               0.000000000               0.000000000               0.000000000               0.000000000               0.000000000               0.000000000               0.000000000               0.000000000               0.000000000               0.000000000               0.000000000               0.000000000               0.000000000               0.000000000               0.000000000               0.000000000               0.000000000               0.000000000               0.000000000               0.000000000               0.000000000               0.000000000               0.000000000               0.000000000               0.000000000               0.000000000               0.000000000               0.000000000               0.000000000               0.000000000               0.000000000               0.000000000               0.000000000               0.000000000               0.000000000               0.000000000               0.000000000               0.000000000               0.000000000               0.000000000               0.000000000               0.000000000               0.000000000               0.000000000               0.000000000               0.000000000               0.000000000               0.000000000               0.000000000               0.000000000               0.000000000               0.000000000               0.000000000               0.000000000               0.000000000               0.000000000               0.000000000               0.000000000               0.000000000               0.000000000               0.000000000               0.000000000               0.000000000               0.000000000               0.000000000               0.000000000               0.000000000               0.000000000               0.000000000               0.000000000               0.000000000               0.000000000               0.000000000               0.000000000               0.000000000               0.000000000               0.000000000               0.000000000               0.000000000               0.000000000               0.000000000               0.000000000               0.000000000               0.000000000               0.000000000               0.000000000               0.000000000               0.000000000               0.000000000               0.000000000               0.000000000               0.000000000               0.000000000               0.000000000               0.000000000               0.000000000               0.000000000               0.000000000               0.000000000               0.000000000               0.000000000               0.000000000 </DataArray>
</PointData>
</Piece>
</UnstructuredGrid> </VTKFile>
