<?xml version="1.0"?>
<VTKFile type="UnstructuredGrid" version="0.1">
<UnstructuredGrid>
<Piece NumberOfPoints="      1156" NumberOfCells="      1024">
<Points>
<DataArray type="Float64"                                    Name="coordinates"                                                      NumberOfComponents=" 3" format="ascii">
              0.133000000               0.000000000               0.000000000               0.155937500               0.000000000               0.000000000               0.178875000               0.000000000               0.000000000               0.201812500               0.000000000               0.000000000               0.224750000               0.000000000               0.000000000               0.247687500               0.000000000               0.000000000               0.270625000               0.000000000               0.000000000               0.293562500               0.000000000               0.000000000               0.316500000               0.000000000               0.000000000               0.339437500               0.000000000               0.000000000               0.362375000               0.000000000               0.000000000               0.385312500               0.000000000               0.000000000               0.408250000               0.000000000               0.000000000               0.431187500               0.000000000               0.000000000               0.454125000               0.000000000               0.000000000               0.477062500               0.000000000               0.000000000               0.500000000               0.000000000               0.000000000               0.132359569               0.013036280               0.000000000               0.155337096               0.016127762               0.000000000               0.178314623               0.019219245               0.000000000               0.201292150               0.022310727               0.000000000               0.224269676               0.025402210               0.000000000               0.247247203               0.028493692               0.000000000               0.270224730               0.031585175               0.000000000               0.293202257               0.034676657               0.000000000               0.316179784               0.037768140               0.000000000               0.339157311               0.040859622               0.000000000               0.362134838               0.043951105               0.000000000               0.385112365               0.047042587               0.000000000               0.408089892               0.050134070               0.000000000               0.431067419               0.053225552               0.000000000               0.454044946               0.056317035               0.000000000               0.477022473               0.059408517               0.000000000               0.500000000               0.062500000               0.000000000               0.130444442               0.025947013               0.000000000               0.153541665               0.032137825               0.000000000               0.176638887               0.038328636               0.000000000               0.199736109               0.044519448               0.000000000               0.222833332               0.050710260               0.000000000               0.245930554               0.056901071               0.000000000               0.269027776               0.063091883               0.000000000               0.292124999               0.069282695               0.000000000               0.315222221               0.075473506               0.000000000               0.338319444               0.081664318               0.000000000               0.361416666               0.087855130               0.000000000               0.384513888               0.094045942               0.000000000               0.407611111               0.100236753               0.000000000               0.430708333               0.106427565               0.000000000               0.453805555               0.112618377               0.000000000               0.476902778               0.118809188               0.000000000               0.500000000               0.125000000               0.000000000               0.127273065               0.038607862               0.000000000               0.150568498               0.047913621               0.000000000               0.173863932               0.057219379               0.000000000               0.197159365               0.066525138               0.000000000               0.220454798               0.075830897               0.000000000               0.243750232               0.085136655               0.000000000               0.267045665               0.094442414               0.000000000               0.290341099               0.103748172               0.000000000               0.313636532               0.113053931               0.000000000               0.336931966               0.122359690               0.000000000               0.360227399               0.131665448               0.000000000               0.383522833               0.140971207               0.000000000               0.406818266               0.150276966               0.000000000               0.430113700               0.159582724               0.000000000               0.453409133               0.168888483               0.000000000               0.476704567               0.178194241               0.000000000               0.500000000               0.187500000               0.000000000               0.122875978               0.050896897               0.000000000               0.146446229               0.063340840               0.000000000               0.170016481               0.075784784               0.000000000               0.193586732               0.088228728               0.000000000               0.217156983               0.100672672               0.000000000               0.240727235               0.113116616               0.000000000               0.264297486               0.125560560               0.000000000               0.287867738               0.138004504               0.000000000               0.311437989               0.150448448               0.000000000               0.335008240               0.162892392               0.000000000               0.358578492               0.175336336               0.000000000               0.382148743               0.187780280               0.000000000               0.405718994               0.200224224               0.000000000               0.429289246               0.212668168               0.000000000               0.452859497               0.225112112               0.000000000               0.476429749               0.237556056               0.000000000               0.500000000               0.250000000               0.000000000               0.117295528               0.062695766               0.000000000               0.141214558               0.078308531               0.000000000               0.165133587               0.093921295               0.000000000               0.189052617               0.109534060               0.000000000               0.212971646               0.125146824               0.000000000               0.236890676               0.140759589               0.000000000               0.260809705               0.156372354               0.000000000               0.284728735               0.171985118               0.000000000               0.308647764               0.187597883               0.000000000               0.332566794               0.203210648               0.000000000               0.356485823               0.218823412               0.000000000               0.380404853               0.234436177               0.000000000               0.404323882               0.250048941               0.000000000               0.428242912               0.265661706               0.000000000               0.452161941               0.281274471               0.000000000               0.476080971               0.296887235               0.000000000               0.500000000               0.312500000               0.000000000               0.110585458               0.073890841               0.000000000               0.134923867               0.092710163               0.000000000               0.159262276               0.111529486               0.000000000               0.183600685               0.130348808               0.000000000               0.207939094               0.149168131               0.000000000               0.232277503               0.167987453               0.000000000               0.256615912               0.186806776               0.000000000               0.280954320               0.205626098               0.000000000               0.305292729               0.224445420               0.000000000               0.329631138               0.243264743               0.000000000               0.353969547               0.262084065               0.000000000               0.378307956               0.280903388               0.000000000               0.402646365               0.299722710               0.000000000               0.426984773               0.318542033               0.000000000               0.451323182               0.337361355               0.000000000               0.475661591               0.356180678               0.000000000               0.500000000               0.375000000               0.000000000               0.102810390               0.084374307               0.000000000               0.127634741               0.106444663               0.000000000               0.152459092               0.128515018               0.000000000               0.177283442               0.150585374               0.000000000               0.202107793               0.172655730               0.000000000               0.226932143               0.194726086               0.000000000               0.251756494               0.216796442               0.000000000               0.276580845               0.238866798               0.000000000               0.301405195               0.260937153               0.000000000               0.326229546               0.283007509               0.000000000               0.351053896               0.305077865               0.000000000               0.375878247               0.327148221               0.000000000               0.400702598               0.349218577               0.000000000               0.425526948               0.371288933               0.000000000               0.450351299               0.393359288               0.000000000               0.475175649               0.415429644               0.000000000               0.500000000               0.437500000               0.000000000               0.094045202               0.094045202               0.000000000               0.119417377               0.119417377               0.000000000               0.144789552               0.144789552               0.000000000               0.170161727               0.170161727               0.000000000               0.195533901               0.195533901               0.000000000               0.220906076               0.220906076               0.000000000               0.246278251               0.246278251               0.000000000               0.271650426               0.271650426               0.000000000               0.297022601               0.297022601               0.000000000               0.322394776               0.322394776               0.000000000               0.347766951               0.347766951               0.000000000               0.373139126               0.373139126               0.000000000               0.398511300               0.398511300               0.000000000               0.423883475               0.423883475               0.000000000               0.449255650               0.449255650               0.000000000               0.474627825               0.474627825               0.000000000               0.500000000               0.500000000               0.000000000               0.084374307               0.102810390               0.000000000               0.106444663               0.127634741               0.000000000               0.128515018               0.152459092               0.000000000               0.150585374               0.177283442               0.000000000               0.172655730               0.202107793               0.000000000               0.194726086               0.226932143               0.000000000               0.216796442               0.251756494               0.000000000               0.238866798               0.276580845               0.000000000               0.260937153               0.301405195               0.000000000               0.283007509               0.326229546               0.000000000               0.305077865               0.351053896               0.000000000               0.327148221               0.375878247               0.000000000               0.349218577               0.400702598               0.000000000               0.371288933               0.425526948               0.000000000               0.393359288               0.450351299               0.000000000               0.415429644               0.475175649               0.000000000               0.437500000               0.500000000               0.000000000               0.073890841               0.110585458               0.000000000               0.092710163               0.134923867               0.000000000               0.111529486               0.159262276               0.000000000               0.130348808               0.183600685               0.000000000               0.149168131               0.207939094               0.000000000               0.167987453               0.232277503               0.000000000               0.186806776               0.256615912               0.000000000               0.205626098               0.280954320               0.000000000               0.224445420               0.305292729               0.000000000               0.243264743               0.329631138               0.000000000               0.262084065               0.353969547               0.000000000               0.280903388               0.378307956               0.000000000               0.299722710               0.402646365               0.000000000               0.318542033               0.426984773               0.000000000               0.337361355               0.451323182               0.000000000               0.356180678               0.475661591               0.000000000               0.375000000               0.500000000               0.000000000               0.062695766               0.117295528               0.000000000               0.078308531               0.141214558               0.000000000               0.093921295               0.165133587               0.000000000               0.109534060               0.189052617               0.000000000               0.125146824               0.212971646               0.000000000               0.140759589               0.236890676               0.000000000               0.156372354               0.260809705               0.000000000               0.171985118               0.284728735               0.000000000               0.187597883               0.308647764               0.000000000               0.203210648               0.332566794               0.000000000               0.218823412               0.356485823               0.000000000               0.234436177               0.380404853               0.000000000               0.250048941               0.404323882               0.000000000               0.265661706               0.428242912               0.000000000               0.281274471               0.452161941               0.000000000               0.296887235               0.476080971               0.000000000               0.312500000               0.500000000               0.000000000               0.050896897               0.122875978               0.000000000               0.063340840               0.146446229               0.000000000               0.075784784               0.170016481               0.000000000               0.088228728               0.193586732               0.000000000               0.100672672               0.217156983               0.000000000               0.113116616               0.240727235               0.000000000               0.125560560               0.264297486               0.000000000               0.138004504               0.287867738               0.000000000               0.150448448               0.311437989               0.000000000               0.162892392               0.335008240               0.000000000               0.175336336               0.358578492               0.000000000               0.187780280               0.382148743               0.000000000               0.200224224               0.405718994               0.000000000               0.212668168               0.429289246               0.000000000               0.225112112               0.452859497               0.000000000               0.237556056               0.476429749               0.000000000               0.250000000               0.500000000               0.000000000               0.038607862               0.127273065               0.000000000               0.047913621               0.150568498               0.000000000               0.057219379               0.173863932               0.000000000               0.066525138               0.197159365               0.000000000               0.075830897               0.220454798               0.000000000               0.085136655               0.243750232               0.000000000               0.094442414               0.267045665               0.000000000               0.103748172               0.290341099               0.000000000               0.113053931               0.313636532               0.000000000               0.122359690               0.336931966               0.000000000               0.131665448               0.360227399               0.000000000               0.140971207               0.383522833               0.000000000               0.150276966               0.406818266               0.000000000               0.159582724               0.430113700               0.000000000               0.168888483               0.453409133               0.000000000               0.178194241               0.476704567               0.000000000               0.187500000               0.500000000               0.000000000               0.025947013               0.130444442               0.000000000               0.032137825               0.153541665               0.000000000               0.038328636               0.176638887               0.000000000               0.044519448               0.199736109               0.000000000               0.050710260               0.222833332               0.000000000               0.056901071               0.245930554               0.000000000               0.063091883               0.269027776               0.000000000               0.069282695               0.292124999               0.000000000               0.075473506               0.315222221               0.000000000               0.081664318               0.338319444               0.000000000               0.087855130               0.361416666               0.000000000               0.094045942               0.384513888               0.000000000               0.100236753               0.407611111               0.000000000               0.106427565               0.430708333               0.000000000               0.112618377               0.453805555               0.000000000               0.118809188               0.476902778               0.000000000               0.125000000               0.500000000               0.000000000               0.013036280               0.132359569               0.000000000               0.016127762               0.155337096               0.000000000               0.019219245               0.178314623               0.000000000               0.022310727               0.201292150               0.000000000               0.025402210               0.224269676               0.000000000               0.028493692               0.247247203               0.000000000               0.031585175               0.270224730               0.000000000               0.034676657               0.293202257               0.000000000               0.037768140               0.316179784               0.000000000               0.040859622               0.339157311               0.000000000               0.043951105               0.362134838               0.000000000               0.047042587               0.385112365               0.000000000               0.050134070               0.408089892               0.000000000               0.053225552               0.431067419               0.000000000               0.056317035               0.454044946               0.000000000               0.059408517               0.477022473               0.000000000               0.062500000               0.500000000               0.000000000               0.000000000               0.133000000               0.000000000               0.000000000               0.155937500               0.000000000               0.000000000               0.178875000               0.000000000               0.000000000               0.201812500               0.000000000               0.000000000               0.224750000               0.000000000               0.000000000               0.247687500               0.000000000               0.000000000               0.270625000               0.000000000               0.000000000               0.293562500               0.000000000               0.000000000               0.316500000               0.000000000               0.000000000               0.339437500               0.000000000               0.000000000               0.362375000               0.000000000               0.000000000               0.385312500               0.000000000               0.000000000               0.408250000               0.000000000               0.000000000               0.431187500               0.000000000               0.000000000               0.454125000               0.000000000               0.000000000               0.477062500               0.000000000               0.000000000               0.500000000               0.000000000               0.133000000               0.000000000               0.000000000               0.155937500               0.000000000               0.000000000               0.178875000               0.000000000               0.000000000               0.201812500               0.000000000               0.000000000               0.224750000               0.000000000               0.000000000               0.247687500               0.000000000               0.000000000               0.270625000               0.000000000               0.000000000               0.293562500               0.000000000               0.000000000               0.316500000               0.000000000               0.000000000               0.339437500               0.000000000               0.000000000               0.362375000               0.000000000               0.000000000               0.385312500               0.000000000               0.000000000               0.408250000               0.000000000               0.000000000               0.431187500               0.000000000               0.000000000               0.454125000               0.000000000               0.000000000               0.477062500               0.000000000               0.000000000               0.500000000               0.000000000               0.000000000               0.132359569              -0.013036280               0.000000000               0.155337096              -0.016127762               0.000000000               0.178314623              -0.019219245               0.000000000               0.201292150              -0.022310727               0.000000000               0.224269676              -0.025402210               0.000000000               0.247247203              -0.028493692               0.000000000               0.270224730              -0.031585175               0.000000000               0.293202257              -0.034676657               0.000000000               0.316179784              -0.037768140               0.000000000               0.339157311              -0.040859622               0.000000000               0.362134838              -0.043951105               0.000000000               0.385112365              -0.047042587               0.000000000               0.408089892              -0.050134070               0.000000000               0.431067419              -0.053225552               0.000000000               0.454044946              -0.056317035               0.000000000               0.477022473              -0.059408517               0.000000000               0.500000000              -0.062500000               0.000000000               0.130444442              -0.025947013               0.000000000               0.153541665              -0.032137825               0.000000000               0.176638887              -0.038328636               0.000000000               0.199736109              -0.044519448               0.000000000               0.222833332              -0.050710260               0.000000000               0.245930554              -0.056901071               0.000000000               0.269027776              -0.063091883               0.000000000               0.292124999              -0.069282695               0.000000000               0.315222221              -0.075473506               0.000000000               0.338319444              -0.081664318               0.000000000               0.361416666              -0.087855130               0.000000000               0.384513888              -0.094045942               0.000000000               0.407611111              -0.100236753               0.000000000               0.430708333              -0.106427565               0.000000000               0.453805555              -0.112618377               0.000000000               0.476902778              -0.118809188               0.000000000               0.500000000              -0.125000000               0.000000000               0.127273065              -0.038607862               0.000000000               0.150568498              -0.047913621               0.000000000               0.173863932              -0.057219379               0.000000000               0.197159365              -0.066525138               0.000000000               0.220454798              -0.075830897               0.000000000               0.243750232              -0.085136655               0.000000000               0.267045665              -0.094442414               0.000000000               0.290341099              -0.103748172               0.000000000               0.313636532              -0.113053931               0.000000000               0.336931966              -0.122359690               0.000000000               0.360227399              -0.131665448               0.000000000               0.383522833              -0.140971207               0.000000000               0.406818266              -0.150276966               0.000000000               0.430113700              -0.159582724               0.000000000               0.453409133              -0.168888483               0.000000000               0.476704567              -0.178194241               0.000000000               0.500000000              -0.187500000               0.000000000               0.122875978              -0.050896897               0.000000000               0.146446229              -0.063340840               0.000000000               0.170016481              -0.075784784               0.000000000               0.193586732              -0.088228728               0.000000000               0.217156983              -0.100672672               0.000000000               0.240727235              -0.113116616               0.000000000               0.264297486              -0.125560560               0.000000000               0.287867738              -0.138004504               0.000000000               0.311437989              -0.150448448               0.000000000               0.335008240              -0.162892392               0.000000000               0.358578492              -0.175336336               0.000000000               0.382148743              -0.187780280               0.000000000               0.405718994              -0.200224224               0.000000000               0.429289246              -0.212668168               0.000000000               0.452859497              -0.225112112               0.000000000               0.476429749              -0.237556056               0.000000000               0.500000000              -0.250000000               0.000000000               0.117295528              -0.062695766               0.000000000               0.141214558              -0.078308531               0.000000000               0.165133587              -0.093921295               0.000000000               0.189052617              -0.109534060               0.000000000               0.212971646              -0.125146824               0.000000000               0.236890676              -0.140759589               0.000000000               0.260809705              -0.156372354               0.000000000               0.284728735              -0.171985118               0.000000000               0.308647764              -0.187597883               0.000000000               0.332566794              -0.203210648               0.000000000               0.356485823              -0.218823412               0.000000000               0.380404853              -0.234436177               0.000000000               0.404323882              -0.250048941               0.000000000               0.428242912              -0.265661706               0.000000000               0.452161941              -0.281274471               0.000000000               0.476080971              -0.296887235               0.000000000               0.500000000              -0.312500000               0.000000000               0.110585458              -0.073890841               0.000000000               0.134923867              -0.092710163               0.000000000               0.159262276              -0.111529486               0.000000000               0.183600685              -0.130348808               0.000000000               0.207939094              -0.149168131               0.000000000               0.232277503              -0.167987453               0.000000000               0.256615912              -0.186806776               0.000000000               0.280954320              -0.205626098               0.000000000               0.305292729              -0.224445420               0.000000000               0.329631138              -0.243264743               0.000000000               0.353969547              -0.262084065               0.000000000               0.378307956              -0.280903388               0.000000000               0.402646365              -0.299722710               0.000000000               0.426984773              -0.318542033               0.000000000               0.451323182              -0.337361355               0.000000000               0.475661591              -0.356180678               0.000000000               0.500000000              -0.375000000               0.000000000               0.102810390              -0.084374307               0.000000000               0.127634741              -0.106444663               0.000000000               0.152459092              -0.128515018               0.000000000               0.177283442              -0.150585374               0.000000000               0.202107793              -0.172655730               0.000000000               0.226932143              -0.194726086               0.000000000               0.251756494              -0.216796442               0.000000000               0.276580845              -0.238866798               0.000000000               0.301405195              -0.260937153               0.000000000               0.326229546              -0.283007509               0.000000000               0.351053896              -0.305077865               0.000000000               0.375878247              -0.327148221               0.000000000               0.400702598              -0.349218577               0.000000000               0.425526948              -0.371288933               0.000000000               0.450351299              -0.393359288               0.000000000               0.475175649              -0.415429644               0.000000000               0.500000000              -0.437500000               0.000000000               0.094045202              -0.094045202               0.000000000               0.119417377              -0.119417377               0.000000000               0.144789552              -0.144789552               0.000000000               0.170161727              -0.170161727               0.000000000               0.195533901              -0.195533901               0.000000000               0.220906076              -0.220906076               0.000000000               0.246278251              -0.246278251               0.000000000               0.271650426              -0.271650426               0.000000000               0.297022601              -0.297022601               0.000000000               0.322394776              -0.322394776               0.000000000               0.347766951              -0.347766951               0.000000000               0.373139126              -0.373139126               0.000000000               0.398511300              -0.398511300               0.000000000               0.423883475              -0.423883475               0.000000000               0.449255650              -0.449255650               0.000000000               0.474627825              -0.474627825               0.000000000               0.500000000              -0.500000000               0.000000000               0.084374307              -0.102810390               0.000000000               0.106444663              -0.127634741               0.000000000               0.128515018              -0.152459092               0.000000000               0.150585374              -0.177283442               0.000000000               0.172655730              -0.202107793               0.000000000               0.194726086              -0.226932143               0.000000000               0.216796442              -0.251756494               0.000000000               0.238866798              -0.276580845               0.000000000               0.260937153              -0.301405195               0.000000000               0.283007509              -0.326229546               0.000000000               0.305077865              -0.351053896               0.000000000               0.327148221              -0.375878247               0.000000000               0.349218577              -0.400702598               0.000000000               0.371288933              -0.425526948               0.000000000               0.393359288              -0.450351299               0.000000000               0.415429644              -0.475175649               0.000000000               0.437500000              -0.500000000               0.000000000               0.073890841              -0.110585458               0.000000000               0.092710163              -0.134923867               0.000000000               0.111529486              -0.159262276               0.000000000               0.130348808              -0.183600685               0.000000000               0.149168131              -0.207939094               0.000000000               0.167987453              -0.232277503               0.000000000               0.186806776              -0.256615912               0.000000000               0.205626098              -0.280954320               0.000000000               0.224445420              -0.305292729               0.000000000               0.243264743              -0.329631138               0.000000000               0.262084065              -0.353969547               0.000000000               0.280903388              -0.378307956               0.000000000               0.299722710              -0.402646365               0.000000000               0.318542033              -0.426984773               0.000000000               0.337361355              -0.451323182               0.000000000               0.356180678              -0.475661591               0.000000000               0.375000000              -0.500000000               0.000000000               0.062695766              -0.117295528               0.000000000               0.078308531              -0.141214558               0.000000000               0.093921295              -0.165133587               0.000000000               0.109534060              -0.189052617               0.000000000               0.125146824              -0.212971646               0.000000000               0.140759589              -0.236890676               0.000000000               0.156372354              -0.260809705               0.000000000               0.171985118              -0.284728735               0.000000000               0.187597883              -0.308647764               0.000000000               0.203210648              -0.332566794               0.000000000               0.218823412              -0.356485823               0.000000000               0.234436177              -0.380404853               0.000000000               0.250048941              -0.404323882               0.000000000               0.265661706              -0.428242912               0.000000000               0.281274471              -0.452161941               0.000000000               0.296887235              -0.476080971               0.000000000               0.312500000              -0.500000000               0.000000000               0.050896897              -0.122875978               0.000000000               0.063340840              -0.146446229               0.000000000               0.075784784              -0.170016481               0.000000000               0.088228728              -0.193586732               0.000000000               0.100672672              -0.217156983               0.000000000               0.113116616              -0.240727235               0.000000000               0.125560560              -0.264297486               0.000000000               0.138004504              -0.287867738               0.000000000               0.150448448              -0.311437989               0.000000000               0.162892392              -0.335008240               0.000000000               0.175336336              -0.358578492               0.000000000               0.187780280              -0.382148743               0.000000000               0.200224224              -0.405718994               0.000000000               0.212668168              -0.429289246               0.000000000               0.225112112              -0.452859497               0.000000000               0.237556056              -0.476429749               0.000000000               0.250000000              -0.500000000               0.000000000               0.038607862              -0.127273065               0.000000000               0.047913621              -0.150568498               0.000000000               0.057219379              -0.173863932               0.000000000               0.066525138              -0.197159365               0.000000000               0.075830897              -0.220454798               0.000000000               0.085136655              -0.243750232               0.000000000               0.094442414              -0.267045665               0.000000000               0.103748172              -0.290341099               0.000000000               0.113053931              -0.313636532               0.000000000               0.122359690              -0.336931966               0.000000000               0.131665448              -0.360227399               0.000000000               0.140971207              -0.383522833               0.000000000               0.150276966              -0.406818266               0.000000000               0.159582724              -0.430113700               0.000000000               0.168888483              -0.453409133               0.000000000               0.178194241              -0.476704567               0.000000000               0.187500000              -0.500000000               0.000000000               0.025947013              -0.130444442               0.000000000               0.032137825              -0.153541665               0.000000000               0.038328636              -0.176638887               0.000000000               0.044519448              -0.199736109               0.000000000               0.050710260              -0.222833332               0.000000000               0.056901071              -0.245930554               0.000000000               0.063091883              -0.269027776               0.000000000               0.069282695              -0.292124999               0.000000000               0.075473506              -0.315222221               0.000000000               0.081664318              -0.338319444               0.000000000               0.087855130              -0.361416666               0.000000000               0.094045942              -0.384513888               0.000000000               0.100236753              -0.407611111               0.000000000               0.106427565              -0.430708333               0.000000000               0.112618377              -0.453805555               0.000000000               0.118809188              -0.476902778               0.000000000               0.125000000              -0.500000000               0.000000000               0.013036280              -0.132359569               0.000000000               0.016127762              -0.155337096               0.000000000               0.019219245              -0.178314623               0.000000000               0.022310727              -0.201292150               0.000000000               0.025402210              -0.224269676               0.000000000               0.028493692              -0.247247203               0.000000000               0.031585175              -0.270224730               0.000000000               0.034676657              -0.293202257               0.000000000               0.037768140              -0.316179784               0.000000000               0.040859622              -0.339157311               0.000000000               0.043951105              -0.362134838               0.000000000               0.047042587              -0.385112365               0.000000000               0.050134070              -0.408089892               0.000000000               0.053225552              -0.431067419               0.000000000               0.056317035              -0.454044946               0.000000000               0.059408517              -0.477022473               0.000000000               0.062500000              -0.500000000               0.000000000               0.000000000              -0.133000000               0.000000000               0.000000000              -0.155937500               0.000000000               0.000000000              -0.178875000               0.000000000               0.000000000              -0.201812500               0.000000000               0.000000000              -0.224750000               0.000000000               0.000000000              -0.247687500               0.000000000               0.000000000              -0.270625000               0.000000000               0.000000000              -0.293562500               0.000000000               0.000000000              -0.316500000               0.000000000               0.000000000              -0.339437500               0.000000000               0.000000000              -0.362375000               0.000000000               0.000000000              -0.385312500               0.000000000               0.000000000              -0.408250000               0.000000000               0.000000000              -0.431187500               0.000000000               0.000000000              -0.454125000               0.000000000               0.000000000              -0.477062500               0.000000000               0.000000000              -0.500000000               0.000000000              -0.133000000               0.000000000               0.000000000              -0.155937500               0.000000000               0.000000000              -0.178875000               0.000000000               0.000000000              -0.201812500               0.000000000               0.000000000              -0.224750000               0.000000000               0.000000000              -0.247687500               0.000000000               0.000000000              -0.270625000               0.000000000               0.000000000              -0.293562500               0.000000000               0.000000000              -0.316500000               0.000000000               0.000000000              -0.339437500               0.000000000               0.000000000              -0.362375000               0.000000000               0.000000000              -0.385312500               0.000000000               0.000000000              -0.408250000               0.000000000               0.000000000              -0.431187500               0.000000000               0.000000000              -0.454125000               0.000000000               0.000000000              -0.477062500               0.000000000               0.000000000              -0.500000000               0.000000000               0.000000000              -0.132359569              -0.013036280               0.000000000              -0.155337096              -0.016127762               0.000000000              -0.178314623              -0.019219245               0.000000000              -0.201292150              -0.022310727               0.000000000              -0.224269676              -0.025402210               0.000000000              -0.247247203              -0.028493692               0.000000000              -0.270224730              -0.031585175               0.000000000              -0.293202257              -0.034676657               0.000000000              -0.316179784              -0.037768140               0.000000000              -0.339157311              -0.040859622               0.000000000              -0.362134838              -0.043951105               0.000000000              -0.385112365              -0.047042587               0.000000000              -0.408089892              -0.050134070               0.000000000              -0.431067419              -0.053225552               0.000000000              -0.454044946              -0.056317035               0.000000000              -0.477022473              -0.059408517               0.000000000              -0.500000000              -0.062500000               0.000000000              -0.130444442              -0.025947013               0.000000000              -0.153541665              -0.032137825               0.000000000              -0.176638887              -0.038328636               0.000000000              -0.199736109              -0.044519448               0.000000000              -0.222833332              -0.050710260               0.000000000              -0.245930554              -0.056901071               0.000000000              -0.269027776              -0.063091883               0.000000000              -0.292124999              -0.069282695               0.000000000              -0.315222221              -0.075473506               0.000000000              -0.338319444              -0.081664318               0.000000000              -0.361416666              -0.087855130               0.000000000              -0.384513888              -0.094045942               0.000000000              -0.407611111              -0.100236753               0.000000000              -0.430708333              -0.106427565               0.000000000              -0.453805555              -0.112618377               0.000000000              -0.476902778              -0.118809188               0.000000000              -0.500000000              -0.125000000               0.000000000              -0.127273065              -0.038607862               0.000000000              -0.150568498              -0.047913621               0.000000000              -0.173863932              -0.057219379               0.000000000              -0.197159365              -0.066525138               0.000000000              -0.220454798              -0.075830897               0.000000000              -0.243750232              -0.085136655               0.000000000              -0.267045665              -0.094442414               0.000000000              -0.290341099              -0.103748172               0.000000000              -0.313636532              -0.113053931               0.000000000              -0.336931966              -0.122359690               0.000000000              -0.360227399              -0.131665448               0.000000000              -0.383522833              -0.140971207               0.000000000              -0.406818266              -0.150276966               0.000000000              -0.430113700              -0.159582724               0.000000000              -0.453409133              -0.168888483               0.000000000              -0.476704567              -0.178194241               0.000000000              -0.500000000              -0.187500000               0.000000000              -0.122875978              -0.050896897               0.000000000              -0.146446229              -0.063340840               0.000000000              -0.170016481              -0.075784784               0.000000000              -0.193586732              -0.088228728               0.000000000              -0.217156983              -0.100672672               0.000000000              -0.240727235              -0.113116616               0.000000000              -0.264297486              -0.125560560               0.000000000              -0.287867738              -0.138004504               0.000000000              -0.311437989              -0.150448448               0.000000000              -0.335008240              -0.162892392               0.000000000              -0.358578492              -0.175336336               0.000000000              -0.382148743              -0.187780280               0.000000000              -0.405718994              -0.200224224               0.000000000              -0.429289246              -0.212668168               0.000000000              -0.452859497              -0.225112112               0.000000000              -0.476429749              -0.237556056               0.000000000              -0.500000000              -0.250000000               0.000000000              -0.117295528              -0.062695766               0.000000000              -0.141214558              -0.078308531               0.000000000              -0.165133587              -0.093921295               0.000000000              -0.189052617              -0.109534060               0.000000000              -0.212971646              -0.125146824               0.000000000              -0.236890676              -0.140759589               0.000000000              -0.260809705              -0.156372354               0.000000000              -0.284728735              -0.171985118               0.000000000              -0.308647764              -0.187597883               0.000000000              -0.332566794              -0.203210648               0.000000000              -0.356485823              -0.218823412               0.000000000              -0.380404853              -0.234436177               0.000000000              -0.404323882              -0.250048941               0.000000000              -0.428242912              -0.265661706               0.000000000              -0.452161941              -0.281274471               0.000000000              -0.476080971              -0.296887235               0.000000000              -0.500000000              -0.312500000               0.000000000              -0.110585458              -0.073890841               0.000000000              -0.134923867              -0.092710163               0.000000000              -0.159262276              -0.111529486               0.000000000              -0.183600685              -0.130348808               0.000000000              -0.207939094              -0.149168131               0.000000000              -0.232277503              -0.167987453               0.000000000              -0.256615912              -0.186806776               0.000000000              -0.280954320              -0.205626098               0.000000000              -0.305292729              -0.224445420               0.000000000              -0.329631138              -0.243264743               0.000000000              -0.353969547              -0.262084065               0.000000000              -0.378307956              -0.280903388               0.000000000              -0.402646365              -0.299722710               0.000000000              -0.426984773              -0.318542033               0.000000000              -0.451323182              -0.337361355               0.000000000              -0.475661591              -0.356180678               0.000000000              -0.500000000              -0.375000000               0.000000000              -0.102810390              -0.084374307               0.000000000              -0.127634741              -0.106444663               0.000000000              -0.152459092              -0.128515018               0.000000000              -0.177283442              -0.150585374               0.000000000              -0.202107793              -0.172655730               0.000000000              -0.226932143              -0.194726086               0.000000000              -0.251756494              -0.216796442               0.000000000              -0.276580845              -0.238866798               0.000000000              -0.301405195              -0.260937153               0.000000000              -0.326229546              -0.283007509               0.000000000              -0.351053896              -0.305077865               0.000000000              -0.375878247              -0.327148221               0.000000000              -0.400702598              -0.349218577               0.000000000              -0.425526948              -0.371288933               0.000000000              -0.450351299              -0.393359288               0.000000000              -0.475175649              -0.415429644               0.000000000              -0.500000000              -0.437500000               0.000000000              -0.094045202              -0.094045202               0.000000000              -0.119417377              -0.119417377               0.000000000              -0.144789552              -0.144789552               0.000000000              -0.170161727              -0.170161727               0.000000000              -0.195533901              -0.195533901               0.000000000              -0.220906076              -0.220906076               0.000000000              -0.246278251              -0.246278251               0.000000000              -0.271650426              -0.271650426               0.000000000              -0.297022601              -0.297022601               0.000000000              -0.322394776              -0.322394776               0.000000000              -0.347766951              -0.347766951               0.000000000              -0.373139126              -0.373139126               0.000000000              -0.398511300              -0.398511300               0.000000000              -0.423883475              -0.423883475               0.000000000              -0.449255650              -0.449255650               0.000000000              -0.474627825              -0.474627825               0.000000000              -0.500000000              -0.500000000               0.000000000              -0.084374307              -0.102810390               0.000000000              -0.106444663              -0.127634741               0.000000000              -0.128515018              -0.152459092               0.000000000              -0.150585374              -0.177283442               0.000000000              -0.172655730              -0.202107793               0.000000000              -0.194726086              -0.226932143               0.000000000              -0.216796442              -0.251756494               0.000000000              -0.238866798              -0.276580845               0.000000000              -0.260937153              -0.301405195               0.000000000              -0.283007509              -0.326229546               0.000000000              -0.305077865              -0.351053896               0.000000000              -0.327148221              -0.375878247               0.000000000              -0.349218577              -0.400702598               0.000000000              -0.371288933              -0.425526948               0.000000000              -0.393359288              -0.450351299               0.000000000              -0.415429644              -0.475175649               0.000000000              -0.437500000              -0.500000000               0.000000000              -0.073890841              -0.110585458               0.000000000              -0.092710163              -0.134923867               0.000000000              -0.111529486              -0.159262276               0.000000000              -0.130348808              -0.183600685               0.000000000              -0.149168131              -0.207939094               0.000000000              -0.167987453              -0.232277503               0.000000000              -0.186806776              -0.256615912               0.000000000              -0.205626098              -0.280954320               0.000000000              -0.224445420              -0.305292729               0.000000000              -0.243264743              -0.329631138               0.000000000              -0.262084065              -0.353969547               0.000000000              -0.280903388              -0.378307956               0.000000000              -0.299722710              -0.402646365               0.000000000              -0.318542033              -0.426984773               0.000000000              -0.337361355              -0.451323182               0.000000000              -0.356180678              -0.475661591               0.000000000              -0.375000000              -0.500000000               0.000000000              -0.062695766              -0.117295528               0.000000000              -0.078308531              -0.141214558               0.000000000              -0.093921295              -0.165133587               0.000000000              -0.109534060              -0.189052617               0.000000000              -0.125146824              -0.212971646               0.000000000              -0.140759589              -0.236890676               0.000000000              -0.156372354              -0.260809705               0.000000000              -0.171985118              -0.284728735               0.000000000              -0.187597883              -0.308647764               0.000000000              -0.203210648              -0.332566794               0.000000000              -0.218823412              -0.356485823               0.000000000              -0.234436177              -0.380404853               0.000000000              -0.250048941              -0.404323882               0.000000000              -0.265661706              -0.428242912               0.000000000              -0.281274471              -0.452161941               0.000000000              -0.296887235              -0.476080971               0.000000000              -0.312500000              -0.500000000               0.000000000              -0.050896897              -0.122875978               0.000000000              -0.063340840              -0.146446229               0.000000000              -0.075784784              -0.170016481               0.000000000              -0.088228728              -0.193586732               0.000000000              -0.100672672              -0.217156983               0.000000000              -0.113116616              -0.240727235               0.000000000              -0.125560560              -0.264297486               0.000000000              -0.138004504              -0.287867738               0.000000000              -0.150448448              -0.311437989               0.000000000              -0.162892392              -0.335008240               0.000000000              -0.175336336              -0.358578492               0.000000000              -0.187780280              -0.382148743               0.000000000              -0.200224224              -0.405718994               0.000000000              -0.212668168              -0.429289246               0.000000000              -0.225112112              -0.452859497               0.000000000              -0.237556056              -0.476429749               0.000000000              -0.250000000              -0.500000000               0.000000000              -0.038607862              -0.127273065               0.000000000              -0.047913621              -0.150568498               0.000000000              -0.057219379              -0.173863932               0.000000000              -0.066525138              -0.197159365               0.000000000              -0.075830897              -0.220454798               0.000000000              -0.085136655              -0.243750232               0.000000000              -0.094442414              -0.267045665               0.000000000              -0.103748172              -0.290341099               0.000000000              -0.113053931              -0.313636532               0.000000000              -0.122359690              -0.336931966               0.000000000              -0.131665448              -0.360227399               0.000000000              -0.140971207              -0.383522833               0.000000000              -0.150276966              -0.406818266               0.000000000              -0.159582724              -0.430113700               0.000000000              -0.168888483              -0.453409133               0.000000000              -0.178194241              -0.476704567               0.000000000              -0.187500000              -0.500000000               0.000000000              -0.025947013              -0.130444442               0.000000000              -0.032137825              -0.153541665               0.000000000              -0.038328636              -0.176638887               0.000000000              -0.044519448              -0.199736109               0.000000000              -0.050710260              -0.222833332               0.000000000              -0.056901071              -0.245930554               0.000000000              -0.063091883              -0.269027776               0.000000000              -0.069282695              -0.292124999               0.000000000              -0.075473506              -0.315222221               0.000000000              -0.081664318              -0.338319444               0.000000000              -0.087855130              -0.361416666               0.000000000              -0.094045942              -0.384513888               0.000000000              -0.100236753              -0.407611111               0.000000000              -0.106427565              -0.430708333               0.000000000              -0.112618377              -0.453805555               0.000000000              -0.118809188              -0.476902778               0.000000000              -0.125000000              -0.500000000               0.000000000              -0.013036280              -0.132359569               0.000000000              -0.016127762              -0.155337096               0.000000000              -0.019219245              -0.178314623               0.000000000              -0.022310727              -0.201292150               0.000000000              -0.025402210              -0.224269676               0.000000000              -0.028493692              -0.247247203               0.000000000              -0.031585175              -0.270224730               0.000000000              -0.034676657              -0.293202257               0.000000000              -0.037768140              -0.316179784               0.000000000              -0.040859622              -0.339157311               0.000000000              -0.043951105              -0.362134838               0.000000000              -0.047042587              -0.385112365               0.000000000              -0.050134070              -0.408089892               0.000000000              -0.053225552              -0.431067419               0.000000000              -0.056317035              -0.454044946               0.000000000              -0.059408517              -0.477022473               0.000000000              -0.062500000              -0.500000000               0.000000000               0.000000000              -0.133000000               0.000000000               0.000000000              -0.155937500               0.000000000               0.000000000              -0.178875000               0.000000000               0.000000000              -0.201812500               0.000000000               0.000000000              -0.224750000               0.000000000               0.000000000              -0.247687500               0.000000000               0.000000000              -0.270625000               0.000000000               0.000000000              -0.293562500               0.000000000               0.000000000              -0.316500000               0.000000000               0.000000000              -0.339437500               0.000000000               0.000000000              -0.362375000               0.000000000               0.000000000              -0.385312500               0.000000000               0.000000000              -0.408250000               0.000000000               0.000000000              -0.431187500               0.000000000               0.000000000              -0.454125000               0.000000000               0.000000000              -0.477062500               0.000000000               0.000000000              -0.500000000               0.000000000              -0.133000000               0.000000000               0.000000000              -0.155937500               0.000000000               0.000000000              -0.178875000               0.000000000               0.000000000              -0.201812500               0.000000000               0.000000000              -0.224750000               0.000000000               0.000000000              -0.247687500               0.000000000               0.000000000              -0.270625000               0.000000000               0.000000000              -0.293562500               0.000000000               0.000000000              -0.316500000               0.000000000               0.000000000              -0.339437500               0.000000000               0.000000000              -0.362375000               0.000000000               0.000000000              -0.385312500               0.000000000               0.000000000              -0.408250000               0.000000000               0.000000000              -0.431187500               0.000000000               0.000000000              -0.454125000               0.000000000               0.000000000              -0.477062500               0.000000000               0.000000000              -0.500000000               0.000000000               0.000000000              -0.132359569               0.013036280               0.000000000              -0.155337096               0.016127762               0.000000000              -0.178314623               0.019219245               0.000000000              -0.201292150               0.022310727               0.000000000              -0.224269676               0.025402210               0.000000000              -0.247247203               0.028493692               0.000000000              -0.270224730               0.031585175               0.000000000              -0.293202257               0.034676657               0.000000000              -0.316179784               0.037768140               0.000000000              -0.339157311               0.040859622               0.000000000              -0.362134838               0.043951105               0.000000000              -0.385112365               0.047042587               0.000000000              -0.408089892               0.050134070               0.000000000              -0.431067419               0.053225552               0.000000000              -0.454044946               0.056317035               0.000000000              -0.477022473               0.059408517               0.000000000              -0.500000000               0.062500000               0.000000000              -0.130444442               0.025947013               0.000000000              -0.153541665               0.032137825               0.000000000              -0.176638887               0.038328636               0.000000000              -0.199736109               0.044519448               0.000000000              -0.222833332               0.050710260               0.000000000              -0.245930554               0.056901071               0.000000000              -0.269027776               0.063091883               0.000000000              -0.292124999               0.069282695               0.000000000              -0.315222221               0.075473506               0.000000000              -0.338319444               0.081664318               0.000000000              -0.361416666               0.087855130               0.000000000              -0.384513888               0.094045942               0.000000000              -0.407611111               0.100236753               0.000000000              -0.430708333               0.106427565               0.000000000              -0.453805555               0.112618377               0.000000000              -0.476902778               0.118809188               0.000000000              -0.500000000               0.125000000               0.000000000              -0.127273065               0.038607862               0.000000000              -0.150568498               0.047913621               0.000000000              -0.173863932               0.057219379               0.000000000              -0.197159365               0.066525138               0.000000000              -0.220454798               0.075830897               0.000000000              -0.243750232               0.085136655               0.000000000              -0.267045665               0.094442414               0.000000000              -0.290341099               0.103748172               0.000000000              -0.313636532               0.113053931               0.000000000              -0.336931966               0.122359690               0.000000000              -0.360227399               0.131665448               0.000000000              -0.383522833               0.140971207               0.000000000              -0.406818266               0.150276966               0.000000000              -0.430113700               0.159582724               0.000000000              -0.453409133               0.168888483               0.000000000              -0.476704567               0.178194241               0.000000000              -0.500000000               0.187500000               0.000000000              -0.122875978               0.050896897               0.000000000              -0.146446229               0.063340840               0.000000000              -0.170016481               0.075784784               0.000000000              -0.193586732               0.088228728               0.000000000              -0.217156983               0.100672672               0.000000000              -0.240727235               0.113116616               0.000000000              -0.264297486               0.125560560               0.000000000              -0.287867738               0.138004504               0.000000000              -0.311437989               0.150448448               0.000000000              -0.335008240               0.162892392               0.000000000              -0.358578492               0.175336336               0.000000000              -0.382148743               0.187780280               0.000000000              -0.405718994               0.200224224               0.000000000              -0.429289246               0.212668168               0.000000000              -0.452859497               0.225112112               0.000000000              -0.476429749               0.237556056               0.000000000              -0.500000000               0.250000000               0.000000000              -0.117295528               0.062695766               0.000000000              -0.141214558               0.078308531               0.000000000              -0.165133587               0.093921295               0.000000000              -0.189052617               0.109534060               0.000000000              -0.212971646               0.125146824               0.000000000              -0.236890676               0.140759589               0.000000000              -0.260809705               0.156372354               0.000000000              -0.284728735               0.171985118               0.000000000              -0.308647764               0.187597883               0.000000000              -0.332566794               0.203210648               0.000000000              -0.356485823               0.218823412               0.000000000              -0.380404853               0.234436177               0.000000000              -0.404323882               0.250048941               0.000000000              -0.428242912               0.265661706               0.000000000              -0.452161941               0.281274471               0.000000000              -0.476080971               0.296887235               0.000000000              -0.500000000               0.312500000               0.000000000              -0.110585458               0.073890841               0.000000000              -0.134923867               0.092710163               0.000000000              -0.159262276               0.111529486               0.000000000              -0.183600685               0.130348808               0.000000000              -0.207939094               0.149168131               0.000000000              -0.232277503               0.167987453               0.000000000              -0.256615912               0.186806776               0.000000000              -0.280954320               0.205626098               0.000000000              -0.305292729               0.224445420               0.000000000              -0.329631138               0.243264743               0.000000000              -0.353969547               0.262084065               0.000000000              -0.378307956               0.280903388               0.000000000              -0.402646365               0.299722710               0.000000000              -0.426984773               0.318542033               0.000000000              -0.451323182               0.337361355               0.000000000              -0.475661591               0.356180678               0.000000000              -0.500000000               0.375000000               0.000000000              -0.102810390               0.084374307               0.000000000              -0.127634741               0.106444663               0.000000000              -0.152459092               0.128515018               0.000000000              -0.177283442               0.150585374               0.000000000              -0.202107793               0.172655730               0.000000000              -0.226932143               0.194726086               0.000000000              -0.251756494               0.216796442               0.000000000              -0.276580845               0.238866798               0.000000000              -0.301405195               0.260937153               0.000000000              -0.326229546               0.283007509               0.000000000              -0.351053896               0.305077865               0.000000000              -0.375878247               0.327148221               0.000000000              -0.400702598               0.349218577               0.000000000              -0.425526948               0.371288933               0.000000000              -0.450351299               0.393359288               0.000000000              -0.475175649               0.415429644               0.000000000              -0.500000000               0.437500000               0.000000000              -0.094045202               0.094045202               0.000000000              -0.119417377               0.119417377               0.000000000              -0.144789552               0.144789552               0.000000000              -0.170161727               0.170161727               0.000000000              -0.195533901               0.195533901               0.000000000              -0.220906076               0.220906076               0.000000000              -0.246278251               0.246278251               0.000000000              -0.271650426               0.271650426               0.000000000              -0.297022601               0.297022601               0.000000000              -0.322394776               0.322394776               0.000000000              -0.347766951               0.347766951               0.000000000              -0.373139126               0.373139126               0.000000000              -0.398511300               0.398511300               0.000000000              -0.423883475               0.423883475               0.000000000              -0.449255650               0.449255650               0.000000000              -0.474627825               0.474627825               0.000000000              -0.500000000               0.500000000               0.000000000              -0.084374307               0.102810390               0.000000000              -0.106444663               0.127634741               0.000000000              -0.128515018               0.152459092               0.000000000              -0.150585374               0.177283442               0.000000000              -0.172655730               0.202107793               0.000000000              -0.194726086               0.226932143               0.000000000              -0.216796442               0.251756494               0.000000000              -0.238866798               0.276580845               0.000000000              -0.260937153               0.301405195               0.000000000              -0.283007509               0.326229546               0.000000000              -0.305077865               0.351053896               0.000000000              -0.327148221               0.375878247               0.000000000              -0.349218577               0.400702598               0.000000000              -0.371288933               0.425526948               0.000000000              -0.393359288               0.450351299               0.000000000              -0.415429644               0.475175649               0.000000000              -0.437500000               0.500000000               0.000000000              -0.073890841               0.110585458               0.000000000              -0.092710163               0.134923867               0.000000000              -0.111529486               0.159262276               0.000000000              -0.130348808               0.183600685               0.000000000              -0.149168131               0.207939094               0.000000000              -0.167987453               0.232277503               0.000000000              -0.186806776               0.256615912               0.000000000              -0.205626098               0.280954320               0.000000000              -0.224445420               0.305292729               0.000000000              -0.243264743               0.329631138               0.000000000              -0.262084065               0.353969547               0.000000000              -0.280903388               0.378307956               0.000000000              -0.299722710               0.402646365               0.000000000              -0.318542033               0.426984773               0.000000000              -0.337361355               0.451323182               0.000000000              -0.356180678               0.475661591               0.000000000              -0.375000000               0.500000000               0.000000000              -0.062695766               0.117295528               0.000000000              -0.078308531               0.141214558               0.000000000              -0.093921295               0.165133587               0.000000000              -0.109534060               0.189052617               0.000000000              -0.125146824               0.212971646               0.000000000              -0.140759589               0.236890676               0.000000000              -0.156372354               0.260809705               0.000000000              -0.171985118               0.284728735               0.000000000              -0.187597883               0.308647764               0.000000000              -0.203210648               0.332566794               0.000000000              -0.218823412               0.356485823               0.000000000              -0.234436177               0.380404853               0.000000000              -0.250048941               0.404323882               0.000000000              -0.265661706               0.428242912               0.000000000              -0.281274471               0.452161941               0.000000000              -0.296887235               0.476080971               0.000000000              -0.312500000               0.500000000               0.000000000              -0.050896897               0.122875978               0.000000000              -0.063340840               0.146446229               0.000000000              -0.075784784               0.170016481               0.000000000              -0.088228728               0.193586732               0.000000000              -0.100672672               0.217156983               0.000000000              -0.113116616               0.240727235               0.000000000              -0.125560560               0.264297486               0.000000000              -0.138004504               0.287867738               0.000000000              -0.150448448               0.311437989               0.000000000              -0.162892392               0.335008240               0.000000000              -0.175336336               0.358578492               0.000000000              -0.187780280               0.382148743               0.000000000              -0.200224224               0.405718994               0.000000000              -0.212668168               0.429289246               0.000000000              -0.225112112               0.452859497               0.000000000              -0.237556056               0.476429749               0.000000000              -0.250000000               0.500000000               0.000000000              -0.038607862               0.127273065               0.000000000              -0.047913621               0.150568498               0.000000000              -0.057219379               0.173863932               0.000000000              -0.066525138               0.197159365               0.000000000              -0.075830897               0.220454798               0.000000000              -0.085136655               0.243750232               0.000000000              -0.094442414               0.267045665               0.000000000              -0.103748172               0.290341099               0.000000000              -0.113053931               0.313636532               0.000000000              -0.122359690               0.336931966               0.000000000              -0.131665448               0.360227399               0.000000000              -0.140971207               0.383522833               0.000000000              -0.150276966               0.406818266               0.000000000              -0.159582724               0.430113700               0.000000000              -0.168888483               0.453409133               0.000000000              -0.178194241               0.476704567               0.000000000              -0.187500000               0.500000000               0.000000000              -0.025947013               0.130444442               0.000000000              -0.032137825               0.153541665               0.000000000              -0.038328636               0.176638887               0.000000000              -0.044519448               0.199736109               0.000000000              -0.050710260               0.222833332               0.000000000              -0.056901071               0.245930554               0.000000000              -0.063091883               0.269027776               0.000000000              -0.069282695               0.292124999               0.000000000              -0.075473506               0.315222221               0.000000000              -0.081664318               0.338319444               0.000000000              -0.087855130               0.361416666               0.000000000              -0.094045942               0.384513888               0.000000000              -0.100236753               0.407611111               0.000000000              -0.106427565               0.430708333               0.000000000              -0.112618377               0.453805555               0.000000000              -0.118809188               0.476902778               0.000000000              -0.125000000               0.500000000               0.000000000              -0.013036280               0.132359569               0.000000000              -0.016127762               0.155337096               0.000000000              -0.019219245               0.178314623               0.000000000              -0.022310727               0.201292150               0.000000000              -0.025402210               0.224269676               0.000000000              -0.028493692               0.247247203               0.000000000              -0.031585175               0.270224730               0.000000000              -0.034676657               0.293202257               0.000000000              -0.037768140               0.316179784               0.000000000              -0.040859622               0.339157311               0.000000000              -0.043951105               0.362134838               0.000000000              -0.047042587               0.385112365               0.000000000              -0.050134070               0.408089892               0.000000000              -0.053225552               0.431067419               0.000000000              -0.056317035               0.454044946               0.000000000              -0.059408517               0.477022473               0.000000000              -0.062500000               0.500000000               0.000000000               0.000000000               0.133000000               0.000000000               0.000000000               0.155937500               0.000000000               0.000000000               0.178875000               0.000000000               0.000000000               0.201812500               0.000000000               0.000000000               0.224750000               0.000000000               0.000000000               0.247687500               0.000000000               0.000000000               0.270625000               0.000000000               0.000000000               0.293562500               0.000000000               0.000000000               0.316500000               0.000000000               0.000000000               0.339437500               0.000000000               0.000000000               0.362375000               0.000000000               0.000000000               0.385312500               0.000000000               0.000000000               0.408250000               0.000000000               0.000000000               0.431187500               0.000000000               0.000000000               0.454125000               0.000000000               0.000000000               0.477062500               0.000000000               0.000000000               0.500000000               0.000000000 </DataArray>
</Points>
<Cells>
<DataArray type="Int32"                                    Name="connectivity"                                                      NumberOfComponents=" 1" format="ascii">
         0          1         18         17          1          2         19         18          2          3         20         19          3          4         21         20          4          5         22         21          5          6         23         22          6          7         24         23          7          8         25         24          8          9         26         25          9         10         27         26         10         11         28         27         11         12         29         28         12         13         30         29         13         14         31         30         14         15         32         31         15         16         33         32         17         18         35         34         18         19         36         35         19         20         37         36         20         21         38         37         21         22         39         38         22         23         40         39         23         24         41         40         24         25         42         41         25         26         43         42         26         27         44         43         27         28         45         44         28         29         46         45         29         30         47         46         30         31         48         47         31         32         49         48         32         33         50         49         34         35         52         51         35         36         53         52         36         37         54         53         37         38         55         54         38         39         56         55         39         40         57         56         40         41         58         57         41         42         59         58         42         43         60         59         43         44         61         60         44         45         62         61         45         46         63         62         46         47         64         63         47         48         65         64         48         49         66         65         49         50         67         66         51         52         69         68         52         53         70         69         53         54         71         70         54         55         72         71         55         56         73         72         56         57         74         73         57         58         75         74         58         59         76         75         59         60         77         76         60         61         78         77         61         62         79         78         62         63         80         79         63         64         81         80         64         65         82         81         65         66         83         82         66         67         84         83         68         69         86         85         69         70         87         86         70         71         88         87         71         72         89         88         72         73         90         89         73         74         91         90         74         75         92         91         75         76         93         92         76         77         94         93         77         78         95         94         78         79         96         95         79         80         97         96         80         81         98         97         81         82         99         98         82         83        100         99         83         84        101        100         85         86        103        102         86         87        104        103         87         88        105        104         88         89        106        105         89         90        107        106         90         91        108        107         91         92        109        108         92         93        110        109         93         94        111        110         94         95        112        111         95         96        113        112         96         97        114        113         97         98        115        114         98         99        116        115         99        100        117        116        100        101        118        117        102        103        120        119        103        104        121        120        104        105        122        121        105        106        123        122        106        107        124        123        107        108        125        124        108        109        126        125        109        110        127        126        110        111        128        127        111        112        129        128        112        113        130        129        113        114        131        130        114        115        132        131        115        116        133        132        116        117        134        133        117        118        135        134        119        120        137        136        120        121        138        137        121        122        139        138        122        123        140        139        123        124        141        140        124        125        142        141        125        126        143        142        126        127        144        143        127        128        145        144        128        129        146        145        129        130        147        146        130        131        148        147        131        132        149        148        132        133        150        149        133        134        151        150        134        135        152        151        136        137        154        153        137        138        155        154        138        139        156        155        139        140        157        156        140        141        158        157        141        142        159        158        142        143        160        159        143        144        161        160        144        145        162        161        145        146        163        162        146        147        164        163        147        148        165        164        148        149        166        165        149        150        167        166        150        151        168        167        151        152        169        168        153        154        171        170        154        155        172        171        155        156        173        172        156        157        174        173        157        158        175        174        158        159        176        175        159        160        177        176        160        161        178        177        161        162        179        178        162        163        180        179        163        164        181        180        164        165        182        181        165        166        183        182        166        167        184        183        167        168        185        184        168        169        186        185        170        171        188        187        171        172        189        188        172        173        190        189        173        174        191        190        174        175        192        191        175        176        193        192        176        177        194        193        177        178        195        194        178        179        196        195        179        180        197        196        180        181        198        197        181        182        199        198        182        183        200        199        183        184        201        200        184        185        202        201        185        186        203        202        187        188        205        204        188        189        206        205        189        190        207        206        190        191        208        207        191        192        209        208        192        193        210        209        193        194        211        210        194        195        212        211        195        196        213        212        196        197        214        213        197        198        215        214        198        199        216        215        199        200        217        216        200        201        218        217        201        202        219        218        202        203        220        219        204        205        222        221        205        206        223        222        206        207        224        223        207        208        225        224        208        209        226        225        209        210        227        226        210        211        228        227        211        212        229        228        212        213        230        229        213        214        231        230        214        215        232        231        215        216        233        232        216        217        234        233        217        218        235        234        218        219        236        235        219        220        237        236        221        222        239        238        222        223        240        239        223        224        241        240        224        225        242        241        225        226        243        242        226        227        244        243        227        228        245        244        228        229        246        245        229        230        247        246        230        231        248        247        231        232        249        248        232        233        250        249        233        234        251        250        234        235        252        251        235        236        253        252        236        237        254        253        238        239        256        255        239        240        257        256        240        241        258        257        241        242        259        258        242        243        260        259        243        244        261        260        244        245        262        261        245        246        263        262        246        247        264        263        247        248        265        264        248        249        266        265        249        250        267        266        250        251        268        267        251        252        269        268        252        253        270        269        253        254        271        270        255        256        273        272        256        257        274        273        257        258        275        274        258        259        276        275        259        260        277        276        260        261        278        277        261        262        279        278        262        263        280        279        263        264        281        280        264        265        282        281        265        266        283        282        266        267        284        283        267        268        285        284        268        269        286        285        269        270        287        286        270        271        288        287        306        307          1          0        307        308          2          1        308        309          3          2        309        310          4          3        310        311          5          4        311        312          6          5        312        313          7          6        313        314          8          7        314        315          9          8        315        316         10          9        316        317         11         10        317        318         12         11        318        319         13         12        319        320         14         13        320        321         15         14        321        322         16         15        323        324        307        306        324        325        308        307        325        326        309        308        326        327        310        309        327        328        311        310        328        329        312        311        329        330        313        312        330        331        314        313        331        332        315        314        332        333        316        315        333        334        317        316        334        335        318        317        335        336        319        318        336        337        320        319        337        338        321        320        338        339        322        321        340        341        324        323        341        342        325        324        342        343        326        325        343        344        327        326        344        345        328        327        345        346        329        328        346        347        330        329        347        348        331        330        348        349        332        331        349        350        333        332        350        351        334        333        351        352        335        334        352        353        336        335        353        354        337        336        354        355        338        337        355        356        339        338        357        358        341        340        358        359        342        341        359        360        343        342        360        361        344        343        361        362        345        344        362        363        346        345        363        364        347        346        364        365        348        347        365        366        349        348        366        367        350        349        367        368        351        350        368        369        352        351        369        370        353        352        370        371        354        353        371        372        355        354        372        373        356        355        374        375        358        357        375        376        359        358        376        377        360        359        377        378        361        360        378        379        362        361        379        380        363        362        380        381        364        363        381        382        365        364        382        383        366        365        383        384        367        366        384        385        368        367        385        386        369        368        386        387        370        369        387        388        371        370        388        389        372        371        389        390        373        372        391        392        375        374        392        393        376        375        393        394        377        376        394        395        378        377        395        396        379        378        396        397        380        379        397        398        381        380        398        399        382        381        399        400        383        382        400        401        384        383        401        402        385        384        402        403        386        385        403        404        387        386        404        405        388        387        405        406        389        388        406        407        390        389        408        409        392        391        409        410        393        392        410        411        394        393        411        412        395        394        412        413        396        395        413        414        397        396        414        415        398        397        415        416        399        398        416        417        400        399        417        418        401        400        418        419        402        401        419        420        403        402        420        421        404        403        421        422        405        404        422        423        406        405        423        424        407        406        425        426        409        408        426        427        410        409        427        428        411        410        428        429        412        411        429        430        413        412        430        431        414        413        431        432        415        414        432        433        416        415        433        434        417        416        434        435        418        417        435        436        419        418        436        437        420        419        437        438        421        420        438        439        422        421        439        440        423        422        440        441        424        423        442        443        426        425        443        444        427        426        444        445        428        427        445        446        429        428        446        447        430        429        447        448        431        430        448        449        432        431        449        450        433        432        450        451        434        433        451        452        435        434        452        453        436        435        453        454        437        436        454        455        438        437        455        456        439        438        456        457        440        439        457        458        441        440        459        460        443        442        460        461        444        443        461        462        445        444        462        463        446        445        463        464        447        446        464        465        448        447        465        466        449        448        466        467        450        449        467        468        451        450        468        469        452        451        469        470        453        452        470        471        454        453        471        472        455        454        472        473        456        455        473        474        457        456        474        475        458        457        476        477        460        459        477        478        461        460        478        479        462        461        479        480        463        462        480        481        464        463        481        482        465        464        482        483        466        465        483        484        467        466        484        485        468        467        485        486        469        468        486        487        470        469        487        488        471        470        488        489        472        471        489        490        473        472        490        491        474        473        491        492        475        474        493        494        477        476        494        495        478        477        495        496        479        478        496        497        480        479        497        498        481        480        498        499        482        481        499        500        483        482        500        501        484        483        501        502        485        484        502        503        486        485        503        504        487        486        504        505        488        487        505        506        489        488        506        507        490        489        507        508        491        490        508        509        492        491        510        511        494        493        511        512        495        494        512        513        496        495        513        514        497        496        514        515        498        497        515        516        499        498        516        517        500        499        517        518        501        500        518        519        502        501        519        520        503        502        520        521        504        503        521        522        505        504        522        523        506        505        523        524        507        506        524        525        508        507        525        526        509        508        527        528        511        510        528        529        512        511        529        530        513        512        530        531        514        513        531        532        515        514        532        533        516        515        533        534        517        516        534        535        518        517        535        536        519        518        536        537        520        519        537        538        521        520        538        539        522        521        539        540        523        522        540        541        524        523        541        542        525        524        542        543        526        525        544        545        528        527        545        546        529        528        546        547        530        529        547        548        531        530        548        549        532        531        549        550        533        532        550        551        534        533        551        552        535        534        552        553        536        535        553        554        537        536        554        555        538        537        555        556        539        538        556        557        540        539        557        558        541        540        558        559        542        541        559        560        543        542        561        562        545        544        562        563        546        545        563        564        547        546        564        565        548        547        565        566        549        548        566        567        550        549        567        568        551        550        568        569        552        551        569        570        553        552        570        571        554        553        571        572        555        554        572        573        556        555        573        574        557        556        574        575        558        557        575        576        559        558        576        577        560        559        578        579        596        595        579        580        597        596        580        581        598        597        581        582        599        598        582        583        600        599        583        584        601        600        584        585        602        601        585        586        603        602        586        587        604        603        587        588        605        604        588        589        606        605        589        590        607        606        590        591        608        607        591        592        609        608        592        593        610        609        593        594        611        610        595        596        613        612        596        597        614        613        597        598        615        614        598        599        616        615        599        600        617        616        600        601        618        617        601        602        619        618        602        603        620        619        603        604        621        620        604        605        622        621        605        606        623        622        606        607        624        623        607        608        625        624        608        609        626        625        609        610        627        626        610        611        628        627        612        613        630        629        613        614        631        630        614        615        632        631        615        616        633        632        616        617        634        633        617        618        635        634        618        619        636        635        619        620        637        636        620        621        638        637        621        622        639        638        622        623        640        639        623        624        641        640        624        625        642        641        625        626        643        642        626        627        644        643        627        628        645        644        629        630        647        646        630        631        648        647        631        632        649        648        632        633        650        649        633        634        651        650        634        635        652        651        635        636        653        652        636        637        654        653        637        638        655        654        638        639        656        655        639        640        657        656        640        641        658        657        641        642        659        658        642        643        660        659        643        644        661        660        644        645        662        661        646        647        664        663        647        648        665        664        648        649        666        665        649        650        667        666        650        651        668        667        651        652        669        668        652        653        670        669        653        654        671        670        654        655        672        671        655        656        673        672        656        657        674        673        657        658        675        674        658        659        676        675        659        660        677        676        660        661        678        677        661        662        679        678        663        664        681        680        664        665        682        681        665        666        683        682        666        667        684        683        667        668        685        684        668        669        686        685        669        670        687        686        670        671        688        687        671        672        689        688        672        673        690        689        673        674        691        690        674        675        692        691        675        676        693        692        676        677        694        693        677        678        695        694        678        679        696        695        680        681        698        697        681        682        699        698        682        683        700        699        683        684        701        700        684        685        702        701        685        686        703        702        686        687        704        703        687        688        705        704        688        689        706        705        689        690        707        706        690        691        708        707        691        692        709        708        692        693        710        709        693        694        711        710        694        695        712        711        695        696        713        712        697        698        715        714        698        699        716        715        699        700        717        716        700        701        718        717        701        702        719        718        702        703        720        719        703        704        721        720        704        705        722        721        705        706        723        722        706        707        724        723        707        708        725        724        708        709        726        725        709        710        727        726        710        711        728        727        711        712        729        728        712        713        730        729        714        715        732        731        715        716        733        732        716        717        734        733        717        718        735        734        718        719        736        735        719        720        737        736        720        721        738        737        721        722        739        738        722        723        740        739        723        724        741        740        724        725        742        741        725        726        743        742        726        727        744        743        727        728        745        744        728        729        746        745        729        730        747        746        731        732        749        748        732        733        750        749        733        734        751        750        734        735        752        751        735        736        753        752        736        737        754        753        737        738        755        754        738        739        756        755        739        740        757        756        740        741        758        757        741        742        759        758        742        743        760        759        743        744        761        760        744        745        762        761        745        746        763        762        746        747        764        763        748        749        766        765        749        750        767        766        750        751        768        767        751        752        769        768        752        753        770        769        753        754        771        770        754        755        772        771        755        756        773        772        756        757        774        773        757        758        775        774        758        759        776        775        759        760        777        776        760        761        778        777        761        762        779        778        762        763        780        779        763        764        781        780        765        766        783        782        766        767        784        783        767        768        785        784        768        769        786        785        769        770        787        786        770        771        788        787        771        772        789        788        772        773        790        789        773        774        791        790        774        775        792        791        775        776        793        792        776        777        794        793        777        778        795        794        778        779        796        795        779        780        797        796        780        781        798        797        782        783        800        799        783        784        801        800        784        785        802        801        785        786        803        802        786        787        804        803        787        788        805        804        788        789        806        805        789        790        807        806        790        791        808        807        791        792        809        808        792        793        810        809        793        794        811        810        794        795        812        811        795        796        813        812        796        797        814        813        797        798        815        814        799        800        817        816        800        801        818        817        801        802        819        818        802        803        820        819        803        804        821        820        804        805        822        821        805        806        823        822        806        807        824        823        807        808        825        824        808        809        826        825        809        810        827        826        810        811        828        827        811        812        829        828        812        813        830        829        813        814        831        830        814        815        832        831        816        817        834        833        817        818        835        834        818        819        836        835        819        820        837        836        820        821        838        837        821        822        839        838        822        823        840        839        823        824        841        840        824        825        842        841        825        826        843        842        826        827        844        843        827        828        845        844        828        829        846        845        829        830        847        846        830        831        848        847        831        832        849        848        833        834        562        561        834        835        563        562        835        836        564        563        836        837        565        564        837        838        566        565        838        839        567        566        839        840        568        567        840        841        569        568        841        842        570        569        842        843        571        570        843        844        572        571        844        845        573        572        845        846        574        573        846        847        575        574        847        848        576        575        848        849        577        576        884        885        579        578        885        886        580        579        886        887        581        580        887        888        582        581        888        889        583        582        889        890        584        583        890        891        585        584        891        892        586        585        892        893        587        586        893        894        588        587        894        895        589        588        895        896        590        589        896        897        591        590        897        898        592        591        898        899        593        592        899        900        594        593        901        902        885        884        902        903        886        885        903        904        887        886        904        905        888        887        905        906        889        888        906        907        890        889        907        908        891        890        908        909        892        891        909        910        893        892        910        911        894        893        911        912        895        894        912        913        896        895        913        914        897        896        914        915        898        897        915        916        899        898        916        917        900        899        918        919        902        901        919        920        903        902        920        921        904        903        921        922        905        904        922        923        906        905        923        924        907        906        924        925        908        907        925        926        909        908        926        927        910        909        927        928        911        910        928        929        912        911        929        930        913        912        930        931        914        913        931        932        915        914        932        933        916        915        933        934        917        916        935        936        919        918        936        937        920        919        937        938        921        920        938        939        922        921        939        940        923        922        940        941        924        923        941        942        925        924        942        943        926        925        943        944        927        926        944        945        928        927        945        946        929        928        946        947        930        929        947        948        931        930        948        949        932        931        949        950        933        932        950        951        934        933        952        953        936        935        953        954        937        936        954        955        938        937        955        956        939        938        956        957        940        939        957        958        941        940        958        959        942        941        959        960        943        942        960        961        944        943        961        962        945        944        962        963        946        945        963        964        947        946        964        965        948        947        965        966        949        948        966        967        950        949        967        968        951        950        969        970        953        952        970        971        954        953        971        972        955        954        972        973        956        955        973        974        957        956        974        975        958        957        975        976        959        958        976        977        960        959        977        978        961        960        978        979        962        961        979        980        963        962        980        981        964        963        981        982        965        964        982        983        966        965        983        984        967        966        984        985        968        967        986        987        970        969        987        988        971        970        988        989        972        971        989        990        973        972        990        991        974        973        991        992        975        974        992        993        976        975        993        994        977        976        994        995        978        977        995        996        979        978        996        997        980        979        997        998        981        980        998        999        982        981        999       1000        983        982       1000       1001        984        983       1001       1002        985        984       1003       1004        987        986       1004       1005        988        987       1005       1006        989        988       1006       1007        990        989       1007       1008        991        990       1008       1009        992        991       1009       1010        993        992       1010       1011        994        993       1011       1012        995        994       1012       1013        996        995       1013       1014        997        996       1014       1015        998        997       1015       1016        999        998       1016       1017       1000        999       1017       1018       1001       1000       1018       1019       1002       1001       1020       1021       1004       1003       1021       1022       1005       1004       1022       1023       1006       1005       1023       1024       1007       1006       1024       1025       1008       1007       1025       1026       1009       1008       1026       1027       1010       1009       1027       1028       1011       1010       1028       1029       1012       1011       1029       1030       1013       1012       1030       1031       1014       1013       1031       1032       1015       1014       1032       1033       1016       1015       1033       1034       1017       1016       1034       1035       1018       1017       1035       1036       1019       1018       1037       1038       1021       1020       1038       1039       1022       1021       1039       1040       1023       1022       1040       1041       1024       1023       1041       1042       1025       1024       1042       1043       1026       1025       1043       1044       1027       1026       1044       1045       1028       1027       1045       1046       1029       1028       1046       1047       1030       1029       1047       1048       1031       1030       1048       1049       1032       1031       1049       1050       1033       1032       1050       1051       1034       1033       1051       1052       1035       1034       1052       1053       1036       1035       1054       1055       1038       1037       1055       1056       1039       1038       1056       1057       1040       1039       1057       1058       1041       1040       1058       1059       1042       1041       1059       1060       1043       1042       1060       1061       1044       1043       1061       1062       1045       1044       1062       1063       1046       1045       1063       1064       1047       1046       1064       1065       1048       1047       1065       1066       1049       1048       1066       1067       1050       1049       1067       1068       1051       1050       1068       1069       1052       1051       1069       1070       1053       1052       1071       1072       1055       1054       1072       1073       1056       1055       1073       1074       1057       1056       1074       1075       1058       1057       1075       1076       1059       1058       1076       1077       1060       1059       1077       1078       1061       1060       1078       1079       1062       1061       1079       1080       1063       1062       1080       1081       1064       1063       1081       1082       1065       1064       1082       1083       1066       1065       1083       1084       1067       1066       1084       1085       1068       1067       1085       1086       1069       1068       1086       1087       1070       1069       1088       1089       1072       1071       1089       1090       1073       1072       1090       1091       1074       1073       1091       1092       1075       1074       1092       1093       1076       1075       1093       1094       1077       1076       1094       1095       1078       1077       1095       1096       1079       1078       1096       1097       1080       1079       1097       1098       1081       1080       1098       1099       1082       1081       1099       1100       1083       1082       1100       1101       1084       1083       1101       1102       1085       1084       1102       1103       1086       1085       1103       1104       1087       1086       1105       1106       1089       1088       1106       1107       1090       1089       1107       1108       1091       1090       1108       1109       1092       1091       1109       1110       1093       1092       1110       1111       1094       1093       1111       1112       1095       1094       1112       1113       1096       1095       1113       1114       1097       1096       1114       1115       1098       1097       1115       1116       1099       1098       1116       1117       1100       1099       1117       1118       1101       1100       1118       1119       1102       1101       1119       1120       1103       1102       1120       1121       1104       1103       1122       1123       1106       1105       1123       1124       1107       1106       1124       1125       1108       1107       1125       1126       1109       1108       1126       1127       1110       1109       1127       1128       1111       1110       1128       1129       1112       1111       1129       1130       1113       1112       1130       1131       1114       1113       1131       1132       1115       1114       1132       1133       1116       1115       1133       1134       1117       1116       1134       1135       1118       1117       1135       1136       1119       1118       1136       1137       1120       1119       1137       1138       1121       1120        272        273       1123       1122        273        274       1124       1123        274        275       1125       1124        275        276       1126       1125        276        277       1127       1126        277        278       1128       1127        278        279       1129       1128        279        280       1130       1129        280        281       1131       1130        281        282       1132       1131        282        283       1133       1132        283        284       1134       1133        284        285       1135       1134        285        286       1136       1135        286        287       1137       1136        287        288       1138       1137 </DataArray>
<DataArray type="Int32"                                    Name="offsets"                                                      NumberOfComponents=" 1" format="ascii">
         4          8         12         16         20         24         28         32         36         40         44         48         52         56         60         64         68         72         76         80         84         88         92         96        100        104        108        112        116        120        124        128        132        136        140        144        148        152        156        160        164        168        172        176        180        184        188        192        196        200        204        208        212        216        220        224        228        232        236        240        244        248        252        256        260        264        268        272        276        280        284        288        292        296        300        304        308        312        316        320        324        328        332        336        340        344        348        352        356        360        364        368        372        376        380        384        388        392        396        400        404        408        412        416        420        424        428        432        436        440        444        448        452        456        460        464        468        472        476        480        484        488        492        496        500        504        508        512        516        520        524        528        532        536        540        544        548        552        556        560        564        568        572        576        580        584        588        592        596        600        604        608        612        616        620        624        628        632        636        640        644        648        652        656        660        664        668        672        676        680        684        688        692        696        700        704        708        712        716        720        724        728        732        736        740        744        748        752        756        760        764        768        772        776        780        784        788        792        796        800        804        808        812        816        820        824        828        832        836        840        844        848        852        856        860        864        868        872        876        880        884        888        892        896        900        904        908        912        916        920        924        928        932        936        940        944        948        952        956        960        964        968        972        976        980        984        988        992        996       1000       1004       1008       1012       1016       1020       1024       1028       1032       1036       1040       1044       1048       1052       1056       1060       1064       1068       1072       1076       1080       1084       1088       1092       1096       1100       1104       1108       1112       1116       1120       1124       1128       1132       1136       1140       1144       1148       1152       1156       1160       1164       1168       1172       1176       1180       1184       1188       1192       1196       1200       1204       1208       1212       1216       1220       1224       1228       1232       1236       1240       1244       1248       1252       1256       1260       1264       1268       1272       1276       1280       1284       1288       1292       1296       1300       1304       1308       1312       1316       1320       1324       1328       1332       1336       1340       1344       1348       1352       1356       1360       1364       1368       1372       1376       1380       1384       1388       1392       1396       1400       1404       1408       1412       1416       1420       1424       1428       1432       1436       1440       1444       1448       1452       1456       1460       1464       1468       1472       1476       1480       1484       1488       1492       1496       1500       1504       1508       1512       1516       1520       1524       1528       1532       1536       1540       1544       1548       1552       1556       1560       1564       1568       1572       1576       1580       1584       1588       1592       1596       1600       1604       1608       1612       1616       1620       1624       1628       1632       1636       1640       1644       1648       1652       1656       1660       1664       1668       1672       1676       1680       1684       1688       1692       1696       1700       1704       1708       1712       1716       1720       1724       1728       1732       1736       1740       1744       1748       1752       1756       1760       1764       1768       1772       1776       1780       1784       1788       1792       1796       1800       1804       1808       1812       1816       1820       1824       1828       1832       1836       1840       1844       1848       1852       1856       1860       1864       1868       1872       1876       1880       1884       1888       1892       1896       1900       1904       1908       1912       1916       1920       1924       1928       1932       1936       1940       1944       1948       1952       1956       1960       1964       1968       1972       1976       1980       1984       1988       1992       1996       2000       2004       2008       2012       2016       2020       2024       2028       2032       2036       2040       2044       2048       2052       2056       2060       2064       2068       2072       2076       2080       2084       2088       2092       2096       2100       2104       2108       2112       2116       2120       2124       2128       2132       2136       2140       2144       2148       2152       2156       2160       2164       2168       2172       2176       2180       2184       2188       2192       2196       2200       2204       2208       2212       2216       2220       2224       2228       2232       2236       2240       2244       2248       2252       2256       2260       2264       2268       2272       2276       2280       2284       2288       2292       2296       2300       2304       2308       2312       2316       2320       2324       2328       2332       2336       2340       2344       2348       2352       2356       2360       2364       2368       2372       2376       2380       2384       2388       2392       2396       2400       2404       2408       2412       2416       2420       2424       2428       2432       2436       2440       2444       2448       2452       2456       2460       2464       2468       2472       2476       2480       2484       2488       2492       2496       2500       2504       2508       2512       2516       2520       2524       2528       2532       2536       2540       2544       2548       2552       2556       2560       2564       2568       2572       2576       2580       2584       2588       2592       2596       2600       2604       2608       2612       2616       2620       2624       2628       2632       2636       2640       2644       2648       2652       2656       2660       2664       2668       2672       2676       2680       2684       2688       2692       2696       2700       2704       2708       2712       2716       2720       2724       2728       2732       2736       2740       2744       2748       2752       2756       2760       2764       2768       2772       2776       2780       2784       2788       2792       2796       2800       2804       2808       2812       2816       2820       2824       2828       2832       2836       2840       2844       2848       2852       2856       2860       2864       2868       2872       2876       2880       2884       2888       2892       2896       2900       2904       2908       2912       2916       2920       2924       2928       2932       2936       2940       2944       2948       2952       2956       2960       2964       2968       2972       2976       2980       2984       2988       2992       2996       3000       3004       3008       3012       3016       3020       3024       3028       3032       3036       3040       3044       3048       3052       3056       3060       3064       3068       3072       3076       3080       3084       3088       3092       3096       3100       3104       3108       3112       3116       3120       3124       3128       3132       3136       3140       3144       3148       3152       3156       3160       3164       3168       3172       3176       3180       3184       3188       3192       3196       3200       3204       3208       3212       3216       3220       3224       3228       3232       3236       3240       3244       3248       3252       3256       3260       3264       3268       3272       3276       3280       3284       3288       3292       3296       3300       3304       3308       3312       3316       3320       3324       3328       3332       3336       3340       3344       3348       3352       3356       3360       3364       3368       3372       3376       3380       3384       3388       3392       3396       3400       3404       3408       3412       3416       3420       3424       3428       3432       3436       3440       3444       3448       3452       3456       3460       3464       3468       3472       3476       3480       3484       3488       3492       3496       3500       3504       3508       3512       3516       3520       3524       3528       3532       3536       3540       3544       3548       3552       3556       3560       3564       3568       3572       3576       3580       3584       3588       3592       3596       3600       3604       3608       3612       3616       3620       3624       3628       3632       3636       3640       3644       3648       3652       3656       3660       3664       3668       3672       3676       3680       3684       3688       3692       3696       3700       3704       3708       3712       3716       3720       3724       3728       3732       3736       3740       3744       3748       3752       3756       3760       3764       3768       3772       3776       3780       3784       3788       3792       3796       3800       3804       3808       3812       3816       3820       3824       3828       3832       3836       3840       3844       3848       3852       3856       3860       3864       3868       3872       3876       3880       3884       3888       3892       3896       3900       3904       3908       3912       3916       3920       3924       3928       3932       3936       3940       3944       3948       3952       3956       3960       3964       3968       3972       3976       3980       3984       3988       3992       3996       4000       4004       4008       4012       4016       4020       4024       4028       4032       4036       4040       4044       4048       4052       4056       4060       4064       4068       4072       4076       4080       4084       4088       4092       4096 </DataArray>
<DataArray type="UInt8"                                    Name="types"                                                      NumberOfComponents=" 1" format="ascii">
         9          9          9          9          9          9          9          9          9          9          9          9          9          9          9          9          9          9          9          9          9          9          9          9          9          9          9          9          9          9          9          9          9          9          9          9          9          9          9          9          9          9          9          9          9          9          9          9          9          9          9          9          9          9          9          9          9          9          9          9          9          9          9          9          9          9          9          9          9          9          9          9          9          9          9          9          9          9          9          9          9          9          9          9          9          9          9          9          9          9          9          9          9          9          9          9          9          9          9          9          9          9          9          9          9          9          9          9          9          9          9          9          9          9          9          9          9          9          9          9          9          9          9          9          9          9          9          9          9          9          9          9          9          9          9          9          9          9          9          9          9          9          9          9          9          9          9          9          9          9          9          9          9          9          9          9          9          9          9          9          9          9          9          9          9          9          9          9          9          9          9          9          9          9          9          9          9          9          9          9          9          9          9          9          9          9          9          9          9          9          9          9          9          9          9          9          9          9          9          9          9          9          9          9          9          9          9          9          9          9          9          9          9          9          9          9          9          9          9          9          9          9          9          9          9          9          9          9          9          9          9          9          9          9          9          9          9          9          9          9          9          9          9          9          9          9          9          9          9          9          9          9          9          9          9          9          9          9          9          9          9          9          9          9          9          9          9          9          9          9          9          9          9          9          9          9          9          9          9          9          9          9          9          9          9          9          9          9          9          9          9          9          9          9          9          9          9          9          9          9          9          9          9          9          9          9          9          9          9          9          9          9          9          9          9          9          9          9          9          9          9          9          9          9          9          9          9          9          9          9          9          9          9          9          9          9          9          9          9          9          9          9          9          9          9          9          9          9          9          9          9          9          9          9          9          9          9          9          9          9          9          9          9          9          9          9          9          9          9          9          9          9          9          9          9          9          9          9          9          9          9          9          9          9          9          9          9          9          9          9          9          9          9          9          9          9          9          9          9          9          9          9          9          9          9          9          9          9          9          9          9          9          9          9          9          9          9          9          9          9          9          9          9          9          9          9          9          9          9          9          9          9          9          9          9          9          9          9          9          9          9          9          9          9          9          9          9          9          9          9          9          9          9          9          9          9          9          9          9          9          9          9          9          9          9          9          9          9          9          9          9          9          9          9          9          9          9          9          9          9          9          9          9          9          9          9          9          9          9          9          9          9          9          9          9          9          9          9          9          9          9          9          9          9          9          9          9          9          9          9          9          9          9          9          9          9          9          9          9          9          9          9          9          9          9          9          9          9          9          9          9          9          9          9          9          9          9          9          9          9          9          9          9          9          9          9          9          9          9          9          9          9          9          9          9          9          9          9          9          9          9          9          9          9          9          9          9          9          9          9          9          9          9          9          9          9          9          9          9          9          9          9          9          9          9          9          9          9          9          9          9          9          9          9          9          9          9          9          9          9          9          9          9          9          9          9          9          9          9          9          9          9          9          9          9          9          9          9          9          9          9          9          9          9          9          9          9          9          9          9          9          9          9          9          9          9          9          9          9          9          9          9          9          9          9          9          9          9          9          9          9          9          9          9          9          9          9          9          9          9          9          9          9          9          9          9          9          9          9          9          9          9          9          9          9          9          9          9          9          9          9          9          9          9          9          9          9          9          9          9          9          9          9          9          9          9          9          9          9          9          9          9          9          9          9          9          9          9          9          9          9          9          9          9          9          9          9          9          9          9          9          9          9          9          9          9          9          9          9          9          9          9          9          9          9          9          9          9          9          9          9          9          9          9          9          9          9          9          9          9          9          9          9          9          9          9          9          9          9          9          9          9          9          9          9          9          9          9          9          9          9          9          9          9          9          9          9          9          9          9          9          9          9          9          9          9          9          9          9          9          9          9          9          9          9          9          9          9          9          9          9          9          9          9          9          9          9          9          9          9          9          9          9          9          9          9          9          9          9          9          9          9          9          9          9          9          9          9          9          9          9          9          9          9          9          9          9          9          9          9          9          9          9          9          9          9          9          9          9          9          9          9          9          9          9          9          9          9          9          9          9          9          9          9          9          9          9          9          9          9          9          9          9          9          9          9          9          9          9          9          9          9          9          9          9          9          9          9          9          9          9          9          9          9          9          9          9          9          9          9          9          9          9          9          9          9          9          9          9          9          9          9          9          9          9          9          9          9          9          9          9          9          9          9          9          9          9          9          9          9          9          9          9          9          9          9          9          9          9          9          9          9          9          9          9          9          9          9          9          9          9          9          9          9          9          9          9          9          9          9          9          9          9          9          9          9          9          9          9          9          9          9          9          9          9          9          9          9          9          9          9          9          9          9          9          9          9          9          9          9          9          9          9          9          9          9          9          9          9          9          9          9          9          9          9          9          9          9          9          9          9          9          9          9          9          9          9          9          9          9          9          9          9          9 </DataArray>
</Cells>
<CellData>
<DataArray type="Int32"                                    Name="material"                                                      NumberOfComponents=" 1" format="ascii">
         1          1          1          1          1          1          1          1          1          1          1          1          1          1          1          1          1          1          1          1          1          1          1          1          1          1          1          1          1          1          1          1          1          1          1          1          1          1          1          1          1          1          1          1          1          1          1          1          1          1          1          1          1          1          1          1          1          1          1          1          1          1          1          1          1          1          1          1          1          1          1          1          1          1          1          1          1          1          1          1          1          1          1          1          1          1          1          1          1          1          1          1          1          1          1          1          1          1          1          1          1          1          1          1          1          1          1          1          1          1          1          1          1          1          1          1          1          1          1          1          1          1          1          1          1          1          1          1          1          1          1          1          1          1          1          1          1          1          1          1          1          1          1          1          1          1          1          1          1          1          1          1          1          1          1          1          1          1          1          1          1          1          1          1          1          1          1          1          1          1          1          1          1          1          1          1          1          1          1          1          1          1          1          1          1          1          1          1          1          1          1          1          1          1          1          1          1          1          1          1          1          1          1          1          1          1          1          1          1          1          1          1          1          1          1          1          1          1          1          1          1          1          1          1          1          1          1          1          1          1          1          1          1          1          1          1          1          1          1          1          1          1          1          1          1          1          1          1          1          1          1          1          1          1          1          1          1          1          1          1          1          1          1          1          1          1          1          1          1          1          1          1          1          1          1          1          1          1          1          1          1          1          1          1          1          1          1          1          1          1          1          1          1          1          1          1          1          1          1          1          1          1          1          1          1          1          1          1          1          1          1          1          1          1          1          1          1          1          1          1          1          1          1          1          1          1          1          1          1          1          1          1          1          1          1          1          1          1          1          1          1          1          1          1          1          1          1          1          1          1          1          1          1          1          1          1          1          1          1          1          1          1          1          1          1          1          1          1          1          1          1          1          1          1          1          1          1          1          1          1          1          1          1          1          1          1          1          1          1          1          1          1          1          1          1          1          1          1          1          1          1          1          1          1          1          1          1          1          1          1          1          1          1          1          1          1          1          1          1          1          1          1          1          1          1          1          1          1          1          1          1          1          1          1          1          1          1          1          1          1          1          1          1          1          1          1          1          1          1          1          1          1          1          1          1          1          1          1          1          1          1          1          1          1          1          1          1          1          1          1          1          1          1          1          1          1          1          1          1          1          1          1          1          1          1          1          1          1          1          1          1          1          1          1          1          1          1          1          1          1          1          1          1          1          1          1          1          1          1          1          1          1          1          1          1          1          1          1          1          1          1          1          1          1          1          1          1          1          1          1          1          1          1          1          1          1          1          1          1          1          1          1          1          1          1          1          1          1          1          1          1          1          1          1          1          1          1          1          1          1          1          1          1          1          1          1          1          1          1          1          1          1          1          1          1          1          1          1          1          1          1          1          1          1          1          1          1          1          1          1          1          1          1          1          1          1          1          1          1          1          1          1          1          1          1          1          1          1          1          1          1          1          1          1          1          1          1          1          1          1          1          1          1          1          1          1          1          1          1          1          1          1          1          1          1          1          1          1          1          1          1          1          1          1          1          1          1          1          1          1          1          1          1          1          1          1          1          1          1          1          1          1          1          1          1          1          1          1          1          1          1          1          1          1          1          1          1          1          1          1          1          1          1          1          1          1          1          1          1          1          1          1          1          1          1          1          1          1          1          1          1          1          1          1          1          1          1          1          1          1          1          1          1          1          1          1          1          1          1          1          1          1          1          1          1          1          1          1          1          1          1          1          1          1          1          1          1          1          1          1          1          1          1          1          1          1          1          1          1          1          1          1          1          1          1          1          1          1          1          1          1          1          1          1          1          1          1          1          1          1          1          1          1          1          1          1          1          1          1          1          1          1          1          1          1          1          1          1          1          1          1          1          1          1          1          1          1          1          1          1          1          1          1          1          1          1          1          1          1          1          1          1          1          1          1          1          1          1          1          1          1          1          1          1          1          1          1          1          1          1          1          1          1          1          1          1          1          1          1          1          1          1          1          1          1          1          1          1          1          1          1          1          1          1          1          1          1          1          1          1          1          1          1          1          1          1          1          1          1          1          1          1          1          1          1          1          1          1          1          1          1          1          1          1          1          1          1          1          1          1          1          1          1          1          1          1          1          1          1          1          1          1          1          1          1          1          1          1          1          1          1          1          1          1          1          1          1          1          1          1          1          1          1          1          1          1          1          1          1          1          1          1          1          1          1          1          1          1          1          1          1          1          1          1          1          1          1          1          1          1          1          1          1          1          1          1          1          1          1          1          1          1          1          1          1          1          1          1          1          1          1          1          1          1          1          1          1          1          1          1          1          1          1          1          1          1          1          1          1          1          1          1          1          1          1          1          1          1          1          1          1          1          1          1          1          1          1          1          1          1          1          1          1          1          1          1          1          1          1          1          1          1          1          1 </DataArray>
</CellData>
<PointData>
<DataArray type="Float64"                                    Name="u"                                                      NumberOfComponents=" 3" format="ascii">
             -0.000610684               0.000000000               0.999999984              -0.000657553               0.000000000               0.999999984              -0.000678103               0.000000000               0.999999984              -0.000689613               0.000000000               0.999999984              -0.000698633               0.000000000               0.999999984              -0.000707637              -0.000000000               0.999999984              -0.000717499               0.000000000               0.999999984              -0.000728480               0.000000000               0.999999984              -0.000740581               0.000000000               0.999999984              -0.000753690               0.000000000               0.999999984              -0.000767669              -0.000000000               0.999999984              -0.000782337               0.000000000               0.999999984              -0.000797193              -0.000000000               0.999999984              -0.000811991               0.000000000               0.999999984              -0.000826342              -0.000000000               0.999999984              -0.000839759               0.000000000               0.999999984              -0.000851710              -0.000000000               0.999999984              -0.000607316               0.000120886               0.999999984              -0.000650842               0.000099322               0.999999984              -0.000669224               0.000090295               0.999999984              -0.000679337               0.000087705               0.999999984              -0.000687399               0.000088519               0.999999984              -0.000695796               0.000091158               0.999999984              -0.000705313               0.000094505               0.999999984              -0.000715973               0.000097956               0.999999984              -0.000727614               0.000101381               0.999999984              -0.000740093               0.000104427               0.999999984              -0.000753161               0.000106870               0.999999984              -0.000766652               0.000108568               0.999999984              -0.000780302               0.000109082               0.999999984              -0.000793745               0.000108068               0.999999984              -0.000806680               0.000105029               0.999999984              -0.000818719               0.000099306               0.999999984              -0.000829311               0.000089856               0.999999984              -0.000597247               0.000240638               0.999999984              -0.000630943               0.000198039               0.999999984              -0.000643333               0.000181014               0.999999984              -0.000649888               0.000176716               0.999999984              -0.000655749               0.000179006               0.999999984              -0.000662645               0.000184721               0.999999984              -0.000670838               0.000191671               0.999999984              -0.000680203               0.000198918               0.999999984              -0.000690422               0.000205833               0.999999984              -0.000701083               0.000212020               0.999999984              -0.000711917               0.000217036               0.999999984              -0.000722714               0.000220585               0.999999984              -0.000733154               0.000222014               0.999999984              -0.000742926               0.000220782               0.999999984              -0.000751891               0.000216254               0.999999984              -0.000759879               0.000207463               0.999999984              -0.000766735               0.000192999               0.999999984              -0.000580657               0.000358107               0.999999984              -0.000598857               0.000295654               0.999999984              -0.000602678               0.000272517               0.999999984              -0.000604578               0.000267932               0.999999984              -0.000607708               0.000272678               0.999999984              -0.000612751               0.000282082               0.999999984              -0.000619386               0.000293240               0.999999984              -0.000627081               0.000304510               0.999999984              -0.000635289               0.000315177               0.999999984              -0.000643561               0.000324486               0.999999984              -0.000651492               0.000331965               0.999999984              -0.000658810               0.000337331               0.999999984              -0.000665140               0.000339887               0.999999984              -0.000670384               0.000339184               0.999999984              -0.000674524               0.000334757               0.999999984              -0.000677420               0.000325806               0.999999984              -0.000679189               0.000311454               0.999999984              -0.000557851               0.000472193               0.999999984              -0.000556289               0.000391904               0.999999984              -0.000550596               0.000364952               0.999999984              -0.000547955               0.000361764               0.999999984              -0.000548997               0.000369958               0.999999984              -0.000552758               0.000383631               0.999999984              -0.000558171               0.000399126               0.999999984              -0.000564261               0.000414516               0.999999984              -0.000570269               0.000428734               0.999999984              -0.000575605               0.000440932               0.999999984              -0.000579995               0.000450870               0.999999984              -0.000583178               0.000458058               0.999999984              -0.000585057               0.000461916               0.999999984              -0.000585435               0.000462280               0.999999984              -0.000584248               0.000458868               0.999999984              -0.000581510               0.000451249               0.999999984              -0.000577322               0.000439056               0.999999984              -0.000529283               0.000581772               0.999999984              -0.000505332               0.000486767               0.999999984              -0.000490977               0.000458351               0.999999984              -0.000485370               0.000457893               0.999999984              -0.000485529               0.000470217               0.999999984              -0.000488788               0.000488268               0.999999984              -0.000493338               0.000507894               0.999999984              -0.000497858               0.000526920               0.999999984              -0.000501554               0.000544135               0.999999984              -0.000503842               0.000558735               0.999999984              -0.000504431               0.000570594               0.999999984              -0.000503155               0.000579460               0.999999984              -0.000499933               0.000584853               0.999999984              -0.000494636               0.000586637               0.999999984              -0.000487313               0.000584612               0.999999984              -0.000478042               0.000578861               0.999999984              -0.000467248               0.000569907               0.999999984              -0.000495485               0.000685710               0.999999984              -0.000448696               0.000580152               0.999999984              -0.000427978               0.000552362               0.999999984              -0.000421419               0.000555448               0.999999984              -0.000421996               0.000571908               0.999999984              -0.000425568               0.000593902               0.999999984              -0.000429624               0.000617060               0.999999984              -0.000432677               0.000639054               0.999999984              -0.000433863               0.000658644               0.999999984              -0.000432676               0.000675033               0.999999984              -0.000428846               0.000688384               0.999999984              -0.000422273               0.000698606               0.999999984              -0.000413028               0.000705462               0.999999984              -0.000401180               0.000708669               0.999999984              -0.000386868               0.000708264               0.999999984              -0.000370651               0.000705027               0.999999984              -0.000353253               0.000699811               0.999999984              -0.000457138               0.000782904               0.999999984              -0.000389234               0.000671871               0.999999984              -0.000365175               0.000646169               0.999999984              -0.000359886               0.000652775               0.999999984              -0.000361971               0.000672993               0.999999984              -0.000366214               0.000698448               0.999999984              -0.000369910               0.000724431               0.999999984              -0.000371335               0.000748596               0.999999984              -0.000369445               0.000769835               0.999999984              -0.000363888               0.000787577               0.999999984              -0.000354715               0.000802042               0.999999984              -0.000342056               0.000813375               0.999999984              -0.000326063               0.000821328               0.999999984              -0.000307014               0.000825674               0.999999984              -0.000285609               0.000827113               0.999999984              -0.000262750               0.000826826               0.999999984              -0.000239123               0.000825631               0.999999984              -0.000415645               0.000871617               0.999999984              -0.000329001               0.000761856               0.999999984              -0.000305808               0.000738388               0.999999984              -0.000303311               0.000747999               0.999999984              -0.000307537               0.000771474               0.999999984              -0.000312733               0.000799650               0.999999984              -0.000315700               0.000827863               0.999999984              -0.000314531               0.000853673               0.999999984              -0.000308512               0.000876132               0.999999984              -0.000297664               0.000894941               0.999999984              -0.000282322               0.000910360               0.999999984              -0.000262696               0.000922417               0.999999984              -0.000239173               0.000930989               0.999999984              -0.000212626               0.000936624               0.999999984              -0.000184367               0.000940500               0.999999984              -0.000155419               0.000943584               0.999999984              -0.000126197               0.000946252               0.999999984              -0.000373028               0.000955263               0.999999984              -0.000279175               0.000860653               0.999999984              -0.000252864               0.000832433               0.999999984              -0.000249179               0.000836016               0.999999984              -0.000252964               0.000854568               0.999999984              -0.000258516               0.000879761               0.999999984              -0.000262460               0.000906810               0.999999984              -0.000262857               0.000932990               0.999999984              -0.000258765               0.000957086               0.999999984              -0.000250114               0.000978459               0.999999984              -0.000236996               0.000997027               0.999999984              -0.000219683               0.001012770               0.999999984              -0.000198154               0.001025909               0.999999984              -0.000172583               0.001036441               0.999999984              -0.000144343               0.001045019               0.999999984              -0.000114484               0.001052370               0.999999984              -0.000084254               0.001059248               0.999999984              -0.000326280               0.001031292               0.999999984              -0.000232227               0.000955794               0.999999984              -0.000202974               0.000928343               0.999999984              -0.000197213               0.000928054               0.999999984              -0.000199922               0.000942636               0.999999984              -0.000205028               0.000965086               0.999999984              -0.000209256               0.000991089               0.999999984              -0.000210676               0.001017742               0.999999984              -0.000208102               0.001043424               0.999999984              -0.000201507               0.001067315               0.999999984              -0.000190580               0.001088937               0.999999984              -0.000175386               0.001108205               0.999999984              -0.000155840               0.001125190               0.999999984              -0.000131732               0.001139994               0.999999984              -0.000103598               0.001152910               0.999999984              -0.000072563               0.001164437               0.999999984              -0.000040095               0.001175376               0.999999984              -0.000276565               0.001097787               0.999999984              -0.000188161               0.001044463               0.999999984              -0.000157494               0.001021902               0.999999984              -0.000149553               0.001020547               0.999999984              -0.000150641               0.001032750               0.999999984              -0.000154631               0.001053211               0.999999984              -0.000158424               0.001078261               0.999999984              -0.000160236               0.001105489               0.999999984              -0.000158951               0.001132862               0.999999984              -0.000154139               0.001159360               0.999999984              -0.000145301               0.001184272               0.999999984              -0.000132181               0.001207396               0.999999984              -0.000114590               0.001228495               0.999999984              -0.000092176               0.001247633               0.999999984              -0.000064813               0.001264845               0.999999984              -0.000032961               0.001280494               0.999999984               0.000002397               0.001295229               0.999999984              -0.000224345               0.001153661               0.999999984              -0.000146938               0.001123106               0.999999984              -0.000117236               0.001108371               0.999999984              -0.000107734               0.001108723               0.999999984              -0.000107057               0.001120362               0.999999984              -0.000109650               0.001139917               0.999999984              -0.000112494               0.001164527               0.999999984              -0.000114212               0.001192219               0.999999984              -0.000113781               0.001221320               0.999999984              -0.000110446               0.001250562               0.999999984              -0.000103610               0.001279040               0.999999984              -0.000092768               0.001306341               0.999999984              -0.000077465               0.001332044               0.999999984              -0.000057217               0.001356026               0.999999984              -0.000031594               0.001378143               0.999999984              -0.000000094               0.001398632               0.999999984               0.000037358               0.001417792               0.999999984              -0.000170099               0.001197986               0.999999984              -0.000108149               0.001188313               0.999999984              -0.000082269               0.001182733               0.999999984              -0.000072618               0.001186686               0.999999984              -0.000070562               0.001199473               0.999999984              -0.000071768               0.001219249               0.999999984              -0.000073672               0.001244159               0.999999984              -0.000074940               0.001272488               0.999999984              -0.000074818               0.001303000               0.999999984              -0.000072681               0.001334712               0.999999984              -0.000067729               0.001366634               0.999999984              -0.000059363               0.001398163               0.999999984              -0.000047009               0.001428733               0.999999984              -0.000030077               0.001457987               0.999999984              -0.000007700               0.001485609               0.999999984               0.000021089               0.001511583               0.999999984               0.000057347               0.001535871               0.999999984              -0.000114316               0.001230121               0.999999984              -0.000071136               0.001237126               0.999999984              -0.000051927               0.001240172               0.999999984              -0.000044046               0.001248280               0.999999984              -0.000041645               0.001263035               0.999999984              -0.000041869               0.001283854               0.999999984              -0.000042919               0.001309549               0.999999984              -0.000043686               0.001338840               0.999999984              -0.000043571               0.001370700               0.999999984              -0.000042139               0.001404409               0.999999984              -0.000038893               0.001439208               0.999999984              -0.000033162               0.001474359               0.999999984              -0.000024459               0.001509242               0.999999984              -0.000012197               0.001543429               0.999999984               0.000004588               0.001576476               0.999999984               0.000026838               0.001607921               0.999999984               0.000056352               0.001637430               0.999999984              -0.000057444               0.001249723               0.999999984              -0.000035266               0.001267389               0.999999984              -0.000025026               0.001276446               0.999999984              -0.000020604               0.001287977               0.999999984              -0.000019031               0.001304536               0.999999984              -0.000018887               0.001326324               0.999999984              -0.000019287               0.001352876               0.999999984              -0.000019659               0.001383075               0.999999984              -0.000019592               0.001416066               0.999999984              -0.000018738               0.001451190               0.999999984              -0.000017044               0.001487800               0.999999984              -0.000014228               0.001525313               0.999999984              -0.000009698               0.001563152               0.999999984              -0.000003166               0.001600780               0.999999984               0.000005700               0.001637643               0.999999984               0.000017892               0.001673225               0.999999984               0.000034695               0.001706901               0.999999984               0.000000000               0.001256331               0.999999984              -0.000000000               0.001277677               0.999999984               0.000000000               0.001288832               0.999999984               0.000000000               0.001301583               0.999999984              -0.000000000               0.001318978               0.999999984              -0.000000000               0.001341270               0.999999984               0.000000000               0.001368080               0.999999984               0.000000000               0.001398644               0.999999984              -0.000000000               0.001432160               0.999999984              -0.000000000               0.001467771               0.999999984              -0.000000000               0.001504954               0.999999984               0.000000000               0.001543283               0.999999984               0.000000000               0.001582163               0.999999984              -0.000000000               0.001620950               0.999999984               0.000000000               0.001659160               0.999999984               0.000000000               0.001696321               0.999999984               0.000000000               0.001731571               0.999999984              -0.000610684               0.000000000               0.999999984              -0.000657553               0.000000000               0.999999984              -0.000678103               0.000000000               0.999999984              -0.000689613               0.000000000               0.999999984              -0.000698633               0.000000000               0.999999984              -0.000707637              -0.000000000               0.999999984              -0.000717499               0.000000000               0.999999984              -0.000728480               0.000000000               0.999999984              -0.000740581               0.000000000               0.999999984              -0.000753690               0.000000000               0.999999984              -0.000767669              -0.000000000               0.999999984              -0.000782337               0.000000000               0.999999984              -0.000797193              -0.000000000               0.999999984              -0.000811991               0.000000000               0.999999984              -0.000826342              -0.000000000               0.999999984              -0.000839759               0.000000000               0.999999984              -0.000851710              -0.000000000               0.999999984              -0.000607316              -0.000120886               0.999999984              -0.000650842              -0.000099322               0.999999984              -0.000669224              -0.000090295               0.999999984              -0.000679337              -0.000087705               0.999999984              -0.000687399              -0.000088519               0.999999984              -0.000695796              -0.000091158               0.999999984              -0.000705313              -0.000094505               0.999999984              -0.000715973              -0.000097956               0.999999984              -0.000727614              -0.000101381               0.999999984              -0.000740093              -0.000104427               0.999999984              -0.000753161              -0.000106870               0.999999984              -0.000766652              -0.000108568               0.999999984              -0.000780302              -0.000109082               0.999999984              -0.000793745              -0.000108068               0.999999984              -0.000806680              -0.000105029               0.999999984              -0.000818719              -0.000099306               0.999999984              -0.000829311              -0.000089856               0.999999984              -0.000597247              -0.000240638               0.999999984              -0.000630943              -0.000198039               0.999999984              -0.000643333              -0.000181014               0.999999984              -0.000649888              -0.000176716               0.999999984              -0.000655749              -0.000179006               0.999999984              -0.000662645              -0.000184721               0.999999984              -0.000670838              -0.000191671               0.999999984              -0.000680203              -0.000198918               0.999999984              -0.000690422              -0.000205833               0.999999984              -0.000701083              -0.000212020               0.999999984              -0.000711917              -0.000217036               0.999999984              -0.000722714              -0.000220585               0.999999984              -0.000733154              -0.000222014               0.999999984              -0.000742926              -0.000220782               0.999999984              -0.000751891              -0.000216254               0.999999984              -0.000759879              -0.000207463               0.999999984              -0.000766735              -0.000192999               0.999999984              -0.000580657              -0.000358107               0.999999984              -0.000598857              -0.000295654               0.999999984              -0.000602678              -0.000272517               0.999999984              -0.000604578              -0.000267932               0.999999984              -0.000607708              -0.000272678               0.999999984              -0.000612751              -0.000282082               0.999999984              -0.000619386              -0.000293240               0.999999984              -0.000627081              -0.000304510               0.999999984              -0.000635289              -0.000315177               0.999999984              -0.000643561              -0.000324486               0.999999984              -0.000651492              -0.000331965               0.999999984              -0.000658810              -0.000337331               0.999999984              -0.000665140              -0.000339887               0.999999984              -0.000670384              -0.000339184               0.999999984              -0.000674524              -0.000334757               0.999999984              -0.000677420              -0.000325806               0.999999984              -0.000679189              -0.000311454               0.999999984              -0.000557851              -0.000472193               0.999999984              -0.000556289              -0.000391904               0.999999984              -0.000550596              -0.000364952               0.999999984              -0.000547955              -0.000361764               0.999999984              -0.000548997              -0.000369958               0.999999984              -0.000552758              -0.000383631               0.999999984              -0.000558171              -0.000399126               0.999999984              -0.000564261              -0.000414516               0.999999984              -0.000570269              -0.000428734               0.999999984              -0.000575605              -0.000440932               0.999999984              -0.000579995              -0.000450870               0.999999984              -0.000583178              -0.000458058               0.999999984              -0.000585057              -0.000461916               0.999999984              -0.000585435              -0.000462280               0.999999984              -0.000584248              -0.000458868               0.999999984              -0.000581510              -0.000451249               0.999999984              -0.000577322              -0.000439056               0.999999984              -0.000529283              -0.000581772               0.999999984              -0.000505332              -0.000486767               0.999999984              -0.000490977              -0.000458351               0.999999984              -0.000485370              -0.000457893               0.999999984              -0.000485529              -0.000470217               0.999999984              -0.000488788              -0.000488268               0.999999984              -0.000493338              -0.000507894               0.999999984              -0.000497858              -0.000526920               0.999999984              -0.000501554              -0.000544135               0.999999984              -0.000503842              -0.000558735               0.999999984              -0.000504431              -0.000570594               0.999999984              -0.000503155              -0.000579460               0.999999984              -0.000499933              -0.000584853               0.999999984              -0.000494636              -0.000586637               0.999999984              -0.000487313              -0.000584612               0.999999984              -0.000478042              -0.000578861               0.999999984              -0.000467248              -0.000569907               0.999999984              -0.000495485              -0.000685710               0.999999984              -0.000448696              -0.000580152               0.999999984              -0.000427978              -0.000552362               0.999999984              -0.000421419              -0.000555448               0.999999984              -0.000421996              -0.000571908               0.999999984              -0.000425568              -0.000593902               0.999999984              -0.000429624              -0.000617060               0.999999984              -0.000432677              -0.000639054               0.999999984              -0.000433863              -0.000658644               0.999999984              -0.000432676              -0.000675033               0.999999984              -0.000428846              -0.000688384               0.999999984              -0.000422273              -0.000698606               0.999999984              -0.000413028              -0.000705462               0.999999984              -0.000401180              -0.000708669               0.999999984              -0.000386868              -0.000708264               0.999999984              -0.000370651              -0.000705027               0.999999984              -0.000353253              -0.000699811               0.999999984              -0.000457138              -0.000782904               0.999999984              -0.000389234              -0.000671871               0.999999984              -0.000365175              -0.000646169               0.999999984              -0.000359886              -0.000652775               0.999999984              -0.000361971              -0.000672993               0.999999984              -0.000366214              -0.000698448               0.999999984              -0.000369910              -0.000724431               0.999999984              -0.000371335              -0.000748596               0.999999984              -0.000369445              -0.000769835               0.999999984              -0.000363888              -0.000787577               0.999999984              -0.000354715              -0.000802042               0.999999984              -0.000342056              -0.000813375               0.999999984              -0.000326063              -0.000821328               0.999999984              -0.000307014              -0.000825674               0.999999984              -0.000285609              -0.000827113               0.999999984              -0.000262750              -0.000826826               0.999999984              -0.000239123              -0.000825631               0.999999984              -0.000415645              -0.000871617               0.999999984              -0.000329001              -0.000761856               0.999999984              -0.000305808              -0.000738388               0.999999984              -0.000303311              -0.000747999               0.999999984              -0.000307537              -0.000771474               0.999999984              -0.000312733              -0.000799650               0.999999984              -0.000315700              -0.000827863               0.999999984              -0.000314531              -0.000853673               0.999999984              -0.000308512              -0.000876132               0.999999984              -0.000297664              -0.000894941               0.999999984              -0.000282322              -0.000910360               0.999999984              -0.000262696              -0.000922417               0.999999984              -0.000239173              -0.000930989               0.999999984              -0.000212626              -0.000936624               0.999999984              -0.000184367              -0.000940500               0.999999984              -0.000155419              -0.000943584               0.999999984              -0.000126197              -0.000946252               0.999999984              -0.000373028              -0.000955263               0.999999984              -0.000279175              -0.000860653               0.999999984              -0.000252864              -0.000832433               0.999999984              -0.000249179              -0.000836016               0.999999984              -0.000252964              -0.000854568               0.999999984              -0.000258516              -0.000879761               0.999999984              -0.000262460              -0.000906810               0.999999984              -0.000262857              -0.000932990               0.999999984              -0.000258765              -0.000957086               0.999999984              -0.000250114              -0.000978459               0.999999984              -0.000236996              -0.000997027               0.999999984              -0.000219683              -0.001012770               0.999999984              -0.000198154              -0.001025909               0.999999984              -0.000172583              -0.001036441               0.999999984              -0.000144343              -0.001045019               0.999999984              -0.000114484              -0.001052370               0.999999984              -0.000084254              -0.001059248               0.999999984              -0.000326280              -0.001031292               0.999999984              -0.000232227              -0.000955794               0.999999984              -0.000202974              -0.000928343               0.999999984              -0.000197213              -0.000928054               0.999999984              -0.000199922              -0.000942636               0.999999984              -0.000205028              -0.000965086               0.999999984              -0.000209256              -0.000991089               0.999999984              -0.000210676              -0.001017742               0.999999984              -0.000208102              -0.001043424               0.999999984              -0.000201507              -0.001067315               0.999999984              -0.000190580              -0.001088937               0.999999984              -0.000175386              -0.001108205               0.999999984              -0.000155840              -0.001125190               0.999999984              -0.000131732              -0.001139994               0.999999984              -0.000103598              -0.001152910               0.999999984              -0.000072563              -0.001164437               0.999999984              -0.000040095              -0.001175376               0.999999984              -0.000276565              -0.001097787               0.999999984              -0.000188161              -0.001044463               0.999999984              -0.000157494              -0.001021902               0.999999984              -0.000149553              -0.001020547               0.999999984              -0.000150641              -0.001032750               0.999999984              -0.000154631              -0.001053211               0.999999984              -0.000158424              -0.001078261               0.999999984              -0.000160236              -0.001105489               0.999999984              -0.000158951              -0.001132862               0.999999984              -0.000154139              -0.001159360               0.999999984              -0.000145301              -0.001184272               0.999999984              -0.000132181              -0.001207396               0.999999984              -0.000114590              -0.001228495               0.999999984              -0.000092176              -0.001247633               0.999999984              -0.000064813              -0.001264845               0.999999984              -0.000032961              -0.001280494               0.999999984               0.000002397              -0.001295229               0.999999984              -0.000224345              -0.001153661               0.999999984              -0.000146938              -0.001123106               0.999999984              -0.000117236              -0.001108371               0.999999984              -0.000107734              -0.001108723               0.999999984              -0.000107057              -0.001120362               0.999999984              -0.000109650              -0.001139917               0.999999984              -0.000112494              -0.001164527               0.999999984              -0.000114212              -0.001192219               0.999999984              -0.000113781              -0.001221320               0.999999984              -0.000110446              -0.001250562               0.999999984              -0.000103610              -0.001279040               0.999999984              -0.000092768              -0.001306341               0.999999984              -0.000077465              -0.001332044               0.999999984              -0.000057217              -0.001356026               0.999999984              -0.000031594              -0.001378143               0.999999984              -0.000000094              -0.001398632               0.999999984               0.000037358              -0.001417792               0.999999984              -0.000170099              -0.001197986               0.999999984              -0.000108149              -0.001188313               0.999999984              -0.000082269              -0.001182733               0.999999984              -0.000072618              -0.001186686               0.999999984              -0.000070562              -0.001199473               0.999999984              -0.000071768              -0.001219249               0.999999984              -0.000073672              -0.001244159               0.999999984              -0.000074940              -0.001272488               0.999999984              -0.000074818              -0.001303000               0.999999984              -0.000072681              -0.001334712               0.999999984              -0.000067729              -0.001366634               0.999999984              -0.000059363              -0.001398163               0.999999984              -0.000047009              -0.001428733               0.999999984              -0.000030077              -0.001457987               0.999999984              -0.000007700              -0.001485609               0.999999984               0.000021089              -0.001511583               0.999999984               0.000057347              -0.001535871               0.999999984              -0.000114316              -0.001230121               0.999999984              -0.000071136              -0.001237126               0.999999984              -0.000051927              -0.001240172               0.999999984              -0.000044046              -0.001248280               0.999999984              -0.000041645              -0.001263035               0.999999984              -0.000041869              -0.001283854               0.999999984              -0.000042919              -0.001309549               0.999999984              -0.000043686              -0.001338840               0.999999984              -0.000043571              -0.001370700               0.999999984              -0.000042139              -0.001404409               0.999999984              -0.000038893              -0.001439208               0.999999984              -0.000033162              -0.001474359               0.999999984              -0.000024459              -0.001509242               0.999999984              -0.000012197              -0.001543429               0.999999984               0.000004588              -0.001576476               0.999999984               0.000026838              -0.001607921               0.999999984               0.000056352              -0.001637430               0.999999984              -0.000057444              -0.001249723               0.999999984              -0.000035266              -0.001267389               0.999999984              -0.000025026              -0.001276446               0.999999984              -0.000020604              -0.001287977               0.999999984              -0.000019031              -0.001304536               0.999999984              -0.000018887              -0.001326324               0.999999984              -0.000019287              -0.001352876               0.999999984              -0.000019659              -0.001383075               0.999999984              -0.000019592              -0.001416066               0.999999984              -0.000018738              -0.001451190               0.999999984              -0.000017044              -0.001487800               0.999999984              -0.000014228              -0.001525313               0.999999984              -0.000009698              -0.001563152               0.999999984              -0.000003166              -0.001600780               0.999999984               0.000005700              -0.001637643               0.999999984               0.000017892              -0.001673225               0.999999984               0.000034695              -0.001706901               0.999999984              -0.000000000              -0.001256331               0.999999984               0.000000000              -0.001277677               0.999999984              -0.000000000              -0.001288832               0.999999984               0.000000000              -0.001301583               0.999999984              -0.000000000              -0.001318978               0.999999984              -0.000000000              -0.001341270               0.999999984               0.000000000              -0.001368080               0.999999984              -0.000000000              -0.001398644               0.999999984               0.000000000              -0.001432160               0.999999984               0.000000000              -0.001467771               0.999999984               0.000000000              -0.001504954               0.999999984               0.000000000              -0.001543283               0.999999984               0.000000000              -0.001582163               0.999999984               0.000000000              -0.001620950               0.999999984               0.000000000              -0.001659160               0.999999984              -0.000000000              -0.001696321               0.999999984              -0.000000000              -0.001731571               0.999999984               0.000610684              -0.000000000               0.999999984               0.000657553               0.000000000               0.999999984               0.000678103               0.000000000               0.999999984               0.000689613              -0.000000000               0.999999984               0.000698633              -0.000000000               0.999999984               0.000707637              -0.000000000               0.999999984               0.000717499              -0.000000000               0.999999984               0.000728480              -0.000000000               0.999999984               0.000740581              -0.000000000               0.999999984               0.000753690               0.000000000               0.999999984               0.000767669              -0.000000000               0.999999984               0.000782337              -0.000000000               0.999999984               0.000797193              -0.000000000               0.999999984               0.000811991              -0.000000000               0.999999984               0.000826342               0.000000000               0.999999984               0.000839759              -0.000000000               0.999999984               0.000851710               0.000000000               0.999999984               0.000607316              -0.000120886               0.999999984               0.000650842              -0.000099322               0.999999984               0.000669224              -0.000090295               0.999999984               0.000679337              -0.000087705               0.999999984               0.000687399              -0.000088519               0.999999984               0.000695796              -0.000091158               0.999999984               0.000705313              -0.000094505               0.999999984               0.000715973              -0.000097956               0.999999984               0.000727614              -0.000101381               0.999999984               0.000740093              -0.000104427               0.999999984               0.000753161              -0.000106870               0.999999984               0.000766652              -0.000108568               0.999999984               0.000780302              -0.000109082               0.999999984               0.000793745              -0.000108068               0.999999984               0.000806680              -0.000105029               0.999999984               0.000818719              -0.000099306               0.999999984               0.000829311              -0.000089856               0.999999984               0.000597247              -0.000240638               0.999999984               0.000630943              -0.000198039               0.999999984               0.000643333              -0.000181014               0.999999984               0.000649888              -0.000176716               0.999999984               0.000655749              -0.000179006               0.999999984               0.000662645              -0.000184721               0.999999984               0.000670838              -0.000191671               0.999999984               0.000680203              -0.000198918               0.999999984               0.000690422              -0.000205833               0.999999984               0.000701083              -0.000212020               0.999999984               0.000711917              -0.000217036               0.999999984               0.000722714              -0.000220585               0.999999984               0.000733154              -0.000222014               0.999999984               0.000742926              -0.000220782               0.999999984               0.000751891              -0.000216254               0.999999984               0.000759879              -0.000207463               0.999999984               0.000766735              -0.000192999               0.999999984               0.000580657              -0.000358107               0.999999984               0.000598857              -0.000295654               0.999999984               0.000602678              -0.000272517               0.999999984               0.000604578              -0.000267932               0.999999984               0.000607708              -0.000272678               0.999999984               0.000612751              -0.000282082               0.999999984               0.000619386              -0.000293240               0.999999984               0.000627081              -0.000304510               0.999999984               0.000635289              -0.000315177               0.999999984               0.000643561              -0.000324486               0.999999984               0.000651492              -0.000331965               0.999999984               0.000658810              -0.000337331               0.999999984               0.000665140              -0.000339887               0.999999984               0.000670384              -0.000339184               0.999999984               0.000674524              -0.000334757               0.999999984               0.000677420              -0.000325806               0.999999984               0.000679189              -0.000311454               0.999999984               0.000557851              -0.000472193               0.999999984               0.000556289              -0.000391904               0.999999984               0.000550596              -0.000364952               0.999999984               0.000547955              -0.000361764               0.999999984               0.000548997              -0.000369958               0.999999984               0.000552758              -0.000383631               0.999999984               0.000558171              -0.000399126               0.999999984               0.000564261              -0.000414516               0.999999984               0.000570269              -0.000428734               0.999999984               0.000575605              -0.000440932               0.999999984               0.000579995              -0.000450870               0.999999984               0.000583178              -0.000458058               0.999999984               0.000585057              -0.000461916               0.999999984               0.000585435              -0.000462280               0.999999984               0.000584248              -0.000458868               0.999999984               0.000581510              -0.000451249               0.999999984               0.000577322              -0.000439056               0.999999984               0.000529283              -0.000581772               0.999999984               0.000505332              -0.000486767               0.999999984               0.000490977              -0.000458351               0.999999984               0.000485370              -0.000457893               0.999999984               0.000485529              -0.000470217               0.999999984               0.000488788              -0.000488268               0.999999984               0.000493338              -0.000507894               0.999999984               0.000497858              -0.000526920               0.999999984               0.000501554              -0.000544135               0.999999984               0.000503842              -0.000558735               0.999999984               0.000504431              -0.000570594               0.999999984               0.000503155              -0.000579460               0.999999984               0.000499933              -0.000584853               0.999999984               0.000494636              -0.000586637               0.999999984               0.000487313              -0.000584612               0.999999984               0.000478042              -0.000578861               0.999999984               0.000467248              -0.000569907               0.999999984               0.000495485              -0.000685710               0.999999984               0.000448696              -0.000580152               0.999999984               0.000427978              -0.000552362               0.999999984               0.000421419              -0.000555448               0.999999984               0.000421996              -0.000571908               0.999999984               0.000425568              -0.000593902               0.999999984               0.000429624              -0.000617060               0.999999984               0.000432677              -0.000639054               0.999999984               0.000433863              -0.000658644               0.999999984               0.000432676              -0.000675033               0.999999984               0.000428846              -0.000688384               0.999999984               0.000422273              -0.000698606               0.999999984               0.000413028              -0.000705462               0.999999984               0.000401180              -0.000708669               0.999999984               0.000386868              -0.000708264               0.999999984               0.000370651              -0.000705027               0.999999984               0.000353253              -0.000699811               0.999999984               0.000457138              -0.000782904               0.999999984               0.000389234              -0.000671871               0.999999984               0.000365175              -0.000646169               0.999999984               0.000359886              -0.000652775               0.999999984               0.000361971              -0.000672993               0.999999984               0.000366214              -0.000698448               0.999999984               0.000369910              -0.000724431               0.999999984               0.000371335              -0.000748596               0.999999984               0.000369445              -0.000769835               0.999999984               0.000363888              -0.000787577               0.999999984               0.000354715              -0.000802042               0.999999984               0.000342056              -0.000813375               0.999999984               0.000326063              -0.000821328               0.999999984               0.000307014              -0.000825674               0.999999984               0.000285609              -0.000827113               0.999999984               0.000262750              -0.000826826               0.999999984               0.000239123              -0.000825631               0.999999984               0.000415645              -0.000871617               0.999999984               0.000329001              -0.000761856               0.999999984               0.000305808              -0.000738388               0.999999984               0.000303311              -0.000747999               0.999999984               0.000307537              -0.000771474               0.999999984               0.000312733              -0.000799650               0.999999984               0.000315700              -0.000827863               0.999999984               0.000314531              -0.000853673               0.999999984               0.000308512              -0.000876132               0.999999984               0.000297664              -0.000894941               0.999999984               0.000282322              -0.000910360               0.999999984               0.000262696              -0.000922417               0.999999984               0.000239173              -0.000930989               0.999999984               0.000212626              -0.000936624               0.999999984               0.000184367              -0.000940500               0.999999984               0.000155419              -0.000943584               0.999999984               0.000126197              -0.000946252               0.999999984               0.000373028              -0.000955263               0.999999984               0.000279175              -0.000860653               0.999999984               0.000252864              -0.000832433               0.999999984               0.000249179              -0.000836016               0.999999984               0.000252964              -0.000854568               0.999999984               0.000258516              -0.000879761               0.999999984               0.000262460              -0.000906810               0.999999984               0.000262857              -0.000932990               0.999999984               0.000258765              -0.000957086               0.999999984               0.000250114              -0.000978459               0.999999984               0.000236996              -0.000997027               0.999999984               0.000219683              -0.001012770               0.999999984               0.000198154              -0.001025909               0.999999984               0.000172583              -0.001036441               0.999999984               0.000144343              -0.001045019               0.999999984               0.000114484              -0.001052370               0.999999984               0.000084254              -0.001059248               0.999999984               0.000326280              -0.001031292               0.999999984               0.000232227              -0.000955794               0.999999984               0.000202974              -0.000928343               0.999999984               0.000197213              -0.000928054               0.999999984               0.000199922              -0.000942636               0.999999984               0.000205028              -0.000965086               0.999999984               0.000209256              -0.000991089               0.999999984               0.000210676              -0.001017742               0.999999984               0.000208102              -0.001043424               0.999999984               0.000201507              -0.001067315               0.999999984               0.000190580              -0.001088937               0.999999984               0.000175386              -0.001108205               0.999999984               0.000155840              -0.001125190               0.999999984               0.000131732              -0.001139994               0.999999984               0.000103598              -0.001152910               0.999999984               0.000072563              -0.001164437               0.999999984               0.000040095              -0.001175376               0.999999984               0.000276565              -0.001097787               0.999999984               0.000188161              -0.001044463               0.999999984               0.000157494              -0.001021902               0.999999984               0.000149553              -0.001020547               0.999999984               0.000150641              -0.001032750               0.999999984               0.000154631              -0.001053211               0.999999984               0.000158424              -0.001078261               0.999999984               0.000160236              -0.001105489               0.999999984               0.000158951              -0.001132862               0.999999984               0.000154139              -0.001159360               0.999999984               0.000145301              -0.001184272               0.999999984               0.000132181              -0.001207396               0.999999984               0.000114590              -0.001228495               0.999999984               0.000092176              -0.001247633               0.999999984               0.000064813              -0.001264845               0.999999984               0.000032961              -0.001280494               0.999999984              -0.000002397              -0.001295229               0.999999984               0.000224345              -0.001153661               0.999999984               0.000146938              -0.001123106               0.999999984               0.000117236              -0.001108371               0.999999984               0.000107734              -0.001108723               0.999999984               0.000107057              -0.001120362               0.999999984               0.000109650              -0.001139917               0.999999984               0.000112494              -0.001164527               0.999999984               0.000114212              -0.001192219               0.999999984               0.000113781              -0.001221320               0.999999984               0.000110446              -0.001250562               0.999999984               0.000103610              -0.001279040               0.999999984               0.000092768              -0.001306341               0.999999984               0.000077465              -0.001332044               0.999999984               0.000057217              -0.001356026               0.999999984               0.000031594              -0.001378143               0.999999984               0.000000094              -0.001398632               0.999999984              -0.000037358              -0.001417792               0.999999984               0.000170099              -0.001197986               0.999999984               0.000108149              -0.001188313               0.999999984               0.000082269              -0.001182733               0.999999984               0.000072618              -0.001186686               0.999999984               0.000070562              -0.001199473               0.999999984               0.000071768              -0.001219249               0.999999984               0.000073672              -0.001244159               0.999999984               0.000074940              -0.001272488               0.999999984               0.000074818              -0.001303000               0.999999984               0.000072681              -0.001334712               0.999999984               0.000067729              -0.001366634               0.999999984               0.000059363              -0.001398163               0.999999984               0.000047009              -0.001428733               0.999999984               0.000030077              -0.001457987               0.999999984               0.000007700              -0.001485609               0.999999984              -0.000021089              -0.001511583               0.999999984              -0.000057347              -0.001535871               0.999999984               0.000114316              -0.001230121               0.999999984               0.000071136              -0.001237126               0.999999984               0.000051927              -0.001240172               0.999999984               0.000044046              -0.001248280               0.999999984               0.000041645              -0.001263035               0.999999984               0.000041869              -0.001283854               0.999999984               0.000042919              -0.001309549               0.999999984               0.000043686              -0.001338840               0.999999984               0.000043571              -0.001370700               0.999999984               0.000042139              -0.001404409               0.999999984               0.000038893              -0.001439208               0.999999984               0.000033162              -0.001474359               0.999999984               0.000024459              -0.001509242               0.999999984               0.000012197              -0.001543429               0.999999984              -0.000004588              -0.001576476               0.999999984              -0.000026838              -0.001607921               0.999999984              -0.000056352              -0.001637430               0.999999984               0.000057444              -0.001249723               0.999999984               0.000035266              -0.001267389               0.999999984               0.000025026              -0.001276446               0.999999984               0.000020604              -0.001287977               0.999999984               0.000019031              -0.001304536               0.999999984               0.000018887              -0.001326324               0.999999984               0.000019287              -0.001352876               0.999999984               0.000019659              -0.001383075               0.999999984               0.000019592              -0.001416066               0.999999984               0.000018738              -0.001451190               0.999999984               0.000017044              -0.001487800               0.999999984               0.000014228              -0.001525313               0.999999984               0.000009698              -0.001563152               0.999999984               0.000003166              -0.001600780               0.999999984              -0.000005700              -0.001637643               0.999999984              -0.000017892              -0.001673225               0.999999984              -0.000034695              -0.001706901               0.999999984              -0.000000000              -0.001256331               0.999999984               0.000000000              -0.001277677               0.999999984              -0.000000000              -0.001288832               0.999999984               0.000000000              -0.001301583               0.999999984              -0.000000000              -0.001318978               0.999999984              -0.000000000              -0.001341270               0.999999984               0.000000000              -0.001368080               0.999999984              -0.000000000              -0.001398644               0.999999984               0.000000000              -0.001432160               0.999999984               0.000000000              -0.001467771               0.999999984               0.000000000              -0.001504954               0.999999984               0.000000000              -0.001543283               0.999999984               0.000000000              -0.001582163               0.999999984               0.000000000              -0.001620950               0.999999984               0.000000000              -0.001659160               0.999999984              -0.000000000              -0.001696321               0.999999984              -0.000000000              -0.001731571               0.999999984               0.000610684              -0.000000000               0.999999984               0.000657553               0.000000000               0.999999984               0.000678103               0.000000000               0.999999984               0.000689613              -0.000000000               0.999999984               0.000698633              -0.000000000               0.999999984               0.000707637              -0.000000000               0.999999984               0.000717499              -0.000000000               0.999999984               0.000728480              -0.000000000               0.999999984               0.000740581              -0.000000000               0.999999984               0.000753690               0.000000000               0.999999984               0.000767669              -0.000000000               0.999999984               0.000782337              -0.000000000               0.999999984               0.000797193              -0.000000000               0.999999984               0.000811991              -0.000000000               0.999999984               0.000826342               0.000000000               0.999999984               0.000839759              -0.000000000               0.999999984               0.000851710               0.000000000               0.999999984               0.000607316               0.000120886               0.999999984               0.000650842               0.000099322               0.999999984               0.000669224               0.000090295               0.999999984               0.000679337               0.000087705               0.999999984               0.000687399               0.000088519               0.999999984               0.000695796               0.000091158               0.999999984               0.000705313               0.000094505               0.999999984               0.000715973               0.000097956               0.999999984               0.000727614               0.000101381               0.999999984               0.000740093               0.000104427               0.999999984               0.000753161               0.000106870               0.999999984               0.000766652               0.000108568               0.999999984               0.000780302               0.000109082               0.999999984               0.000793745               0.000108068               0.999999984               0.000806680               0.000105029               0.999999984               0.000818719               0.000099306               0.999999984               0.000829311               0.000089856               0.999999984               0.000597247               0.000240638               0.999999984               0.000630943               0.000198039               0.999999984               0.000643333               0.000181014               0.999999984               0.000649888               0.000176716               0.999999984               0.000655749               0.000179006               0.999999984               0.000662645               0.000184721               0.999999984               0.000670838               0.000191671               0.999999984               0.000680203               0.000198918               0.999999984               0.000690422               0.000205833               0.999999984               0.000701083               0.000212020               0.999999984               0.000711917               0.000217036               0.999999984               0.000722714               0.000220585               0.999999984               0.000733154               0.000222014               0.999999984               0.000742926               0.000220782               0.999999984               0.000751891               0.000216254               0.999999984               0.000759879               0.000207463               0.999999984               0.000766735               0.000192999               0.999999984               0.000580657               0.000358107               0.999999984               0.000598857               0.000295654               0.999999984               0.000602678               0.000272517               0.999999984               0.000604578               0.000267932               0.999999984               0.000607708               0.000272678               0.999999984               0.000612751               0.000282082               0.999999984               0.000619386               0.000293240               0.999999984               0.000627081               0.000304510               0.999999984               0.000635289               0.000315177               0.999999984               0.000643561               0.000324486               0.999999984               0.000651492               0.000331965               0.999999984               0.000658810               0.000337331               0.999999984               0.000665140               0.000339887               0.999999984               0.000670384               0.000339184               0.999999984               0.000674524               0.000334757               0.999999984               0.000677420               0.000325806               0.999999984               0.000679189               0.000311454               0.999999984               0.000557851               0.000472193               0.999999984               0.000556289               0.000391904               0.999999984               0.000550596               0.000364952               0.999999984               0.000547955               0.000361764               0.999999984               0.000548997               0.000369958               0.999999984               0.000552758               0.000383631               0.999999984               0.000558171               0.000399126               0.999999984               0.000564261               0.000414516               0.999999984               0.000570269               0.000428734               0.999999984               0.000575605               0.000440932               0.999999984               0.000579995               0.000450870               0.999999984               0.000583178               0.000458058               0.999999984               0.000585057               0.000461916               0.999999984               0.000585435               0.000462280               0.999999984               0.000584248               0.000458868               0.999999984               0.000581510               0.000451249               0.999999984               0.000577322               0.000439056               0.999999984               0.000529283               0.000581772               0.999999984               0.000505332               0.000486767               0.999999984               0.000490977               0.000458351               0.999999984               0.000485370               0.000457893               0.999999984               0.000485529               0.000470217               0.999999984               0.000488788               0.000488268               0.999999984               0.000493338               0.000507894               0.999999984               0.000497858               0.000526920               0.999999984               0.000501554               0.000544135               0.999999984               0.000503842               0.000558735               0.999999984               0.000504431               0.000570594               0.999999984               0.000503155               0.000579460               0.999999984               0.000499933               0.000584853               0.999999984               0.000494636               0.000586637               0.999999984               0.000487313               0.000584612               0.999999984               0.000478042               0.000578861               0.999999984               0.000467248               0.000569907               0.999999984               0.000495485               0.000685710               0.999999984               0.000448696               0.000580152               0.999999984               0.000427978               0.000552362               0.999999984               0.000421419               0.000555448               0.999999984               0.000421996               0.000571908               0.999999984               0.000425568               0.000593902               0.999999984               0.000429624               0.000617060               0.999999984               0.000432677               0.000639054               0.999999984               0.000433863               0.000658644               0.999999984               0.000432676               0.000675033               0.999999984               0.000428846               0.000688384               0.999999984               0.000422273               0.000698606               0.999999984               0.000413028               0.000705462               0.999999984               0.000401180               0.000708669               0.999999984               0.000386868               0.000708264               0.999999984               0.000370651               0.000705027               0.999999984               0.000353253               0.000699811               0.999999984               0.000457138               0.000782904               0.999999984               0.000389234               0.000671871               0.999999984               0.000365175               0.000646169               0.999999984               0.000359886               0.000652775               0.999999984               0.000361971               0.000672993               0.999999984               0.000366214               0.000698448               0.999999984               0.000369910               0.000724431               0.999999984               0.000371335               0.000748596               0.999999984               0.000369445               0.000769835               0.999999984               0.000363888               0.000787577               0.999999984               0.000354715               0.000802042               0.999999984               0.000342056               0.000813375               0.999999984               0.000326063               0.000821328               0.999999984               0.000307014               0.000825674               0.999999984               0.000285609               0.000827113               0.999999984               0.000262750               0.000826826               0.999999984               0.000239123               0.000825631               0.999999984               0.000415645               0.000871617               0.999999984               0.000329001               0.000761856               0.999999984               0.000305808               0.000738388               0.999999984               0.000303311               0.000747999               0.999999984               0.000307537               0.000771474               0.999999984               0.000312733               0.000799650               0.999999984               0.000315700               0.000827863               0.999999984               0.000314531               0.000853673               0.999999984               0.000308512               0.000876132               0.999999984               0.000297664               0.000894941               0.999999984               0.000282322               0.000910360               0.999999984               0.000262696               0.000922417               0.999999984               0.000239173               0.000930989               0.999999984               0.000212626               0.000936624               0.999999984               0.000184367               0.000940500               0.999999984               0.000155419               0.000943584               0.999999984               0.000126197               0.000946252               0.999999984               0.000373028               0.000955263               0.999999984               0.000279175               0.000860653               0.999999984               0.000252864               0.000832433               0.999999984               0.000249179               0.000836016               0.999999984               0.000252964               0.000854568               0.999999984               0.000258516               0.000879761               0.999999984               0.000262460               0.000906810               0.999999984               0.000262857               0.000932990               0.999999984               0.000258765               0.000957086               0.999999984               0.000250114               0.000978459               0.999999984               0.000236996               0.000997027               0.999999984               0.000219683               0.001012770               0.999999984               0.000198154               0.001025909               0.999999984               0.000172583               0.001036441               0.999999984               0.000144343               0.001045019               0.999999984               0.000114484               0.001052370               0.999999984               0.000084254               0.001059248               0.999999984               0.000326280               0.001031292               0.999999984               0.000232227               0.000955794               0.999999984               0.000202974               0.000928343               0.999999984               0.000197213               0.000928054               0.999999984               0.000199922               0.000942636               0.999999984               0.000205028               0.000965086               0.999999984               0.000209256               0.000991089               0.999999984               0.000210676               0.001017742               0.999999984               0.000208102               0.001043424               0.999999984               0.000201507               0.001067315               0.999999984               0.000190580               0.001088937               0.999999984               0.000175386               0.001108205               0.999999984               0.000155840               0.001125190               0.999999984               0.000131732               0.001139994               0.999999984               0.000103598               0.001152910               0.999999984               0.000072563               0.001164437               0.999999984               0.000040095               0.001175376               0.999999984               0.000276565               0.001097787               0.999999984               0.000188161               0.001044463               0.999999984               0.000157494               0.001021902               0.999999984               0.000149553               0.001020547               0.999999984               0.000150641               0.001032750               0.999999984               0.000154631               0.001053211               0.999999984               0.000158424               0.001078261               0.999999984               0.000160236               0.001105489               0.999999984               0.000158951               0.001132862               0.999999984               0.000154139               0.001159360               0.999999984               0.000145301               0.001184272               0.999999984               0.000132181               0.001207396               0.999999984               0.000114590               0.001228495               0.999999984               0.000092176               0.001247633               0.999999984               0.000064813               0.001264845               0.999999984               0.000032961               0.001280494               0.999999984              -0.000002397               0.001295229               0.999999984               0.000224345               0.001153661               0.999999984               0.000146938               0.001123106               0.999999984               0.000117236               0.001108371               0.999999984               0.000107734               0.001108723               0.999999984               0.000107057               0.001120362               0.999999984               0.000109650               0.001139917               0.999999984               0.000112494               0.001164527               0.999999984               0.000114212               0.001192219               0.999999984               0.000113781               0.001221320               0.999999984               0.000110446               0.001250562               0.999999984               0.000103610               0.001279040               0.999999984               0.000092768               0.001306341               0.999999984               0.000077465               0.001332044               0.999999984               0.000057217               0.001356026               0.999999984               0.000031594               0.001378143               0.999999984               0.000000094               0.001398632               0.999999984              -0.000037358               0.001417792               0.999999984               0.000170099               0.001197986               0.999999984               0.000108149               0.001188313               0.999999984               0.000082269               0.001182733               0.999999984               0.000072618               0.001186686               0.999999984               0.000070562               0.001199473               0.999999984               0.000071768               0.001219249               0.999999984               0.000073672               0.001244159               0.999999984               0.000074940               0.001272488               0.999999984               0.000074818               0.001303000               0.999999984               0.000072681               0.001334712               0.999999984               0.000067729               0.001366634               0.999999984               0.000059363               0.001398163               0.999999984               0.000047009               0.001428733               0.999999984               0.000030077               0.001457987               0.999999984               0.000007700               0.001485609               0.999999984              -0.000021089               0.001511583               0.999999984              -0.000057347               0.001535871               0.999999984               0.000114316               0.001230121               0.999999984               0.000071136               0.001237126               0.999999984               0.000051927               0.001240172               0.999999984               0.000044046               0.001248280               0.999999984               0.000041645               0.001263035               0.999999984               0.000041869               0.001283854               0.999999984               0.000042919               0.001309549               0.999999984               0.000043686               0.001338840               0.999999984               0.000043571               0.001370700               0.999999984               0.000042139               0.001404409               0.999999984               0.000038893               0.001439208               0.999999984               0.000033162               0.001474359               0.999999984               0.000024459               0.001509242               0.999999984               0.000012197               0.001543429               0.999999984              -0.000004588               0.001576476               0.999999984              -0.000026838               0.001607921               0.999999984              -0.000056352               0.001637430               0.999999984               0.000057444               0.001249723               0.999999984               0.000035266               0.001267389               0.999999984               0.000025026               0.001276446               0.999999984               0.000020604               0.001287977               0.999999984               0.000019031               0.001304536               0.999999984               0.000018887               0.001326324               0.999999984               0.000019287               0.001352876               0.999999984               0.000019659               0.001383075               0.999999984               0.000019592               0.001416066               0.999999984               0.000018738               0.001451190               0.999999984               0.000017044               0.001487800               0.999999984               0.000014228               0.001525313               0.999999984               0.000009698               0.001563152               0.999999984               0.000003166               0.001600780               0.999999984              -0.000005700               0.001637643               0.999999984              -0.000017892               0.001673225               0.999999984              -0.000034695               0.001706901               0.999999984               0.000000000               0.001256331               0.999999984              -0.000000000               0.001277677               0.999999984               0.000000000               0.001288832               0.999999984               0.000000000               0.001301583               0.999999984              -0.000000000               0.001318978               0.999999984              -0.000000000               0.001341270               0.999999984               0.000000000               0.001368080               0.999999984               0.000000000               0.001398644               0.999999984              -0.000000000               0.001432160               0.999999984              -0.000000000               0.001467771               0.999999984              -0.000000000               0.001504954               0.999999984               0.000000000               0.001543283               0.999999984               0.000000000               0.001582163               0.999999984              -0.000000000               0.001620950               0.999999984               0.000000000               0.001659160               0.999999984               0.000000000               0.001696321               0.999999984               0.000000000               0.001731571               0.999999984 </DataArray>
<DataArray type="Float64"                                    Name="defo"                                                      NumberOfComponents=" 3" format="ascii">
             -0.000610684               0.000000000               0.999999984              -0.000657553               0.000000000               0.999999984              -0.000678103               0.000000000               0.999999984              -0.000689613               0.000000000               0.999999984              -0.000698633               0.000000000               0.999999984              -0.000707637              -0.000000000               0.999999984              -0.000717499               0.000000000               0.999999984              -0.000728480               0.000000000               0.999999984              -0.000740581               0.000000000               0.999999984              -0.000753690               0.000000000               0.999999984              -0.000767669              -0.000000000               0.999999984              -0.000782337               0.000000000               0.999999984              -0.000797193              -0.000000000               0.999999984              -0.000811991               0.000000000               0.999999984              -0.000826342              -0.000000000               0.999999984              -0.000839759               0.000000000               0.999999984              -0.000851710              -0.000000000               0.999999984              -0.000607316               0.000120886               0.999999984              -0.000650842               0.000099322               0.999999984              -0.000669224               0.000090295               0.999999984              -0.000679337               0.000087705               0.999999984              -0.000687399               0.000088519               0.999999984              -0.000695796               0.000091158               0.999999984              -0.000705313               0.000094505               0.999999984              -0.000715973               0.000097956               0.999999984              -0.000727614               0.000101381               0.999999984              -0.000740093               0.000104427               0.999999984              -0.000753161               0.000106870               0.999999984              -0.000766652               0.000108568               0.999999984              -0.000780302               0.000109082               0.999999984              -0.000793745               0.000108068               0.999999984              -0.000806680               0.000105029               0.999999984              -0.000818719               0.000099306               0.999999984              -0.000829311               0.000089856               0.999999984              -0.000597247               0.000240638               0.999999984              -0.000630943               0.000198039               0.999999984              -0.000643333               0.000181014               0.999999984              -0.000649888               0.000176716               0.999999984              -0.000655749               0.000179006               0.999999984              -0.000662645               0.000184721               0.999999984              -0.000670838               0.000191671               0.999999984              -0.000680203               0.000198918               0.999999984              -0.000690422               0.000205833               0.999999984              -0.000701083               0.000212020               0.999999984              -0.000711917               0.000217036               0.999999984              -0.000722714               0.000220585               0.999999984              -0.000733154               0.000222014               0.999999984              -0.000742926               0.000220782               0.999999984              -0.000751891               0.000216254               0.999999984              -0.000759879               0.000207463               0.999999984              -0.000766735               0.000192999               0.999999984              -0.000580657               0.000358107               0.999999984              -0.000598857               0.000295654               0.999999984              -0.000602678               0.000272517               0.999999984              -0.000604578               0.000267932               0.999999984              -0.000607708               0.000272678               0.999999984              -0.000612751               0.000282082               0.999999984              -0.000619386               0.000293240               0.999999984              -0.000627081               0.000304510               0.999999984              -0.000635289               0.000315177               0.999999984              -0.000643561               0.000324486               0.999999984              -0.000651492               0.000331965               0.999999984              -0.000658810               0.000337331               0.999999984              -0.000665140               0.000339887               0.999999984              -0.000670384               0.000339184               0.999999984              -0.000674524               0.000334757               0.999999984              -0.000677420               0.000325806               0.999999984              -0.000679189               0.000311454               0.999999984              -0.000557851               0.000472193               0.999999984              -0.000556289               0.000391904               0.999999984              -0.000550596               0.000364952               0.999999984              -0.000547955               0.000361764               0.999999984              -0.000548997               0.000369958               0.999999984              -0.000552758               0.000383631               0.999999984              -0.000558171               0.000399126               0.999999984              -0.000564261               0.000414516               0.999999984              -0.000570269               0.000428734               0.999999984              -0.000575605               0.000440932               0.999999984              -0.000579995               0.000450870               0.999999984              -0.000583178               0.000458058               0.999999984              -0.000585057               0.000461916               0.999999984              -0.000585435               0.000462280               0.999999984              -0.000584248               0.000458868               0.999999984              -0.000581510               0.000451249               0.999999984              -0.000577322               0.000439056               0.999999984              -0.000529283               0.000581772               0.999999984              -0.000505332               0.000486767               0.999999984              -0.000490977               0.000458351               0.999999984              -0.000485370               0.000457893               0.999999984              -0.000485529               0.000470217               0.999999984              -0.000488788               0.000488268               0.999999984              -0.000493338               0.000507894               0.999999984              -0.000497858               0.000526920               0.999999984              -0.000501554               0.000544135               0.999999984              -0.000503842               0.000558735               0.999999984              -0.000504431               0.000570594               0.999999984              -0.000503155               0.000579460               0.999999984              -0.000499933               0.000584853               0.999999984              -0.000494636               0.000586637               0.999999984              -0.000487313               0.000584612               0.999999984              -0.000478042               0.000578861               0.999999984              -0.000467248               0.000569907               0.999999984              -0.000495485               0.000685710               0.999999984              -0.000448696               0.000580152               0.999999984              -0.000427978               0.000552362               0.999999984              -0.000421419               0.000555448               0.999999984              -0.000421996               0.000571908               0.999999984              -0.000425568               0.000593902               0.999999984              -0.000429624               0.000617060               0.999999984              -0.000432677               0.000639054               0.999999984              -0.000433863               0.000658644               0.999999984              -0.000432676               0.000675033               0.999999984              -0.000428846               0.000688384               0.999999984              -0.000422273               0.000698606               0.999999984              -0.000413028               0.000705462               0.999999984              -0.000401180               0.000708669               0.999999984              -0.000386868               0.000708264               0.999999984              -0.000370651               0.000705027               0.999999984              -0.000353253               0.000699811               0.999999984              -0.000457138               0.000782904               0.999999984              -0.000389234               0.000671871               0.999999984              -0.000365175               0.000646169               0.999999984              -0.000359886               0.000652775               0.999999984              -0.000361971               0.000672993               0.999999984              -0.000366214               0.000698448               0.999999984              -0.000369910               0.000724431               0.999999984              -0.000371335               0.000748596               0.999999984              -0.000369445               0.000769835               0.999999984              -0.000363888               0.000787577               0.999999984              -0.000354715               0.000802042               0.999999984              -0.000342056               0.000813375               0.999999984              -0.000326063               0.000821328               0.999999984              -0.000307014               0.000825674               0.999999984              -0.000285609               0.000827113               0.999999984              -0.000262750               0.000826826               0.999999984              -0.000239123               0.000825631               0.999999984              -0.000415645               0.000871617               0.999999984              -0.000329001               0.000761856               0.999999984              -0.000305808               0.000738388               0.999999984              -0.000303311               0.000747999               0.999999984              -0.000307537               0.000771474               0.999999984              -0.000312733               0.000799650               0.999999984              -0.000315700               0.000827863               0.999999984              -0.000314531               0.000853673               0.999999984              -0.000308512               0.000876132               0.999999984              -0.000297664               0.000894941               0.999999984              -0.000282322               0.000910360               0.999999984              -0.000262696               0.000922417               0.999999984              -0.000239173               0.000930989               0.999999984              -0.000212626               0.000936624               0.999999984              -0.000184367               0.000940500               0.999999984              -0.000155419               0.000943584               0.999999984              -0.000126197               0.000946252               0.999999984              -0.000373028               0.000955263               0.999999984              -0.000279175               0.000860653               0.999999984              -0.000252864               0.000832433               0.999999984              -0.000249179               0.000836016               0.999999984              -0.000252964               0.000854568               0.999999984              -0.000258516               0.000879761               0.999999984              -0.000262460               0.000906810               0.999999984              -0.000262857               0.000932990               0.999999984              -0.000258765               0.000957086               0.999999984              -0.000250114               0.000978459               0.999999984              -0.000236996               0.000997027               0.999999984              -0.000219683               0.001012770               0.999999984              -0.000198154               0.001025909               0.999999984              -0.000172583               0.001036441               0.999999984              -0.000144343               0.001045019               0.999999984              -0.000114484               0.001052370               0.999999984              -0.000084254               0.001059248               0.999999984              -0.000326280               0.001031292               0.999999984              -0.000232227               0.000955794               0.999999984              -0.000202974               0.000928343               0.999999984              -0.000197213               0.000928054               0.999999984              -0.000199922               0.000942636               0.999999984              -0.000205028               0.000965086               0.999999984              -0.000209256               0.000991089               0.999999984              -0.000210676               0.001017742               0.999999984              -0.000208102               0.001043424               0.999999984              -0.000201507               0.001067315               0.999999984              -0.000190580               0.001088937               0.999999984              -0.000175386               0.001108205               0.999999984              -0.000155840               0.001125190               0.999999984              -0.000131732               0.001139994               0.999999984              -0.000103598               0.001152910               0.999999984              -0.000072563               0.001164437               0.999999984              -0.000040095               0.001175376               0.999999984              -0.000276565               0.001097787               0.999999984              -0.000188161               0.001044463               0.999999984              -0.000157494               0.001021902               0.999999984              -0.000149553               0.001020547               0.999999984              -0.000150641               0.001032750               0.999999984              -0.000154631               0.001053211               0.999999984              -0.000158424               0.001078261               0.999999984              -0.000160236               0.001105489               0.999999984              -0.000158951               0.001132862               0.999999984              -0.000154139               0.001159360               0.999999984              -0.000145301               0.001184272               0.999999984              -0.000132181               0.001207396               0.999999984              -0.000114590               0.001228495               0.999999984              -0.000092176               0.001247633               0.999999984              -0.000064813               0.001264845               0.999999984              -0.000032961               0.001280494               0.999999984               0.000002397               0.001295229               0.999999984              -0.000224345               0.001153661               0.999999984              -0.000146938               0.001123106               0.999999984              -0.000117236               0.001108371               0.999999984              -0.000107734               0.001108723               0.999999984              -0.000107057               0.001120362               0.999999984              -0.000109650               0.001139917               0.999999984              -0.000112494               0.001164527               0.999999984              -0.000114212               0.001192219               0.999999984              -0.000113781               0.001221320               0.999999984              -0.000110446               0.001250562               0.999999984              -0.000103610               0.001279040               0.999999984              -0.000092768               0.001306341               0.999999984              -0.000077465               0.001332044               0.999999984              -0.000057217               0.001356026               0.999999984              -0.000031594               0.001378143               0.999999984              -0.000000094               0.001398632               0.999999984               0.000037358               0.001417792               0.999999984              -0.000170099               0.001197986               0.999999984              -0.000108149               0.001188313               0.999999984              -0.000082269               0.001182733               0.999999984              -0.000072618               0.001186686               0.999999984              -0.000070562               0.001199473               0.999999984              -0.000071768               0.001219249               0.999999984              -0.000073672               0.001244159               0.999999984              -0.000074940               0.001272488               0.999999984              -0.000074818               0.001303000               0.999999984              -0.000072681               0.001334712               0.999999984              -0.000067729               0.001366634               0.999999984              -0.000059363               0.001398163               0.999999984              -0.000047009               0.001428733               0.999999984              -0.000030077               0.001457987               0.999999984              -0.000007700               0.001485609               0.999999984               0.000021089               0.001511583               0.999999984               0.000057347               0.001535871               0.999999984              -0.000114316               0.001230121               0.999999984              -0.000071136               0.001237126               0.999999984              -0.000051927               0.001240172               0.999999984              -0.000044046               0.001248280               0.999999984              -0.000041645               0.001263035               0.999999984              -0.000041869               0.001283854               0.999999984              -0.000042919               0.001309549               0.999999984              -0.000043686               0.001338840               0.999999984              -0.000043571               0.001370700               0.999999984              -0.000042139               0.001404409               0.999999984              -0.000038893               0.001439208               0.999999984              -0.000033162               0.001474359               0.999999984              -0.000024459               0.001509242               0.999999984              -0.000012197               0.001543429               0.999999984               0.000004588               0.001576476               0.999999984               0.000026838               0.001607921               0.999999984               0.000056352               0.001637430               0.999999984              -0.000057444               0.001249723               0.999999984              -0.000035266               0.001267389               0.999999984              -0.000025026               0.001276446               0.999999984              -0.000020604               0.001287977               0.999999984              -0.000019031               0.001304536               0.999999984              -0.000018887               0.001326324               0.999999984              -0.000019287               0.001352876               0.999999984              -0.000019659               0.001383075               0.999999984              -0.000019592               0.001416066               0.999999984              -0.000018738               0.001451190               0.999999984              -0.000017044               0.001487800               0.999999984              -0.000014228               0.001525313               0.999999984              -0.000009698               0.001563152               0.999999984              -0.000003166               0.001600780               0.999999984               0.000005700               0.001637643               0.999999984               0.000017892               0.001673225               0.999999984               0.000034695               0.001706901               0.999999984               0.000000000               0.001256331               0.999999984              -0.000000000               0.001277677               0.999999984               0.000000000               0.001288832               0.999999984               0.000000000               0.001301583               0.999999984              -0.000000000               0.001318978               0.999999984              -0.000000000               0.001341270               0.999999984               0.000000000               0.001368080               0.999999984               0.000000000               0.001398644               0.999999984              -0.000000000               0.001432160               0.999999984              -0.000000000               0.001467771               0.999999984              -0.000000000               0.001504954               0.999999984               0.000000000               0.001543283               0.999999984               0.000000000               0.001582163               0.999999984              -0.000000000               0.001620950               0.999999984               0.000000000               0.001659160               0.999999984               0.000000000               0.001696321               0.999999984               0.000000000               0.001731571               0.999999984              -0.000610684               0.000000000               0.999999984              -0.000657553               0.000000000               0.999999984              -0.000678103               0.000000000               0.999999984              -0.000689613               0.000000000               0.999999984              -0.000698633               0.000000000               0.999999984              -0.000707637              -0.000000000               0.999999984              -0.000717499               0.000000000               0.999999984              -0.000728480               0.000000000               0.999999984              -0.000740581               0.000000000               0.999999984              -0.000753690               0.000000000               0.999999984              -0.000767669              -0.000000000               0.999999984              -0.000782337               0.000000000               0.999999984              -0.000797193              -0.000000000               0.999999984              -0.000811991               0.000000000               0.999999984              -0.000826342              -0.000000000               0.999999984              -0.000839759               0.000000000               0.999999984              -0.000851710              -0.000000000               0.999999984              -0.000607316              -0.000120886               0.999999984              -0.000650842              -0.000099322               0.999999984              -0.000669224              -0.000090295               0.999999984              -0.000679337              -0.000087705               0.999999984              -0.000687399              -0.000088519               0.999999984              -0.000695796              -0.000091158               0.999999984              -0.000705313              -0.000094505               0.999999984              -0.000715973              -0.000097956               0.999999984              -0.000727614              -0.000101381               0.999999984              -0.000740093              -0.000104427               0.999999984              -0.000753161              -0.000106870               0.999999984              -0.000766652              -0.000108568               0.999999984              -0.000780302              -0.000109082               0.999999984              -0.000793745              -0.000108068               0.999999984              -0.000806680              -0.000105029               0.999999984              -0.000818719              -0.000099306               0.999999984              -0.000829311              -0.000089856               0.999999984              -0.000597247              -0.000240638               0.999999984              -0.000630943              -0.000198039               0.999999984              -0.000643333              -0.000181014               0.999999984              -0.000649888              -0.000176716               0.999999984              -0.000655749              -0.000179006               0.999999984              -0.000662645              -0.000184721               0.999999984              -0.000670838              -0.000191671               0.999999984              -0.000680203              -0.000198918               0.999999984              -0.000690422              -0.000205833               0.999999984              -0.000701083              -0.000212020               0.999999984              -0.000711917              -0.000217036               0.999999984              -0.000722714              -0.000220585               0.999999984              -0.000733154              -0.000222014               0.999999984              -0.000742926              -0.000220782               0.999999984              -0.000751891              -0.000216254               0.999999984              -0.000759879              -0.000207463               0.999999984              -0.000766735              -0.000192999               0.999999984              -0.000580657              -0.000358107               0.999999984              -0.000598857              -0.000295654               0.999999984              -0.000602678              -0.000272517               0.999999984              -0.000604578              -0.000267932               0.999999984              -0.000607708              -0.000272678               0.999999984              -0.000612751              -0.000282082               0.999999984              -0.000619386              -0.000293240               0.999999984              -0.000627081              -0.000304510               0.999999984              -0.000635289              -0.000315177               0.999999984              -0.000643561              -0.000324486               0.999999984              -0.000651492              -0.000331965               0.999999984              -0.000658810              -0.000337331               0.999999984              -0.000665140              -0.000339887               0.999999984              -0.000670384              -0.000339184               0.999999984              -0.000674524              -0.000334757               0.999999984              -0.000677420              -0.000325806               0.999999984              -0.000679189              -0.000311454               0.999999984              -0.000557851              -0.000472193               0.999999984              -0.000556289              -0.000391904               0.999999984              -0.000550596              -0.000364952               0.999999984              -0.000547955              -0.000361764               0.999999984              -0.000548997              -0.000369958               0.999999984              -0.000552758              -0.000383631               0.999999984              -0.000558171              -0.000399126               0.999999984              -0.000564261              -0.000414516               0.999999984              -0.000570269              -0.000428734               0.999999984              -0.000575605              -0.000440932               0.999999984              -0.000579995              -0.000450870               0.999999984              -0.000583178              -0.000458058               0.999999984              -0.000585057              -0.000461916               0.999999984              -0.000585435              -0.000462280               0.999999984              -0.000584248              -0.000458868               0.999999984              -0.000581510              -0.000451249               0.999999984              -0.000577322              -0.000439056               0.999999984              -0.000529283              -0.000581772               0.999999984              -0.000505332              -0.000486767               0.999999984              -0.000490977              -0.000458351               0.999999984              -0.000485370              -0.000457893               0.999999984              -0.000485529              -0.000470217               0.999999984              -0.000488788              -0.000488268               0.999999984              -0.000493338              -0.000507894               0.999999984              -0.000497858              -0.000526920               0.999999984              -0.000501554              -0.000544135               0.999999984              -0.000503842              -0.000558735               0.999999984              -0.000504431              -0.000570594               0.999999984              -0.000503155              -0.000579460               0.999999984              -0.000499933              -0.000584853               0.999999984              -0.000494636              -0.000586637               0.999999984              -0.000487313              -0.000584612               0.999999984              -0.000478042              -0.000578861               0.999999984              -0.000467248              -0.000569907               0.999999984              -0.000495485              -0.000685710               0.999999984              -0.000448696              -0.000580152               0.999999984              -0.000427978              -0.000552362               0.999999984              -0.000421419              -0.000555448               0.999999984              -0.000421996              -0.000571908               0.999999984              -0.000425568              -0.000593902               0.999999984              -0.000429624              -0.000617060               0.999999984              -0.000432677              -0.000639054               0.999999984              -0.000433863              -0.000658644               0.999999984              -0.000432676              -0.000675033               0.999999984              -0.000428846              -0.000688384               0.999999984              -0.000422273              -0.000698606               0.999999984              -0.000413028              -0.000705462               0.999999984              -0.000401180              -0.000708669               0.999999984              -0.000386868              -0.000708264               0.999999984              -0.000370651              -0.000705027               0.999999984              -0.000353253              -0.000699811               0.999999984              -0.000457138              -0.000782904               0.999999984              -0.000389234              -0.000671871               0.999999984              -0.000365175              -0.000646169               0.999999984              -0.000359886              -0.000652775               0.999999984              -0.000361971              -0.000672993               0.999999984              -0.000366214              -0.000698448               0.999999984              -0.000369910              -0.000724431               0.999999984              -0.000371335              -0.000748596               0.999999984              -0.000369445              -0.000769835               0.999999984              -0.000363888              -0.000787577               0.999999984              -0.000354715              -0.000802042               0.999999984              -0.000342056              -0.000813375               0.999999984              -0.000326063              -0.000821328               0.999999984              -0.000307014              -0.000825674               0.999999984              -0.000285609              -0.000827113               0.999999984              -0.000262750              -0.000826826               0.999999984              -0.000239123              -0.000825631               0.999999984              -0.000415645              -0.000871617               0.999999984              -0.000329001              -0.000761856               0.999999984              -0.000305808              -0.000738388               0.999999984              -0.000303311              -0.000747999               0.999999984              -0.000307537              -0.000771474               0.999999984              -0.000312733              -0.000799650               0.999999984              -0.000315700              -0.000827863               0.999999984              -0.000314531              -0.000853673               0.999999984              -0.000308512              -0.000876132               0.999999984              -0.000297664              -0.000894941               0.999999984              -0.000282322              -0.000910360               0.999999984              -0.000262696              -0.000922417               0.999999984              -0.000239173              -0.000930989               0.999999984              -0.000212626              -0.000936624               0.999999984              -0.000184367              -0.000940500               0.999999984              -0.000155419              -0.000943584               0.999999984              -0.000126197              -0.000946252               0.999999984              -0.000373028              -0.000955263               0.999999984              -0.000279175              -0.000860653               0.999999984              -0.000252864              -0.000832433               0.999999984              -0.000249179              -0.000836016               0.999999984              -0.000252964              -0.000854568               0.999999984              -0.000258516              -0.000879761               0.999999984              -0.000262460              -0.000906810               0.999999984              -0.000262857              -0.000932990               0.999999984              -0.000258765              -0.000957086               0.999999984              -0.000250114              -0.000978459               0.999999984              -0.000236996              -0.000997027               0.999999984              -0.000219683              -0.001012770               0.999999984              -0.000198154              -0.001025909               0.999999984              -0.000172583              -0.001036441               0.999999984              -0.000144343              -0.001045019               0.999999984              -0.000114484              -0.001052370               0.999999984              -0.000084254              -0.001059248               0.999999984              -0.000326280              -0.001031292               0.999999984              -0.000232227              -0.000955794               0.999999984              -0.000202974              -0.000928343               0.999999984              -0.000197213              -0.000928054               0.999999984              -0.000199922              -0.000942636               0.999999984              -0.000205028              -0.000965086               0.999999984              -0.000209256              -0.000991089               0.999999984              -0.000210676              -0.001017742               0.999999984              -0.000208102              -0.001043424               0.999999984              -0.000201507              -0.001067315               0.999999984              -0.000190580              -0.001088937               0.999999984              -0.000175386              -0.001108205               0.999999984              -0.000155840              -0.001125190               0.999999984              -0.000131732              -0.001139994               0.999999984              -0.000103598              -0.001152910               0.999999984              -0.000072563              -0.001164437               0.999999984              -0.000040095              -0.001175376               0.999999984              -0.000276565              -0.001097787               0.999999984              -0.000188161              -0.001044463               0.999999984              -0.000157494              -0.001021902               0.999999984              -0.000149553              -0.001020547               0.999999984              -0.000150641              -0.001032750               0.999999984              -0.000154631              -0.001053211               0.999999984              -0.000158424              -0.001078261               0.999999984              -0.000160236              -0.001105489               0.999999984              -0.000158951              -0.001132862               0.999999984              -0.000154139              -0.001159360               0.999999984              -0.000145301              -0.001184272               0.999999984              -0.000132181              -0.001207396               0.999999984              -0.000114590              -0.001228495               0.999999984              -0.000092176              -0.001247633               0.999999984              -0.000064813              -0.001264845               0.999999984              -0.000032961              -0.001280494               0.999999984               0.000002397              -0.001295229               0.999999984              -0.000224345              -0.001153661               0.999999984              -0.000146938              -0.001123106               0.999999984              -0.000117236              -0.001108371               0.999999984              -0.000107734              -0.001108723               0.999999984              -0.000107057              -0.001120362               0.999999984              -0.000109650              -0.001139917               0.999999984              -0.000112494              -0.001164527               0.999999984              -0.000114212              -0.001192219               0.999999984              -0.000113781              -0.001221320               0.999999984              -0.000110446              -0.001250562               0.999999984              -0.000103610              -0.001279040               0.999999984              -0.000092768              -0.001306341               0.999999984              -0.000077465              -0.001332044               0.999999984              -0.000057217              -0.001356026               0.999999984              -0.000031594              -0.001378143               0.999999984              -0.000000094              -0.001398632               0.999999984               0.000037358              -0.001417792               0.999999984              -0.000170099              -0.001197986               0.999999984              -0.000108149              -0.001188313               0.999999984              -0.000082269              -0.001182733               0.999999984              -0.000072618              -0.001186686               0.999999984              -0.000070562              -0.001199473               0.999999984              -0.000071768              -0.001219249               0.999999984              -0.000073672              -0.001244159               0.999999984              -0.000074940              -0.001272488               0.999999984              -0.000074818              -0.001303000               0.999999984              -0.000072681              -0.001334712               0.999999984              -0.000067729              -0.001366634               0.999999984              -0.000059363              -0.001398163               0.999999984              -0.000047009              -0.001428733               0.999999984              -0.000030077              -0.001457987               0.999999984              -0.000007700              -0.001485609               0.999999984               0.000021089              -0.001511583               0.999999984               0.000057347              -0.001535871               0.999999984              -0.000114316              -0.001230121               0.999999984              -0.000071136              -0.001237126               0.999999984              -0.000051927              -0.001240172               0.999999984              -0.000044046              -0.001248280               0.999999984              -0.000041645              -0.001263035               0.999999984              -0.000041869              -0.001283854               0.999999984              -0.000042919              -0.001309549               0.999999984              -0.000043686              -0.001338840               0.999999984              -0.000043571              -0.001370700               0.999999984              -0.000042139              -0.001404409               0.999999984              -0.000038893              -0.001439208               0.999999984              -0.000033162              -0.001474359               0.999999984              -0.000024459              -0.001509242               0.999999984              -0.000012197              -0.001543429               0.999999984               0.000004588              -0.001576476               0.999999984               0.000026838              -0.001607921               0.999999984               0.000056352              -0.001637430               0.999999984              -0.000057444              -0.001249723               0.999999984              -0.000035266              -0.001267389               0.999999984              -0.000025026              -0.001276446               0.999999984              -0.000020604              -0.001287977               0.999999984              -0.000019031              -0.001304536               0.999999984              -0.000018887              -0.001326324               0.999999984              -0.000019287              -0.001352876               0.999999984              -0.000019659              -0.001383075               0.999999984              -0.000019592              -0.001416066               0.999999984              -0.000018738              -0.001451190               0.999999984              -0.000017044              -0.001487800               0.999999984              -0.000014228              -0.001525313               0.999999984              -0.000009698              -0.001563152               0.999999984              -0.000003166              -0.001600780               0.999999984               0.000005700              -0.001637643               0.999999984               0.000017892              -0.001673225               0.999999984               0.000034695              -0.001706901               0.999999984              -0.000000000              -0.001256331               0.999999984               0.000000000              -0.001277677               0.999999984              -0.000000000              -0.001288832               0.999999984               0.000000000              -0.001301583               0.999999984              -0.000000000              -0.001318978               0.999999984              -0.000000000              -0.001341270               0.999999984               0.000000000              -0.001368080               0.999999984              -0.000000000              -0.001398644               0.999999984               0.000000000              -0.001432160               0.999999984               0.000000000              -0.001467771               0.999999984               0.000000000              -0.001504954               0.999999984               0.000000000              -0.001543283               0.999999984               0.000000000              -0.001582163               0.999999984               0.000000000              -0.001620950               0.999999984               0.000000000              -0.001659160               0.999999984              -0.000000000              -0.001696321               0.999999984              -0.000000000              -0.001731571               0.999999984               0.000610684              -0.000000000               0.999999984               0.000657553               0.000000000               0.999999984               0.000678103               0.000000000               0.999999984               0.000689613              -0.000000000               0.999999984               0.000698633              -0.000000000               0.999999984               0.000707637              -0.000000000               0.999999984               0.000717499              -0.000000000               0.999999984               0.000728480              -0.000000000               0.999999984               0.000740581              -0.000000000               0.999999984               0.000753690               0.000000000               0.999999984               0.000767669              -0.000000000               0.999999984               0.000782337              -0.000000000               0.999999984               0.000797193              -0.000000000               0.999999984               0.000811991              -0.000000000               0.999999984               0.000826342               0.000000000               0.999999984               0.000839759              -0.000000000               0.999999984               0.000851710               0.000000000               0.999999984               0.000607316              -0.000120886               0.999999984               0.000650842              -0.000099322               0.999999984               0.000669224              -0.000090295               0.999999984               0.000679337              -0.000087705               0.999999984               0.000687399              -0.000088519               0.999999984               0.000695796              -0.000091158               0.999999984               0.000705313              -0.000094505               0.999999984               0.000715973              -0.000097956               0.999999984               0.000727614              -0.000101381               0.999999984               0.000740093              -0.000104427               0.999999984               0.000753161              -0.000106870               0.999999984               0.000766652              -0.000108568               0.999999984               0.000780302              -0.000109082               0.999999984               0.000793745              -0.000108068               0.999999984               0.000806680              -0.000105029               0.999999984               0.000818719              -0.000099306               0.999999984               0.000829311              -0.000089856               0.999999984               0.000597247              -0.000240638               0.999999984               0.000630943              -0.000198039               0.999999984               0.000643333              -0.000181014               0.999999984               0.000649888              -0.000176716               0.999999984               0.000655749              -0.000179006               0.999999984               0.000662645              -0.000184721               0.999999984               0.000670838              -0.000191671               0.999999984               0.000680203              -0.000198918               0.999999984               0.000690422              -0.000205833               0.999999984               0.000701083              -0.000212020               0.999999984               0.000711917              -0.000217036               0.999999984               0.000722714              -0.000220585               0.999999984               0.000733154              -0.000222014               0.999999984               0.000742926              -0.000220782               0.999999984               0.000751891              -0.000216254               0.999999984               0.000759879              -0.000207463               0.999999984               0.000766735              -0.000192999               0.999999984               0.000580657              -0.000358107               0.999999984               0.000598857              -0.000295654               0.999999984               0.000602678              -0.000272517               0.999999984               0.000604578              -0.000267932               0.999999984               0.000607708              -0.000272678               0.999999984               0.000612751              -0.000282082               0.999999984               0.000619386              -0.000293240               0.999999984               0.000627081              -0.000304510               0.999999984               0.000635289              -0.000315177               0.999999984               0.000643561              -0.000324486               0.999999984               0.000651492              -0.000331965               0.999999984               0.000658810              -0.000337331               0.999999984               0.000665140              -0.000339887               0.999999984               0.000670384              -0.000339184               0.999999984               0.000674524              -0.000334757               0.999999984               0.000677420              -0.000325806               0.999999984               0.000679189              -0.000311454               0.999999984               0.000557851              -0.000472193               0.999999984               0.000556289              -0.000391904               0.999999984               0.000550596              -0.000364952               0.999999984               0.000547955              -0.000361764               0.999999984               0.000548997              -0.000369958               0.999999984               0.000552758              -0.000383631               0.999999984               0.000558171              -0.000399126               0.999999984               0.000564261              -0.000414516               0.999999984               0.000570269              -0.000428734               0.999999984               0.000575605              -0.000440932               0.999999984               0.000579995              -0.000450870               0.999999984               0.000583178              -0.000458058               0.999999984               0.000585057              -0.000461916               0.999999984               0.000585435              -0.000462280               0.999999984               0.000584248              -0.000458868               0.999999984               0.000581510              -0.000451249               0.999999984               0.000577322              -0.000439056               0.999999984               0.000529283              -0.000581772               0.999999984               0.000505332              -0.000486767               0.999999984               0.000490977              -0.000458351               0.999999984               0.000485370              -0.000457893               0.999999984               0.000485529              -0.000470217               0.999999984               0.000488788              -0.000488268               0.999999984               0.000493338              -0.000507894               0.999999984               0.000497858              -0.000526920               0.999999984               0.000501554              -0.000544135               0.999999984               0.000503842              -0.000558735               0.999999984               0.000504431              -0.000570594               0.999999984               0.000503155              -0.000579460               0.999999984               0.000499933              -0.000584853               0.999999984               0.000494636              -0.000586637               0.999999984               0.000487313              -0.000584612               0.999999984               0.000478042              -0.000578861               0.999999984               0.000467248              -0.000569907               0.999999984               0.000495485              -0.000685710               0.999999984               0.000448696              -0.000580152               0.999999984               0.000427978              -0.000552362               0.999999984               0.000421419              -0.000555448               0.999999984               0.000421996              -0.000571908               0.999999984               0.000425568              -0.000593902               0.999999984               0.000429624              -0.000617060               0.999999984               0.000432677              -0.000639054               0.999999984               0.000433863              -0.000658644               0.999999984               0.000432676              -0.000675033               0.999999984               0.000428846              -0.000688384               0.999999984               0.000422273              -0.000698606               0.999999984               0.000413028              -0.000705462               0.999999984               0.000401180              -0.000708669               0.999999984               0.000386868              -0.000708264               0.999999984               0.000370651              -0.000705027               0.999999984               0.000353253              -0.000699811               0.999999984               0.000457138              -0.000782904               0.999999984               0.000389234              -0.000671871               0.999999984               0.000365175              -0.000646169               0.999999984               0.000359886              -0.000652775               0.999999984               0.000361971              -0.000672993               0.999999984               0.000366214              -0.000698448               0.999999984               0.000369910              -0.000724431               0.999999984               0.000371335              -0.000748596               0.999999984               0.000369445              -0.000769835               0.999999984               0.000363888              -0.000787577               0.999999984               0.000354715              -0.000802042               0.999999984               0.000342056              -0.000813375               0.999999984               0.000326063              -0.000821328               0.999999984               0.000307014              -0.000825674               0.999999984               0.000285609              -0.000827113               0.999999984               0.000262750              -0.000826826               0.999999984               0.000239123              -0.000825631               0.999999984               0.000415645              -0.000871617               0.999999984               0.000329001              -0.000761856               0.999999984               0.000305808              -0.000738388               0.999999984               0.000303311              -0.000747999               0.999999984               0.000307537              -0.000771474               0.999999984               0.000312733              -0.000799650               0.999999984               0.000315700              -0.000827863               0.999999984               0.000314531              -0.000853673               0.999999984               0.000308512              -0.000876132               0.999999984               0.000297664              -0.000894941               0.999999984               0.000282322              -0.000910360               0.999999984               0.000262696              -0.000922417               0.999999984               0.000239173              -0.000930989               0.999999984               0.000212626              -0.000936624               0.999999984               0.000184367              -0.000940500               0.999999984               0.000155419              -0.000943584               0.999999984               0.000126197              -0.000946252               0.999999984               0.000373028              -0.000955263               0.999999984               0.000279175              -0.000860653               0.999999984               0.000252864              -0.000832433               0.999999984               0.000249179              -0.000836016               0.999999984               0.000252964              -0.000854568               0.999999984               0.000258516              -0.000879761               0.999999984               0.000262460              -0.000906810               0.999999984               0.000262857              -0.000932990               0.999999984               0.000258765              -0.000957086               0.999999984               0.000250114              -0.000978459               0.999999984               0.000236996              -0.000997027               0.999999984               0.000219683              -0.001012770               0.999999984               0.000198154              -0.001025909               0.999999984               0.000172583              -0.001036441               0.999999984               0.000144343              -0.001045019               0.999999984               0.000114484              -0.001052370               0.999999984               0.000084254              -0.001059248               0.999999984               0.000326280              -0.001031292               0.999999984               0.000232227              -0.000955794               0.999999984               0.000202974              -0.000928343               0.999999984               0.000197213              -0.000928054               0.999999984               0.000199922              -0.000942636               0.999999984               0.000205028              -0.000965086               0.999999984               0.000209256              -0.000991089               0.999999984               0.000210676              -0.001017742               0.999999984               0.000208102              -0.001043424               0.999999984               0.000201507              -0.001067315               0.999999984               0.000190580              -0.001088937               0.999999984               0.000175386              -0.001108205               0.999999984               0.000155840              -0.001125190               0.999999984               0.000131732              -0.001139994               0.999999984               0.000103598              -0.001152910               0.999999984               0.000072563              -0.001164437               0.999999984               0.000040095              -0.001175376               0.999999984               0.000276565              -0.001097787               0.999999984               0.000188161              -0.001044463               0.999999984               0.000157494              -0.001021902               0.999999984               0.000149553              -0.001020547               0.999999984               0.000150641              -0.001032750               0.999999984               0.000154631              -0.001053211               0.999999984               0.000158424              -0.001078261               0.999999984               0.000160236              -0.001105489               0.999999984               0.000158951              -0.001132862               0.999999984               0.000154139              -0.001159360               0.999999984               0.000145301              -0.001184272               0.999999984               0.000132181              -0.001207396               0.999999984               0.000114590              -0.001228495               0.999999984               0.000092176              -0.001247633               0.999999984               0.000064813              -0.001264845               0.999999984               0.000032961              -0.001280494               0.999999984              -0.000002397              -0.001295229               0.999999984               0.000224345              -0.001153661               0.999999984               0.000146938              -0.001123106               0.999999984               0.000117236              -0.001108371               0.999999984               0.000107734              -0.001108723               0.999999984               0.000107057              -0.001120362               0.999999984               0.000109650              -0.001139917               0.999999984               0.000112494              -0.001164527               0.999999984               0.000114212              -0.001192219               0.999999984               0.000113781              -0.001221320               0.999999984               0.000110446              -0.001250562               0.999999984               0.000103610              -0.001279040               0.999999984               0.000092768              -0.001306341               0.999999984               0.000077465              -0.001332044               0.999999984               0.000057217              -0.001356026               0.999999984               0.000031594              -0.001378143               0.999999984               0.000000094              -0.001398632               0.999999984              -0.000037358              -0.001417792               0.999999984               0.000170099              -0.001197986               0.999999984               0.000108149              -0.001188313               0.999999984               0.000082269              -0.001182733               0.999999984               0.000072618              -0.001186686               0.999999984               0.000070562              -0.001199473               0.999999984               0.000071768              -0.001219249               0.999999984               0.000073672              -0.001244159               0.999999984               0.000074940              -0.001272488               0.999999984               0.000074818              -0.001303000               0.999999984               0.000072681              -0.001334712               0.999999984               0.000067729              -0.001366634               0.999999984               0.000059363              -0.001398163               0.999999984               0.000047009              -0.001428733               0.999999984               0.000030077              -0.001457987               0.999999984               0.000007700              -0.001485609               0.999999984              -0.000021089              -0.001511583               0.999999984              -0.000057347              -0.001535871               0.999999984               0.000114316              -0.001230121               0.999999984               0.000071136              -0.001237126               0.999999984               0.000051927              -0.001240172               0.999999984               0.000044046              -0.001248280               0.999999984               0.000041645              -0.001263035               0.999999984               0.000041869              -0.001283854               0.999999984               0.000042919              -0.001309549               0.999999984               0.000043686              -0.001338840               0.999999984               0.000043571              -0.001370700               0.999999984               0.000042139              -0.001404409               0.999999984               0.000038893              -0.001439208               0.999999984               0.000033162              -0.001474359               0.999999984               0.000024459              -0.001509242               0.999999984               0.000012197              -0.001543429               0.999999984              -0.000004588              -0.001576476               0.999999984              -0.000026838              -0.001607921               0.999999984              -0.000056352              -0.001637430               0.999999984               0.000057444              -0.001249723               0.999999984               0.000035266              -0.001267389               0.999999984               0.000025026              -0.001276446               0.999999984               0.000020604              -0.001287977               0.999999984               0.000019031              -0.001304536               0.999999984               0.000018887              -0.001326324               0.999999984               0.000019287              -0.001352876               0.999999984               0.000019659              -0.001383075               0.999999984               0.000019592              -0.001416066               0.999999984               0.000018738              -0.001451190               0.999999984               0.000017044              -0.001487800               0.999999984               0.000014228              -0.001525313               0.999999984               0.000009698              -0.001563152               0.999999984               0.000003166              -0.001600780               0.999999984              -0.000005700              -0.001637643               0.999999984              -0.000017892              -0.001673225               0.999999984              -0.000034695              -0.001706901               0.999999984              -0.000000000              -0.001256331               0.999999984               0.000000000              -0.001277677               0.999999984              -0.000000000              -0.001288832               0.999999984               0.000000000              -0.001301583               0.999999984              -0.000000000              -0.001318978               0.999999984              -0.000000000              -0.001341270               0.999999984               0.000000000              -0.001368080               0.999999984              -0.000000000              -0.001398644               0.999999984               0.000000000              -0.001432160               0.999999984               0.000000000              -0.001467771               0.999999984               0.000000000              -0.001504954               0.999999984               0.000000000              -0.001543283               0.999999984               0.000000000              -0.001582163               0.999999984               0.000000000              -0.001620950               0.999999984               0.000000000              -0.001659160               0.999999984              -0.000000000              -0.001696321               0.999999984              -0.000000000              -0.001731571               0.999999984               0.000610684              -0.000000000               0.999999984               0.000657553               0.000000000               0.999999984               0.000678103               0.000000000               0.999999984               0.000689613              -0.000000000               0.999999984               0.000698633              -0.000000000               0.999999984               0.000707637              -0.000000000               0.999999984               0.000717499              -0.000000000               0.999999984               0.000728480              -0.000000000               0.999999984               0.000740581              -0.000000000               0.999999984               0.000753690               0.000000000               0.999999984               0.000767669              -0.000000000               0.999999984               0.000782337              -0.000000000               0.999999984               0.000797193              -0.000000000               0.999999984               0.000811991              -0.000000000               0.999999984               0.000826342               0.000000000               0.999999984               0.000839759              -0.000000000               0.999999984               0.000851710               0.000000000               0.999999984               0.000607316               0.000120886               0.999999984               0.000650842               0.000099322               0.999999984               0.000669224               0.000090295               0.999999984               0.000679337               0.000087705               0.999999984               0.000687399               0.000088519               0.999999984               0.000695796               0.000091158               0.999999984               0.000705313               0.000094505               0.999999984               0.000715973               0.000097956               0.999999984               0.000727614               0.000101381               0.999999984               0.000740093               0.000104427               0.999999984               0.000753161               0.000106870               0.999999984               0.000766652               0.000108568               0.999999984               0.000780302               0.000109082               0.999999984               0.000793745               0.000108068               0.999999984               0.000806680               0.000105029               0.999999984               0.000818719               0.000099306               0.999999984               0.000829311               0.000089856               0.999999984               0.000597247               0.000240638               0.999999984               0.000630943               0.000198039               0.999999984               0.000643333               0.000181014               0.999999984               0.000649888               0.000176716               0.999999984               0.000655749               0.000179006               0.999999984               0.000662645               0.000184721               0.999999984               0.000670838               0.000191671               0.999999984               0.000680203               0.000198918               0.999999984               0.000690422               0.000205833               0.999999984               0.000701083               0.000212020               0.999999984               0.000711917               0.000217036               0.999999984               0.000722714               0.000220585               0.999999984               0.000733154               0.000222014               0.999999984               0.000742926               0.000220782               0.999999984               0.000751891               0.000216254               0.999999984               0.000759879               0.000207463               0.999999984               0.000766735               0.000192999               0.999999984               0.000580657               0.000358107               0.999999984               0.000598857               0.000295654               0.999999984               0.000602678               0.000272517               0.999999984               0.000604578               0.000267932               0.999999984               0.000607708               0.000272678               0.999999984               0.000612751               0.000282082               0.999999984               0.000619386               0.000293240               0.999999984               0.000627081               0.000304510               0.999999984               0.000635289               0.000315177               0.999999984               0.000643561               0.000324486               0.999999984               0.000651492               0.000331965               0.999999984               0.000658810               0.000337331               0.999999984               0.000665140               0.000339887               0.999999984               0.000670384               0.000339184               0.999999984               0.000674524               0.000334757               0.999999984               0.000677420               0.000325806               0.999999984               0.000679189               0.000311454               0.999999984               0.000557851               0.000472193               0.999999984               0.000556289               0.000391904               0.999999984               0.000550596               0.000364952               0.999999984               0.000547955               0.000361764               0.999999984               0.000548997               0.000369958               0.999999984               0.000552758               0.000383631               0.999999984               0.000558171               0.000399126               0.999999984               0.000564261               0.000414516               0.999999984               0.000570269               0.000428734               0.999999984               0.000575605               0.000440932               0.999999984               0.000579995               0.000450870               0.999999984               0.000583178               0.000458058               0.999999984               0.000585057               0.000461916               0.999999984               0.000585435               0.000462280               0.999999984               0.000584248               0.000458868               0.999999984               0.000581510               0.000451249               0.999999984               0.000577322               0.000439056               0.999999984               0.000529283               0.000581772               0.999999984               0.000505332               0.000486767               0.999999984               0.000490977               0.000458351               0.999999984               0.000485370               0.000457893               0.999999984               0.000485529               0.000470217               0.999999984               0.000488788               0.000488268               0.999999984               0.000493338               0.000507894               0.999999984               0.000497858               0.000526920               0.999999984               0.000501554               0.000544135               0.999999984               0.000503842               0.000558735               0.999999984               0.000504431               0.000570594               0.999999984               0.000503155               0.000579460               0.999999984               0.000499933               0.000584853               0.999999984               0.000494636               0.000586637               0.999999984               0.000487313               0.000584612               0.999999984               0.000478042               0.000578861               0.999999984               0.000467248               0.000569907               0.999999984               0.000495485               0.000685710               0.999999984               0.000448696               0.000580152               0.999999984               0.000427978               0.000552362               0.999999984               0.000421419               0.000555448               0.999999984               0.000421996               0.000571908               0.999999984               0.000425568               0.000593902               0.999999984               0.000429624               0.000617060               0.999999984               0.000432677               0.000639054               0.999999984               0.000433863               0.000658644               0.999999984               0.000432676               0.000675033               0.999999984               0.000428846               0.000688384               0.999999984               0.000422273               0.000698606               0.999999984               0.000413028               0.000705462               0.999999984               0.000401180               0.000708669               0.999999984               0.000386868               0.000708264               0.999999984               0.000370651               0.000705027               0.999999984               0.000353253               0.000699811               0.999999984               0.000457138               0.000782904               0.999999984               0.000389234               0.000671871               0.999999984               0.000365175               0.000646169               0.999999984               0.000359886               0.000652775               0.999999984               0.000361971               0.000672993               0.999999984               0.000366214               0.000698448               0.999999984               0.000369910               0.000724431               0.999999984               0.000371335               0.000748596               0.999999984               0.000369445               0.000769835               0.999999984               0.000363888               0.000787577               0.999999984               0.000354715               0.000802042               0.999999984               0.000342056               0.000813375               0.999999984               0.000326063               0.000821328               0.999999984               0.000307014               0.000825674               0.999999984               0.000285609               0.000827113               0.999999984               0.000262750               0.000826826               0.999999984               0.000239123               0.000825631               0.999999984               0.000415645               0.000871617               0.999999984               0.000329001               0.000761856               0.999999984               0.000305808               0.000738388               0.999999984               0.000303311               0.000747999               0.999999984               0.000307537               0.000771474               0.999999984               0.000312733               0.000799650               0.999999984               0.000315700               0.000827863               0.999999984               0.000314531               0.000853673               0.999999984               0.000308512               0.000876132               0.999999984               0.000297664               0.000894941               0.999999984               0.000282322               0.000910360               0.999999984               0.000262696               0.000922417               0.999999984               0.000239173               0.000930989               0.999999984               0.000212626               0.000936624               0.999999984               0.000184367               0.000940500               0.999999984               0.000155419               0.000943584               0.999999984               0.000126197               0.000946252               0.999999984               0.000373028               0.000955263               0.999999984               0.000279175               0.000860653               0.999999984               0.000252864               0.000832433               0.999999984               0.000249179               0.000836016               0.999999984               0.000252964               0.000854568               0.999999984               0.000258516               0.000879761               0.999999984               0.000262460               0.000906810               0.999999984               0.000262857               0.000932990               0.999999984               0.000258765               0.000957086               0.999999984               0.000250114               0.000978459               0.999999984               0.000236996               0.000997027               0.999999984               0.000219683               0.001012770               0.999999984               0.000198154               0.001025909               0.999999984               0.000172583               0.001036441               0.999999984               0.000144343               0.001045019               0.999999984               0.000114484               0.001052370               0.999999984               0.000084254               0.001059248               0.999999984               0.000326280               0.001031292               0.999999984               0.000232227               0.000955794               0.999999984               0.000202974               0.000928343               0.999999984               0.000197213               0.000928054               0.999999984               0.000199922               0.000942636               0.999999984               0.000205028               0.000965086               0.999999984               0.000209256               0.000991089               0.999999984               0.000210676               0.001017742               0.999999984               0.000208102               0.001043424               0.999999984               0.000201507               0.001067315               0.999999984               0.000190580               0.001088937               0.999999984               0.000175386               0.001108205               0.999999984               0.000155840               0.001125190               0.999999984               0.000131732               0.001139994               0.999999984               0.000103598               0.001152910               0.999999984               0.000072563               0.001164437               0.999999984               0.000040095               0.001175376               0.999999984               0.000276565               0.001097787               0.999999984               0.000188161               0.001044463               0.999999984               0.000157494               0.001021902               0.999999984               0.000149553               0.001020547               0.999999984               0.000150641               0.001032750               0.999999984               0.000154631               0.001053211               0.999999984               0.000158424               0.001078261               0.999999984               0.000160236               0.001105489               0.999999984               0.000158951               0.001132862               0.999999984               0.000154139               0.001159360               0.999999984               0.000145301               0.001184272               0.999999984               0.000132181               0.001207396               0.999999984               0.000114590               0.001228495               0.999999984               0.000092176               0.001247633               0.999999984               0.000064813               0.001264845               0.999999984               0.000032961               0.001280494               0.999999984              -0.000002397               0.001295229               0.999999984               0.000224345               0.001153661               0.999999984               0.000146938               0.001123106               0.999999984               0.000117236               0.001108371               0.999999984               0.000107734               0.001108723               0.999999984               0.000107057               0.001120362               0.999999984               0.000109650               0.001139917               0.999999984               0.000112494               0.001164527               0.999999984               0.000114212               0.001192219               0.999999984               0.000113781               0.001221320               0.999999984               0.000110446               0.001250562               0.999999984               0.000103610               0.001279040               0.999999984               0.000092768               0.001306341               0.999999984               0.000077465               0.001332044               0.999999984               0.000057217               0.001356026               0.999999984               0.000031594               0.001378143               0.999999984               0.000000094               0.001398632               0.999999984              -0.000037358               0.001417792               0.999999984               0.000170099               0.001197986               0.999999984               0.000108149               0.001188313               0.999999984               0.000082269               0.001182733               0.999999984               0.000072618               0.001186686               0.999999984               0.000070562               0.001199473               0.999999984               0.000071768               0.001219249               0.999999984               0.000073672               0.001244159               0.999999984               0.000074940               0.001272488               0.999999984               0.000074818               0.001303000               0.999999984               0.000072681               0.001334712               0.999999984               0.000067729               0.001366634               0.999999984               0.000059363               0.001398163               0.999999984               0.000047009               0.001428733               0.999999984               0.000030077               0.001457987               0.999999984               0.000007700               0.001485609               0.999999984              -0.000021089               0.001511583               0.999999984              -0.000057347               0.001535871               0.999999984               0.000114316               0.001230121               0.999999984               0.000071136               0.001237126               0.999999984               0.000051927               0.001240172               0.999999984               0.000044046               0.001248280               0.999999984               0.000041645               0.001263035               0.999999984               0.000041869               0.001283854               0.999999984               0.000042919               0.001309549               0.999999984               0.000043686               0.001338840               0.999999984               0.000043571               0.001370700               0.999999984               0.000042139               0.001404409               0.999999984               0.000038893               0.001439208               0.999999984               0.000033162               0.001474359               0.999999984               0.000024459               0.001509242               0.999999984               0.000012197               0.001543429               0.999999984              -0.000004588               0.001576476               0.999999984              -0.000026838               0.001607921               0.999999984              -0.000056352               0.001637430               0.999999984               0.000057444               0.001249723               0.999999984               0.000035266               0.001267389               0.999999984               0.000025026               0.001276446               0.999999984               0.000020604               0.001287977               0.999999984               0.000019031               0.001304536               0.999999984               0.000018887               0.001326324               0.999999984               0.000019287               0.001352876               0.999999984               0.000019659               0.001383075               0.999999984               0.000019592               0.001416066               0.999999984               0.000018738               0.001451190               0.999999984               0.000017044               0.001487800               0.999999984               0.000014228               0.001525313               0.999999984               0.000009698               0.001563152               0.999999984               0.000003166               0.001600780               0.999999984              -0.000005700               0.001637643               0.999999984              -0.000017892               0.001673225               0.999999984              -0.000034695               0.001706901               0.999999984               0.000000000               0.001256331               0.999999984              -0.000000000               0.001277677               0.999999984               0.000000000               0.001288832               0.999999984               0.000000000               0.001301583               0.999999984              -0.000000000               0.001318978               0.999999984              -0.000000000               0.001341270               0.999999984               0.000000000               0.001368080               0.999999984               0.000000000               0.001398644               0.999999984              -0.000000000               0.001432160               0.999999984              -0.000000000               0.001467771               0.999999984              -0.000000000               0.001504954               0.999999984               0.000000000               0.001543283               0.999999984               0.000000000               0.001582163               0.999999984              -0.000000000               0.001620950               0.999999984               0.000000000               0.001659160               0.999999984               0.000000000               0.001696321               0.999999984               0.000000000               0.001731571               0.999999984 </DataArray>
<DataArray type="Float64"                                    Name="stress"                                                      NumberOfComponents="10" format="ascii">
              0.002040964               0.022154262              -0.000000000              -0.002003916               0.008052652               0.006048736               0.000000000               0.000000000               0.000000000               0.000000000               0.002043891               0.017399266               0.000000000              -0.001408445               0.006269179               0.004860734               0.000000000               0.000000000               0.000000000               0.000000000               0.002699780               0.013554088               0.000000000              -0.000681842               0.004745265               0.004063423               0.000000000               0.000000000               0.000000000               0.000000000               0.002608476               0.011408377              -0.000000000              -0.000447868               0.003952044               0.003504176               0.000000000               0.000000000               0.000000000               0.000000000               0.002291814               0.010081848              -0.000000000              -0.000400800               0.003494182               0.003093383               0.000000000               0.000000000               0.000000000               0.000000000               0.001932457               0.009182429               0.000000000              -0.000423131               0.003201823               0.002778691               0.000000000               0.000000000               0.000000000               0.000000000               0.001590266               0.008507584               0.000000000              -0.000467097               0.002991532               0.002524435               0.000000000               0.000000000               0.000000000               0.000000000               0.001282359               0.007957986               0.000000000              -0.000513862               0.002823923               0.002310060               0.000000000               0.000000000               0.000000000               0.000000000               0.001010716               0.007489007              -0.000000000              -0.000557106               0.002682013               0.002124907               0.000000000               0.000000000               0.000000000               0.000000000               0.000770275               0.007064255              -0.000000000              -0.000594177               0.002552787               0.001958610               0.000000000               0.000000000               0.000000000               0.000000000               0.000556498               0.006661081               0.000000000              -0.000623947               0.002428320               0.001804374               0.000000000               0.000000000               0.000000000               0.000000000               0.000380805               0.006269156              -0.000000000              -0.000640841               0.002303312               0.001662470               0.000000000               0.000000000               0.000000000               0.000000000               0.000243067               0.005868843               0.000000000              -0.000642454               0.002170413               0.001527959               0.000000000               0.000000000               0.000000000               0.000000000               0.000133657               0.005441336               0.000000000              -0.000630044               0.002023775               0.001393731               0.000000000               0.000000000               0.000000000               0.000000000               0.000057068               0.004970584               0.000000000              -0.000599921               0.001856819               0.001256897               0.000000000               0.000000000               0.000000000               0.000000000               0.000016662               0.004434940              -0.000000000              -0.000548118               0.001661005               0.001112887               0.000000000               0.000000000               0.000000000               0.000000000              -0.000038016               0.004022013              -0.000000000              -0.000517007               0.001512993               0.000995987               0.000000000               0.000000000               0.000000000               0.000000000               0.002117865               0.021709911              -0.001521230              -0.001919535               0.007876410               0.005956875               0.000000000               0.000000000               0.000000000               0.000000000               0.002012132               0.017110760              -0.000771397              -0.001384292               0.006164960               0.004780668               0.000000000               0.000000000               0.000000000               0.000000000               0.002552323               0.013432393              -0.000021039              -0.000721926               0.004718062               0.003996136               0.000000000               0.000000000               0.000000000               0.000000000               0.002416517               0.011374431               0.000298493              -0.000515609               0.003963309               0.003447700               0.000000000               0.000000000               0.000000000               0.000000000               0.002086713               0.010092657               0.000429796              -0.000479064               0.003523873               0.003044810               0.000000000               0.000000000               0.000000000               0.000000000               0.001726329               0.009213166               0.000470074              -0.000504271               0.003239115               0.002734844               0.000000000               0.000000000               0.000000000               0.000000000               0.001394092               0.008547990               0.000466596              -0.000545713               0.003031206               0.002485493               0.000000000               0.000000000               0.000000000               0.000000000               0.001107906               0.008008573               0.000449502              -0.000585606               0.002864699               0.002279094               0.000000000               0.000000000               0.000000000               0.000000000               0.000862424               0.007544165               0.000429030              -0.000619610               0.002721233               0.002101623               0.000000000               0.000000000               0.000000000               0.000000000               0.000651499               0.007124608               0.000406923              -0.000646262               0.002590266               0.001944004               0.000000000               0.000000000               0.000000000               0.000000000               0.000467832               0.006728285               0.000386664              -0.000665597               0.002464605               0.001799008               0.000000000               0.000000000               0.000000000               0.000000000               0.000312466               0.006342058               0.000362906              -0.000675581               0.002339192               0.001663611               0.000000000               0.000000000               0.000000000               0.000000000               0.000191011               0.005952495               0.000330060              -0.000672431               0.002208289               0.001535858               0.000000000               0.000000000               0.000000000               0.000000000               0.000098212               0.005546202               0.000286420              -0.000656444               0.002067530               0.001411086               0.000000000               0.000000000               0.000000000               0.000000000               0.000033126               0.005111379               0.000223663              -0.000626498               0.001912609               0.001286110               0.000000000               0.000000000               0.000000000               0.000000000               0.000003915               0.004634739               0.000128715              -0.000577873               0.001737522               0.001159649               0.000000000               0.000000000               0.000000000               0.000000000              -0.000037865               0.004277926               0.000077914              -0.000548939               0.001608941               0.001060002               0.000000000               0.000000000               0.000000000               0.000000000               0.002310375               0.020434489              -0.002831238              -0.001687917               0.007374067               0.005686150               0.000000000               0.000000000               0.000000000               0.000000000               0.001900161               0.016287517              -0.001434166              -0.001323376               0.005870243               0.004546867               0.000000000               0.000000000               0.000000000               0.000000000               0.002115826               0.013083336              -0.000052759              -0.000841980               0.004641728               0.003799748               0.000000000               0.000000000               0.000000000               0.000000000               0.001862243               0.011263939               0.000513634              -0.000709650               0.003991159               0.003281509               0.000000000               0.000000000               0.000000000               0.000000000               0.001512031               0.010102806               0.000738009              -0.000695838               0.003599514               0.002903677               0.000000000               0.000000000               0.000000000               0.000000000               0.001177897               0.009284459               0.000804012              -0.000718844               0.003334403               0.002615559               0.000000000               0.000000000               0.000000000               0.000000000               0.000894386               0.008655649               0.000797599              -0.000746560               0.003134041               0.002387481               0.000000000               0.000000000               0.000000000               0.000000000               0.000663001               0.008136350               0.000766454              -0.000768417               0.002968228               0.002199812               0.000000000               0.000000000               0.000000000               0.000000000               0.000480352               0.007683445               0.000727318              -0.000780297               0.002821222               0.002040925               0.000000000               0.000000000               0.000000000               0.000000000               0.000335595               0.007269812               0.000684918              -0.000782877               0.002684205               0.001901328               0.000000000               0.000000000               0.000000000               0.000000000               0.000215475               0.006878538               0.000642351              -0.000779013               0.002552494               0.001773481               0.000000000               0.000000000               0.000000000               0.000000000               0.000121094               0.006502441               0.000593499              -0.000767393               0.002423256               0.001655863               0.000000000               0.000000000               0.000000000               0.000000000               0.000056165               0.006136234               0.000532145              -0.000745966               0.002294046               0.001548081               0.000000000               0.000000000               0.000000000               0.000000000               0.000012081               0.005774964               0.000455067              -0.000717339               0.002164082               0.001446743               0.000000000               0.000000000               0.000000000               0.000000000              -0.000013262               0.005418230               0.000349730              -0.000682250               0.002033475               0.001351225               0.000000000               0.000000000               0.000000000               0.000000000              -0.000015603               0.005066968               0.000198043              -0.000639221               0.001902046               0.001262825               0.000000000               0.000000000               0.000000000               0.000000000              -0.000034472               0.004829227               0.000116962              -0.000616579               0.001815252               0.001198674               0.000000000               0.000000000               0.000000000               0.000000000               0.002511672               0.018490727              -0.003773498              -0.001369463               0.006620001               0.005250538               0.000000000               0.000000000               0.000000000               0.000000000               0.001674004               0.015049435              -0.001919529              -0.001253426               0.005434236               0.004180811               0.000000000               0.000000000               0.000000000               0.000000000               0.001436324               0.012556782              -0.000113185              -0.001030974               0.004529210               0.003498236               0.000000000               0.000000000               0.000000000               0.000000000               0.001048107               0.011079211               0.000589667              -0.000991859               0.004023653               0.003031794               0.000000000               0.000000000               0.000000000               0.000000000               0.000705444               0.010086233               0.000853152              -0.000996235               0.003694123               0.002697887               0.000000000               0.000000000               0.000000000               0.000000000               0.000435397               0.009351331               0.000923920              -0.001005640               0.003452292               0.002446652               0.000000000               0.000000000               0.000000000               0.000000000               0.000237347               0.008764728               0.000907127              -0.001006584               0.003257075               0.002250491               0.000000000               0.000000000               0.000000000               0.000000000               0.000096148               0.008265217               0.000861889              -0.000997094               0.003087410               0.002090315               0.000000000               0.000000000               0.000000000               0.000000000              -0.000001575               0.007818678               0.000808702              -0.000977923               0.002932174               0.001954251               0.000000000               0.000000000               0.000000000               0.000000000              -0.000068519               0.007403635               0.000752587              -0.000951147               0.002784903               0.001833756               0.000000000               0.000000000               0.000000000               0.000000000              -0.000112055               0.007015962               0.000696991              -0.000919014               0.002644968               0.001725955               0.000000000               0.000000000               0.000000000               0.000000000              -0.000131622               0.006650065               0.000633419              -0.000880615               0.002510204               0.001629590               0.000000000               0.000000000               0.000000000               0.000000000              -0.000128890               0.006305659               0.000555391              -0.000836539               0.002380712               0.001544173               0.000000000               0.000000000               0.000000000               0.000000000              -0.000115105               0.005985660               0.000462919              -0.000791370               0.002258990               0.001467620               0.000000000               0.000000000               0.000000000               0.000000000              -0.000087225               0.005697386               0.000345287              -0.000744881               0.002147403               0.001402522               0.000000000               0.000000000               0.000000000               0.000000000              -0.000046410               0.005450282               0.000189700              -0.000698687               0.002049638               0.001350951               0.000000000               0.000000000               0.000000000               0.000000000              -0.000039784               0.005304407               0.000109994              -0.000677968               0.001994107               0.001316139               0.000000000               0.000000000               0.000000000               0.000000000               0.002586894               0.016106784              -0.004269233              -0.001043264               0.005716628               0.004673364               0.000000000               0.000000000               0.000000000               0.000000000               0.001303782               0.013562895              -0.002205292              -0.001206442               0.004923067               0.003716625               0.000000000               0.000000000               0.000000000               0.000000000               0.000597919               0.011924311              -0.000226160              -0.001266316               0.004396836               0.003130520               0.000000000               0.000000000               0.000000000               0.000000000               0.000119116               0.010826788               0.000494466              -0.001308677               0.004045119               0.002736442               0.000000000               0.000000000               0.000000000               0.000000000              -0.000169818               0.010011338               0.000749180              -0.001315096               0.003775445               0.002460349               0.000000000               0.000000000               0.000000000               0.000000000              -0.000334733               0.009355651               0.000812476              -0.001294978               0.003550179               0.002255200               0.000000000               0.000000000               0.000000000               0.000000000              -0.000420001               0.008795868               0.000792804              -0.001256981               0.003350920               0.002093939               0.000000000               0.000000000               0.000000000               0.000000000              -0.000451795               0.008301616               0.000746224              -0.001207122               0.003169552               0.001962429               0.000000000               0.000000000               0.000000000               0.000000000              -0.000448915               0.007848977               0.000691147              -0.001149463               0.002999454               0.001849991               0.000000000               0.000000000               0.000000000               0.000000000              -0.000427688               0.007428900               0.000637117              -0.001088993               0.002839273               0.001750280               0.000000000               0.000000000               0.000000000               0.000000000              -0.000395100               0.007042926               0.000584336              -0.001028526               0.002690461               0.001661935               0.000000000               0.000000000               0.000000000               0.000000000              -0.000352716               0.006688180               0.000520410              -0.000968289               0.002552134               0.001583845               0.000000000               0.000000000               0.000000000               0.000000000              -0.000296820               0.006367533               0.000444663              -0.000907247               0.002424906               0.001517658               0.000000000               0.000000000               0.000000000               0.000000000              -0.000229129               0.006083760               0.000360028              -0.000846391               0.002310030               0.001463639               0.000000000               0.000000000               0.000000000               0.000000000              -0.000155189               0.005838984               0.000259388              -0.000788067               0.002208998               0.001420931               0.000000000               0.000000000               0.000000000               0.000000000              -0.000077695               0.005646769               0.000137052              -0.000734980               0.002127231               0.001392251               0.000000000               0.000000000               0.000000000               0.000000000              -0.000051624               0.005544773               0.000078118              -0.000712454               0.002085724               0.001373270               0.000000000               0.000000000               0.000000000               0.000000000               0.002428792               0.013525291              -0.004320497              -0.000779867               0.004768340               0.003988473               0.000000000               0.000000000               0.000000000               0.000000000               0.000788913               0.011988283              -0.002315781              -0.001202691               0.004396951               0.003194260               0.000000000               0.000000000               0.000000000               0.000000000              -0.000303295               0.011242767              -0.000417430              -0.001519078               0.004253911               0.002734833               0.000000000               0.000000000               0.000000000               0.000000000              -0.000784277               0.010504080               0.000235181              -0.001607110               0.004037028               0.002429918               0.000000000               0.000000000               0.000000000               0.000000000              -0.000965104               0.009838278               0.000463872              -0.001591695               0.003809958               0.002218263               0.000000000               0.000000000               0.000000000               0.000000000              -0.000996660               0.009237766               0.000526515              -0.001528465               0.003588713               0.002060248               0.000000000               0.000000000               0.000000000               0.000000000              -0.000954356               0.008691697               0.000518444              -0.001444342               0.003378651               0.001934308               0.000000000               0.000000000               0.000000000               0.000000000              -0.000875362               0.008192062               0.000486476              -0.001352265               0.003181415               0.001829150               0.000000000               0.000000000               0.000000000               0.000000000              -0.000779517               0.007730181               0.000445945              -0.001258588               0.002996231               0.001737642               0.000000000               0.000000000               0.000000000               0.000000000              -0.000677185               0.007305125               0.000408724              -0.001167082               0.002824045               0.001656962               0.000000000               0.000000000               0.000000000               0.000000000              -0.000576412               0.006920653               0.000376705              -0.001081233               0.002667273               0.001586039               0.000000000               0.000000000               0.000000000               0.000000000              -0.000478209               0.006579367               0.000335603              -0.001001747               0.002527016               0.001525269               0.000000000               0.000000000               0.000000000               0.000000000              -0.000376309               0.006283958               0.000282678              -0.000926608               0.002403501               0.001476893               0.000000000               0.000000000               0.000000000               0.000000000              -0.000270966               0.006028902               0.000220730              -0.000855223               0.002294688               0.001439465               0.000000000               0.000000000               0.000000000               0.000000000              -0.000169426               0.005815547               0.000151054              -0.000790476               0.002201988               0.001411512               0.000000000               0.000000000               0.000000000               0.000000000              -0.000079071               0.005659177               0.000077132              -0.000737047               0.002132056               0.001395009               0.000000000               0.000000000               0.000000000               0.000000000              -0.000049084               0.005582376               0.000045807              -0.000716202               0.002099507               0.001383305               0.000000000               0.000000000               0.000000000               0.000000000               0.001971971               0.010963856              -0.003999627              -0.000630995               0.003864913               0.003233917               0.000000000               0.000000000               0.000000000               0.000000000               0.000159916               0.010451496              -0.002302406              -0.001246467               0.003899286               0.002652818               0.000000000               0.000000000               0.000000000               0.000000000              -0.001160487               0.010537473              -0.000690609              -0.001752363               0.004096577               0.002344214               0.000000000               0.000000000               0.000000000               0.000000000              -0.001546998               0.010095017              -0.000144350              -0.001841997               0.003978971               0.002136974               0.000000000               0.000000000               0.000000000               0.000000000              -0.001581719               0.009542784               0.000064730              -0.001785988               0.003776226               0.001990237               0.000000000               0.000000000               0.000000000               0.000000000              -0.001474824               0.008983768               0.000142640              -0.001676026               0.003553235               0.001877209               0.000000000               0.000000000               0.000000000               0.000000000              -0.001308501               0.008447588               0.000161820              -0.001546633               0.003331379               0.001784746               0.000000000               0.000000000               0.000000000               0.000000000              -0.001123713               0.007946275               0.000160318              -0.001414673               0.003120290               0.001705617               0.000000000               0.000000000               0.000000000               0.000000000              -0.000944980               0.007482636               0.000152021              -0.001289694               0.002924085               0.001634391               0.000000000               0.000000000               0.000000000               0.000000000              -0.000779073               0.007062450               0.000149075              -0.001174956               0.002745778               0.001570823               0.000000000               0.000000000               0.000000000               0.000000000              -0.000625259               0.006690189               0.000153148              -0.001070743               0.002586955               0.001516212               0.000000000               0.000000000               0.000000000               0.000000000              -0.000483635               0.006365402               0.000148799              -0.000977036               0.002447458               0.001470422               0.000000000               0.000000000               0.000000000               0.000000000              -0.000352203               0.006085505               0.000128502              -0.000892762               0.002326069               0.001433307               0.000000000               0.000000000               0.000000000               0.000000000              -0.000229772               0.005847580               0.000095881              -0.000817110               0.002221544               0.001404434               0.000000000               0.000000000               0.000000000               0.000000000              -0.000125960               0.005660644               0.000061329              -0.000754814               0.002138467               0.001383653               0.000000000               0.000000000               0.000000000               0.000000000              -0.000051850               0.005532815               0.000030124              -0.000711044               0.002081268               0.001370224               0.000000000               0.000000000               0.000000000               0.000000000              -0.000031104               0.005472200               0.000019900              -0.000695687               0.002055944               0.001360257               0.000000000               0.000000000               0.000000000               0.000000000               0.001240206               0.008590207              -0.003403807              -0.000608700               0.003066273               0.002457572               0.000000000               0.000000000               0.000000000               0.000000000              -0.000544623               0.009042760              -0.002210870              -0.001334577               0.003459082               0.002124505               0.000000000               0.000000000               0.000000000               0.000000000              -0.001891268               0.009803367              -0.001031574              -0.001934642               0.003912637               0.001977995               0.000000000               0.000000000               0.000000000               0.000000000              -0.002101538               0.009585569              -0.000584806              -0.001986268               0.003857247               0.001870979               0.000000000               0.000000000               0.000000000               0.000000000              -0.001969148               0.009131272              -0.000372614              -0.001879835               0.003670339               0.001790504               0.000000000               0.000000000               0.000000000               0.000000000              -0.001734085               0.008611350              -0.000263386              -0.001726696               0.003445987               0.001719291               0.000000000               0.000000000               0.000000000               0.000000000              -0.001468071               0.008090799              -0.000203011              -0.001561873               0.003217530               0.001655658               0.000000000               0.000000000               0.000000000               0.000000000              -0.001201794               0.007598989              -0.000157467              -0.001400543               0.002999819               0.001599276               0.000000000               0.000000000               0.000000000               0.000000000              -0.000957721               0.007148379              -0.000117763              -0.001252690               0.002800332               0.001547643               0.000000000               0.000000000               0.000000000               0.000000000              -0.000746124               0.006747508              -0.000078135              -0.001123232               0.002623557               0.001500325               0.000000000               0.000000000               0.000000000               0.000000000              -0.000562101               0.006394819              -0.000036537              -0.001010138               0.002468298               0.001458160               0.000000000               0.000000000               0.000000000               0.000000000              -0.000399975               0.006083553              -0.000005376              -0.000910432               0.002331308               0.001420876               0.000000000               0.000000000               0.000000000               0.000000000              -0.000260655               0.005811238               0.000007007              -0.000824148               0.002211776               0.001387628               0.000000000               0.000000000               0.000000000               0.000000000              -0.000150321               0.005589234               0.000006396              -0.000755023               0.002114734               0.001359711               0.000000000               0.000000000               0.000000000               0.000000000              -0.000074857               0.005428829               0.000004448              -0.000706673               0.002045149               0.001338476               0.000000000               0.000000000               0.000000000               0.000000000              -0.000029846               0.005323986               0.000003977              -0.000676689               0.002000207               0.001323518               0.000000000               0.000000000               0.000000000               0.000000000              -0.000017987               0.005273582               0.000007018              -0.000665941               0.001979823               0.001313882               0.000000000               0.000000000               0.000000000               0.000000000               0.000351461               0.006579160              -0.002646583              -0.000690598               0.002423230               0.001732632               0.000000000               0.000000000               0.000000000               0.000000000              -0.001225643               0.007776277              -0.002089500              -0.001431648               0.003069282               0.001637634               0.000000000               0.000000000               0.000000000               0.000000000              -0.002447220               0.009063637              -0.001430336              -0.002050657               0.003704734               0.001654077               0.000000000               0.000000000               0.000000000               0.000000000              -0.002468417               0.009078704              -0.001048023              -0.002060489               0.003713034               0.001652545               0.000000000               0.000000000               0.000000000               0.000000000              -0.002204884               0.008740831              -0.000812727              -0.001919431               0.003553391               0.001633961               0.000000000               0.000000000               0.000000000               0.000000000              -0.001869678               0.008286841              -0.000661552              -0.001736980               0.003341246               0.001604266               0.000000000               0.000000000               0.000000000               0.000000000              -0.001524618               0.007808262              -0.000549104              -0.001547761               0.003118648               0.001570887               0.000000000               0.000000000               0.000000000               0.000000000              -0.001199734               0.007346300              -0.000451650              -0.001368184               0.002904804               0.001536619               0.000000000               0.000000000               0.000000000               0.000000000              -0.000912609               0.006921830              -0.000365348              -0.001207454               0.002709738               0.001502284               0.000000000               0.000000000               0.000000000               0.000000000              -0.000667205               0.006544853              -0.000288227              -0.001068306               0.002537698               0.001469392               0.000000000               0.000000000               0.000000000               0.000000000              -0.000460878               0.006207946              -0.000215810              -0.000948820               0.002385568               0.001436748               0.000000000               0.000000000               0.000000000               0.000000000              -0.000291212               0.005896768              -0.000151484              -0.000846298               0.002247669               0.001401371               0.000000000               0.000000000               0.000000000               0.000000000              -0.000166077               0.005620330              -0.000098794              -0.000764818               0.002128364               0.001363546               0.000000000               0.000000000               0.000000000               0.000000000              -0.000094517               0.005402406              -0.000058241              -0.000710743               0.002037698               0.001326955               0.000000000               0.000000000               0.000000000               0.000000000              -0.000067185               0.005252631              -0.000028805              -0.000681772               0.001978117               0.001296345               0.000000000               0.000000000               0.000000000               0.000000000              -0.000065642               0.005152026              -0.000007895              -0.000668617               0.001940197               0.001271580               0.000000000               0.000000000               0.000000000               0.000000000              -0.000068004               0.005104825               0.000001747              -0.000663603               0.001922792               0.001259189               0.000000000               0.000000000               0.000000000               0.000000000              -0.000712925               0.004697941              -0.001839770              -0.000854589               0.001850827               0.000996238               0.000000000               0.000000000               0.000000000               0.000000000              -0.001783710               0.006295373              -0.001949375              -0.001455810               0.002583706               0.001127896               0.000000000               0.000000000               0.000000000               0.000000000              -0.002747218               0.007960280              -0.001854585              -0.002025237               0.003328479               0.001303242               0.000000000               0.000000000               0.000000000               0.000000000              -0.002672326               0.008316576              -0.001547603              -0.002041690               0.003452727               0.001411038               0.000000000               0.000000000               0.000000000               0.000000000              -0.002355381               0.008210314              -0.001283936              -0.001909553               0.003373261               0.001463709               0.000000000               0.000000000               0.000000000               0.000000000              -0.001993055               0.007927659              -0.001081682              -0.001738349               0.003221976               0.001483627               0.000000000               0.000000000               0.000000000               0.000000000              -0.001633983               0.007572306              -0.000916767              -0.001559278               0.003043836               0.001484558               0.000000000               0.000000000               0.000000000               0.000000000              -0.001295622               0.007201526              -0.000773853              -0.001386046               0.002862500               0.001476454               0.000000000               0.000000000               0.000000000               0.000000000              -0.000992843               0.006842879              -0.000649663              -0.001227673               0.002690161               0.001462488               0.000000000               0.000000000               0.000000000               0.000000000              -0.000727178               0.006508856              -0.000541895              -0.001086296               0.002531696               0.001445400               0.000000000               0.000000000               0.000000000               0.000000000              -0.000505952               0.006195638              -0.000440495              -0.000964185               0.002386587               0.001422402               0.000000000               0.000000000               0.000000000               0.000000000              -0.000327012               0.005904498              -0.000340327              -0.000860690               0.002255043               0.001394353               0.000000000               0.000000000               0.000000000               0.000000000              -0.000194794               0.005636778              -0.000238038              -0.000777643               0.002138122               0.001360478               0.000000000               0.000000000               0.000000000               0.000000000              -0.000121047               0.005404342              -0.000146840              -0.000720934               0.002041741               0.001320807               0.000000000               0.000000000               0.000000000               0.000000000              -0.000104660               0.005223327              -0.000074737              -0.000692161               0.001971812               0.001279651               0.000000000               0.000000000               0.000000000               0.000000000              -0.000128795               0.005095140              -0.000023554              -0.000685189               0.001926759               0.001241571               0.000000000               0.000000000               0.000000000               0.000000000              -0.000152312               0.005039074              -0.000001912              -0.000687000               0.001908675               0.001221675               0.000000000               0.000000000               0.000000000               0.000000000              -0.002099132               0.002975905              -0.001036414              -0.001159160               0.001378345               0.000219184               0.000000000               0.000000000               0.000000000               0.000000000              -0.002414823               0.004797883              -0.001740676              -0.001505291               0.002101042               0.000595750               0.000000000               0.000000000               0.000000000               0.000000000              -0.002950240               0.006672045              -0.002187762              -0.001940342               0.002870773               0.000930431               0.000000000               0.000000000               0.000000000               0.000000000              -0.002789935               0.007347423              -0.002020467              -0.001964649               0.003103999               0.001139350               0.000000000               0.000000000               0.000000000               0.000000000              -0.002446062               0.007513622              -0.001760774              -0.001856472               0.003123339               0.001266867               0.000000000               0.000000000               0.000000000               0.000000000              -0.002079341               0.007447263              -0.001519142              -0.001710657               0.003052615               0.001341958               0.000000000               0.000000000               0.000000000               0.000000000              -0.001722850               0.007262827              -0.001310767              -0.001553919               0.002938891               0.001384972               0.000000000               0.000000000               0.000000000               0.000000000              -0.001382166               0.007021998              -0.001132405              -0.001396059               0.002805995               0.001409937               0.000000000               0.000000000               0.000000000               0.000000000              -0.001066608               0.006758421              -0.000981239              -0.001244778               0.002667710               0.001422933               0.000000000               0.000000000               0.000000000               0.000000000              -0.000784277               0.006489519              -0.000849395              -0.001105291               0.002531582               0.001426291               0.000000000               0.000000000               0.000000000               0.000000000              -0.000543682               0.006222615              -0.000722680              -0.000981705               0.002401419               0.001419714               0.000000000               0.000000000               0.000000000               0.000000000              -0.000348202               0.005967187              -0.000594861              -0.000876472               0.002281200               0.001404728               0.000000000               0.000000000               0.000000000               0.000000000              -0.000197433               0.005721034              -0.000456161              -0.000789165               0.002170047               0.001380882               0.000000000               0.000000000               0.000000000               0.000000000              -0.000098069               0.005491272              -0.000315039              -0.000723183               0.002071467               0.001348284               0.000000000               0.000000000               0.000000000               0.000000000              -0.000067173               0.005285831              -0.000184785              -0.000685917               0.001990565               0.001304648               0.000000000               0.000000000               0.000000000               0.000000000              -0.000100463               0.005125311              -0.000078073              -0.000678336               0.001934532               0.001256196               0.000000000               0.000000000               0.000000000               0.000000000              -0.000149634               0.005046664              -0.000025112              -0.000686944               0.001911186               0.001224242               0.000000000               0.000000000               0.000000000               0.000000000              -0.003704162               0.001545496              -0.000298376              -0.001582245               0.001042573              -0.000539672               0.000000000               0.000000000               0.000000000               0.000000000              -0.003164201               0.003379693              -0.001439654              -0.001609034               0.001662897               0.000053863               0.000000000               0.000000000               0.000000000               0.000000000              -0.003098129               0.005216949              -0.002321384              -0.001813913               0.002343602               0.000529689               0.000000000               0.000000000               0.000000000               0.000000000              -0.002783666               0.006114018              -0.002332649              -0.001808123               0.002640693               0.000832569               0.000000000               0.000000000               0.000000000               0.000000000              -0.002403274               0.006534889              -0.002123223              -0.001718085               0.002750969               0.001032884               0.000000000               0.000000000               0.000000000               0.000000000              -0.002031329               0.006694385              -0.001877073              -0.001598543               0.002764287               0.001165743               0.000000000               0.000000000               0.000000000               0.000000000              -0.001683503               0.006703377              -0.001646415              -0.001469233               0.002724180               0.001254948               0.000000000               0.000000000               0.000000000               0.000000000              -0.001350018               0.006620186              -0.001447382              -0.001333777               0.002651299               0.001317522               0.000000000               0.000000000               0.000000000               0.000000000              -0.001030765               0.006479885              -0.001280648              -0.001196520               0.002558780               0.001362260               0.000000000               0.000000000               0.000000000               0.000000000              -0.000739420               0.006306925              -0.001132520              -0.001065646               0.002457503               0.001391857               0.000000000               0.000000000               0.000000000               0.000000000              -0.000480355               0.006119594              -0.000989594              -0.000945080               0.002354871               0.001409791               0.000000000               0.000000000               0.000000000               0.000000000              -0.000261437               0.005924908              -0.000845066              -0.000838650               0.002254500               0.001415849               0.000000000               0.000000000               0.000000000               0.000000000              -0.000086596               0.005723065              -0.000688252              -0.000747855               0.002156954               0.001409099               0.000000000               0.000000000               0.000000000               0.000000000               0.000042017               0.005519691              -0.000516782              -0.000674204               0.002064613               0.001390409               0.000000000               0.000000000               0.000000000               0.000000000               0.000109938               0.005321146              -0.000338348              -0.000623915               0.001981669               0.001357754               0.000000000               0.000000000               0.000000000               0.000000000               0.000099831               0.005148341              -0.000164150              -0.000606105               0.001918131               0.001312027               0.000000000               0.000000000               0.000000000               0.000000000               0.000050027               0.005056016              -0.000071888              -0.000613240               0.001889735               0.001276495               0.000000000               0.000000000               0.000000000               0.000000000              -0.005415295               0.000486642               0.000274723              -0.002091564               0.000859396              -0.001232168               0.000000000               0.000000000               0.000000000               0.000000000              -0.003989510               0.002118269              -0.001087077              -0.001760847               0.001293030              -0.000467817               0.000000000               0.000000000               0.000000000               0.000000000              -0.003215312               0.003722324              -0.002226715              -0.001671029               0.001797771               0.000126741               0.000000000               0.000000000               0.000000000               0.000000000              -0.002677191               0.004727067              -0.002401090              -0.001594827               0.002107281               0.000512454               0.000000000               0.000000000               0.000000000               0.000000000              -0.002239272               0.005344143              -0.002273996              -0.001507742               0.002283943               0.000776201               0.000000000               0.000000000               0.000000000               0.000000000              -0.001854666               0.005711388              -0.002060687              -0.001409421               0.002373583               0.000964162               0.000000000               0.000000000               0.000000000               0.000000000              -0.001509528               0.005912629              -0.001841109              -0.001305149               0.002405906               0.001100757               0.000000000               0.000000000               0.000000000               0.000000000              -0.001189552               0.005998865              -0.001642621              -0.001195938               0.002398247               0.001202309               0.000000000               0.000000000               0.000000000               0.000000000              -0.000882524               0.006005035              -0.001470404              -0.001081574               0.002362183               0.001280609               0.000000000               0.000000000               0.000000000               0.000000000              -0.000591125               0.005953583              -0.001316556              -0.000965868               0.002306464               0.001340596               0.000000000               0.000000000               0.000000000               0.000000000              -0.000319058               0.005867652              -0.001169616              -0.000853102               0.002240232               0.001387130               0.000000000               0.000000000               0.000000000               0.000000000              -0.000073165               0.005755834              -0.001020741              -0.000746915               0.002167563               0.001420649               0.000000000               0.000000000               0.000000000               0.000000000               0.000140452               0.005621320              -0.000860766              -0.000649994               0.002090419               0.001440425               0.000000000               0.000000000               0.000000000               0.000000000               0.000318103               0.005469170              -0.000681969              -0.000564356               0.002011157               0.001446801               0.000000000               0.000000000               0.000000000               0.000000000               0.000448779               0.005309351              -0.000478322              -0.000495375               0.001934891               0.001439515               0.000000000               0.000000000               0.000000000               0.000000000               0.000510613               0.005153836              -0.000248989              -0.000452749               0.001868844               0.001416096               0.000000000               0.000000000               0.000000000               0.000000000               0.000511072               0.005070317              -0.000126161              -0.000442137               0.001837468               0.001395331               0.000000000               0.000000000               0.000000000               0.000000000              -0.007062258              -0.000205161               0.000594026              -0.002622700               0.000805840              -0.001816859               0.000000000               0.000000000               0.000000000               0.000000000              -0.004818742               0.001090582              -0.000736218              -0.001943349               0.001011303              -0.000932046               0.000000000               0.000000000               0.000000000               0.000000000              -0.003323045               0.002338573              -0.001905353              -0.001538461               0.001292335              -0.000246126               0.000000000               0.000000000               0.000000000               0.000000000              -0.002506114               0.003347518              -0.002175794              -0.001358230               0.001568570               0.000210340               0.000000000               0.000000000               0.000000000               0.000000000              -0.001977211               0.004089101              -0.002131960              -0.001252589               0.001780549               0.000527959               0.000000000               0.000000000               0.000000000               0.000000000              -0.001572349               0.004619877              -0.001979330              -0.001167114               0.001928981               0.000761867               0.000000000               0.000000000               0.000000000               0.000000000              -0.001228548               0.004985599              -0.001799826              -0.001083904               0.002023150               0.000939247               0.000000000               0.000000000               0.000000000               0.000000000              -0.000925052               0.005224338              -0.001626614              -0.000999935               0.002074740               0.001074805               0.000000000               0.000000000               0.000000000               0.000000000              -0.000639662               0.005376988              -0.001469947              -0.000911995               0.002096309               0.001184314               0.000000000               0.000000000               0.000000000               0.000000000              -0.000360872               0.005460664              -0.001326766              -0.000817909               0.002092839               0.001274930               0.000000000               0.000000000               0.000000000               0.000000000              -0.000085488               0.005490597              -0.001189551              -0.000718381               0.002069641               0.001351260               0.000000000               0.000000000               0.000000000               0.000000000               0.000183012               0.005477326              -0.001051734              -0.000616035               0.002031102               0.001415067               0.000000000               0.000000000               0.000000000               0.000000000               0.000442998               0.005428095              -0.000906221              -0.000512387               0.001980142               0.001467756               0.000000000               0.000000000               0.000000000               0.000000000               0.000691166               0.005349079              -0.000740547              -0.000409447               0.001919491               0.001510044               0.000000000               0.000000000               0.000000000               0.000000000               0.000919148               0.005248392              -0.000541256              -0.000311368               0.001853236               0.001541868               0.000000000               0.000000000               0.000000000               0.000000000               0.001114460               0.005131128              -0.000295550              -0.000223468               0.001784848               0.001561380               0.000000000               0.000000000               0.000000000               0.000000000               0.001226734               0.005076480              -0.000164698              -0.000174534               0.001750321               0.001575787               0.000000000               0.000000000               0.000000000               0.000000000              -0.008448145              -0.000594411               0.000617379              -0.003093751               0.000833108              -0.002260643               0.000000000               0.000000000               0.000000000               0.000000000              -0.005542083               0.000345906              -0.000433585              -0.002121517               0.000822469              -0.001299049               0.000000000               0.000000000               0.000000000               0.000000000              -0.003422183               0.001217601              -0.001388932              -0.001435517               0.000884366              -0.000551151               0.000000000               0.000000000               0.000000000               0.000000000              -0.002330492               0.002161651              -0.001658091              -0.001144139               0.001101921              -0.000042217               0.000000000               0.000000000               0.000000000               0.000000000              -0.001688900               0.002964359              -0.001666529              -0.001003881               0.001322736               0.000318855               0.000000000               0.000000000               0.000000000               0.000000000              -0.001253306               0.003603831              -0.001576625              -0.000920467               0.001508087               0.000587620               0.000000000               0.000000000               0.000000000               0.000000000              -0.000913492               0.004091406              -0.001454285              -0.000853984               0.001648449               0.000794465               0.000000000               0.000000000               0.000000000               0.000000000              -0.000622124               0.004452299              -0.001328890              -0.000789833               0.001747362               0.000957529               0.000000000               0.000000000               0.000000000               0.000000000              -0.000353204               0.004725205              -0.001210834              -0.000723101               0.001816086               0.001092985               0.000000000               0.000000000               0.000000000               0.000000000              -0.000091627               0.004926981              -0.001100558              -0.000650232               0.001859054               0.001208822               0.000000000               0.000000000               0.000000000               0.000000000               0.000179216               0.005064984              -0.000993655              -0.000565916               0.001876950               0.001311034               0.000000000               0.000000000               0.000000000               0.000000000               0.000465030               0.005147804              -0.000885194              -0.000469089               0.001872280               0.001403192               0.000000000               0.000000000               0.000000000               0.000000000               0.000765242               0.005186774              -0.000771705              -0.000361380               0.001849367               0.001487987               0.000000000               0.000000000               0.000000000               0.000000000               0.001084130               0.005189359              -0.000641785              -0.000242121               0.001810476               0.001568355               0.000000000               0.000000000               0.000000000               0.000000000               0.001425744               0.005155890              -0.000482459              -0.000109832               0.001755224               0.001645391               0.000000000               0.000000000               0.000000000               0.000000000               0.001784884               0.005086937              -0.000271658               0.000033463               0.001684474               0.001717938               0.000000000               0.000000000               0.000000000               0.000000000               0.002043190               0.005071736              -0.000159681               0.000132228               0.001646486               0.001778714               0.000000000               0.000000000               0.000000000               0.000000000              -0.009380761              -0.000782082               0.000381479              -0.003420023               0.000879308              -0.002540715               0.000000000               0.000000000               0.000000000               0.000000000              -0.006037165              -0.000105993              -0.000196267              -0.002250686               0.000714893              -0.001535793               0.000000000               0.000000000               0.000000000               0.000000000              -0.003491448               0.000488655              -0.000730377              -0.001370373               0.000619671              -0.000750702               0.000000000               0.000000000               0.000000000               0.000000000              -0.002202639               0.001359502              -0.000896762              -0.000995926               0.000785137              -0.000210789               0.000000000               0.000000000               0.000000000               0.000000000              -0.001471591               0.002174383              -0.000917303              -0.000823643               0.000999334               0.000175691               0.000000000               0.000000000               0.000000000               0.000000000              -0.001002560               0.002873008              -0.000878412              -0.000735085               0.001202688               0.000467603               0.000000000               0.000000000               0.000000000               0.000000000              -0.000660215               0.003438845              -0.000817687              -0.000677435               0.001372082               0.000694647               0.000000000               0.000000000               0.000000000               0.000000000              -0.000378047               0.003878893              -0.000753008              -0.000626628               0.001501827               0.000875199               0.000000000               0.000000000               0.000000000               0.000000000              -0.000117895               0.004226996              -0.000689354              -0.000572584               0.001599846               0.001027262               0.000000000               0.000000000               0.000000000               0.000000000               0.000139269               0.004501243              -0.000629006              -0.000510428               0.001670542               0.001160114               0.000000000               0.000000000               0.000000000               0.000000000               0.000408193               0.004713162              -0.000572067              -0.000436072               0.001716396               0.001280323               0.000000000               0.000000000               0.000000000               0.000000000               0.000702397               0.004870387              -0.000511765              -0.000345399               0.001738579               0.001393180               0.000000000               0.000000000               0.000000000               0.000000000               0.001029248               0.004977333              -0.000446644              -0.000236198               0.001737827               0.001501629               0.000000000               0.000000000               0.000000000               0.000000000               0.001397593               0.005039388              -0.000375843              -0.000105826               0.001715055               0.001609228               0.000000000               0.000000000               0.000000000               0.000000000               0.001821234               0.005062414              -0.000286666               0.000050160               0.001670734               0.001720895               0.000000000               0.000000000               0.000000000               0.000000000               0.002313047               0.005044446              -0.000161098               0.000236835               0.001602520               0.001839355               0.000000000               0.000000000               0.000000000               0.000000000               0.002698551               0.005067039              -0.000095443               0.000378573               0.001562805               0.001941378               0.000000000               0.000000000               0.000000000               0.000000000              -0.009710140              -0.000837126              -0.000000000              -0.003536659               0.000899838              -0.002636821               0.000000000               0.000000000               0.000000000               0.000000000              -0.006212605              -0.000259031               0.000000000              -0.002297346               0.000679434              -0.001617913               0.000000000               0.000000000               0.000000000               0.000000000              -0.003516234               0.000232821               0.000000000              -0.001347689               0.000526833              -0.000820856               0.000000000               0.000000000               0.000000000               0.000000000              -0.002155128               0.001076721              -0.000000000              -0.000942761               0.000673156              -0.000269605               0.000000000               0.000000000               0.000000000               0.000000000              -0.001389033               0.001894273              -0.000000000              -0.000757670               0.000883974               0.000126305               0.000000000               0.000000000               0.000000000               0.000000000              -0.000906242               0.002606079               0.000000000              -0.000665599               0.001090551               0.000424952               0.000000000               0.000000000               0.000000000               0.000000000              -0.000561647               0.003196732               0.000000000              -0.000610208               0.001268969               0.000658762               0.000000000               0.000000000               0.000000000               0.000000000              -0.000282749               0.003668394              -0.000000000              -0.000564579               0.001410979               0.000846400               0.000000000               0.000000000               0.000000000               0.000000000              -0.000026611               0.004040321              -0.000000000              -0.000515018               0.001518433               0.001003415               0.000000000               0.000000000               0.000000000               0.000000000               0.000232036               0.004335390              -0.000000000              -0.000454909               0.001596752               0.001141843               0.000000000               0.000000000               0.000000000               0.000000000               0.000502894               0.004574866               0.000000000              -0.000383272               0.001652697               0.001269425               0.000000000               0.000000000               0.000000000               0.000000000               0.000797396               0.004760946               0.000000000              -0.000296094               0.001685664               0.001389570               0.000000000               0.000000000               0.000000000               0.000000000               0.001133286               0.004891930              -0.000000000              -0.000186509               0.001692797               0.001506288               0.000000000               0.000000000               0.000000000               0.000000000               0.001520090               0.004975659               0.000000000              -0.000051923               0.001675844               0.001623921               0.000000000               0.000000000               0.000000000               0.000000000               0.001971179               0.005023480               0.000000000               0.000111256               0.001637391               0.001748647               0.000000000               0.000000000               0.000000000               0.000000000               0.002514031               0.005028194               0.000000000               0.000314234               0.001571303               0.001885538               0.000000000               0.000000000               0.000000000               0.000000000               0.002950764               0.005065364               0.000000000               0.000473361               0.001530651               0.002004012               0.000000000               0.000000000               0.000000000               0.000000000               0.000000000               0.000000000               0.000000000               0.000000000               0.000000000               0.000000000               0.000000000               0.000000000               0.000000000               0.000000000               0.000000000               0.000000000               0.000000000               0.000000000               0.000000000               0.000000000               0.000000000               0.000000000               0.000000000               0.000000000               0.000000000               0.000000000               0.000000000               0.000000000               0.000000000               0.000000000               0.000000000               0.000000000               0.000000000               0.000000000               0.000000000               0.000000000               0.000000000               0.000000000               0.000000000               0.000000000               0.000000000               0.000000000               0.000000000               0.000000000               0.000000000               0.000000000               0.000000000               0.000000000               0.000000000               0.000000000               0.000000000               0.000000000               0.000000000               0.000000000               0.000000000               0.000000000               0.000000000               0.000000000               0.000000000               0.000000000               0.000000000               0.000000000               0.000000000               0.000000000               0.000000000               0.000000000               0.000000000               0.000000000               0.000000000               0.000000000               0.000000000               0.000000000               0.000000000               0.000000000               0.000000000               0.000000000               0.000000000               0.000000000               0.000000000               0.000000000               0.000000000               0.000000000               0.000000000               0.000000000               0.000000000               0.000000000               0.000000000               0.000000000               0.000000000               0.000000000               0.000000000               0.000000000               0.000000000               0.000000000               0.000000000               0.000000000               0.000000000               0.000000000               0.000000000               0.000000000               0.000000000               0.000000000               0.000000000               0.000000000               0.000000000               0.000000000               0.000000000               0.000000000               0.000000000               0.000000000               0.000000000               0.000000000               0.000000000               0.000000000               0.000000000               0.000000000               0.000000000               0.000000000               0.000000000               0.000000000               0.000000000               0.000000000               0.000000000               0.000000000               0.000000000               0.000000000               0.000000000               0.000000000               0.000000000               0.000000000               0.000000000               0.000000000               0.000000000               0.000000000               0.000000000               0.000000000               0.000000000               0.000000000               0.000000000               0.000000000               0.000000000               0.000000000               0.000000000               0.000000000               0.000000000               0.000000000               0.000000000               0.000000000               0.000000000               0.000000000               0.000000000               0.000000000               0.000000000               0.000000000               0.000000000               0.000000000               0.000000000               0.000000000               0.000000000               0.000000000               0.000000000               0.000000000               0.000000000               0.000000000               0.000000000               0.000000000               0.000000000               0.000000000               0.000000000               0.000000000               0.000000000               0.000000000               0.000000000               0.000000000               0.002117865               0.021709911               0.001521230              -0.001919535               0.007876410               0.005956875               0.000000000               0.000000000               0.000000000               0.000000000               0.002012132               0.017110760               0.000771397              -0.001384292               0.006164960               0.004780668               0.000000000               0.000000000               0.000000000               0.000000000               0.002552323               0.013432393               0.000021039              -0.000721926               0.004718062               0.003996136               0.000000000               0.000000000               0.000000000               0.000000000               0.002416517               0.011374431              -0.000298493              -0.000515609               0.003963309               0.003447700               0.000000000               0.000000000               0.000000000               0.000000000               0.002086713               0.010092657              -0.000429796              -0.000479064               0.003523873               0.003044810               0.000000000               0.000000000               0.000000000               0.000000000               0.001726329               0.009213166              -0.000470074              -0.000504271               0.003239115               0.002734844               0.000000000               0.000000000               0.000000000               0.000000000               0.001394092               0.008547990              -0.000466596              -0.000545713               0.003031206               0.002485493               0.000000000               0.000000000               0.000000000               0.000000000               0.001107906               0.008008573              -0.000449502              -0.000585606               0.002864699               0.002279094               0.000000000               0.000000000               0.000000000               0.000000000               0.000862424               0.007544165              -0.000429030              -0.000619610               0.002721233               0.002101623               0.000000000               0.000000000               0.000000000               0.000000000               0.000651499               0.007124608              -0.000406923              -0.000646262               0.002590266               0.001944004               0.000000000               0.000000000               0.000000000               0.000000000               0.000467832               0.006728285              -0.000386664              -0.000665597               0.002464605               0.001799008               0.000000000               0.000000000               0.000000000               0.000000000               0.000312466               0.006342058              -0.000362906              -0.000675581               0.002339192               0.001663611               0.000000000               0.000000000               0.000000000               0.000000000               0.000191011               0.005952495              -0.000330060              -0.000672431               0.002208289               0.001535858               0.000000000               0.000000000               0.000000000               0.000000000               0.000098212               0.005546202              -0.000286420              -0.000656444               0.002067530               0.001411086               0.000000000               0.000000000               0.000000000               0.000000000               0.000033126               0.005111379              -0.000223663              -0.000626498               0.001912609               0.001286110               0.000000000               0.000000000               0.000000000               0.000000000               0.000003915               0.004634739              -0.000128715              -0.000577873               0.001737522               0.001159649               0.000000000               0.000000000               0.000000000               0.000000000              -0.000037865               0.004277926              -0.000077914              -0.000548939               0.001608941               0.001060002               0.000000000               0.000000000               0.000000000               0.000000000               0.002310375               0.020434489               0.002831238              -0.001687917               0.007374067               0.005686150               0.000000000               0.000000000               0.000000000               0.000000000               0.001900161               0.016287517               0.001434166              -0.001323376               0.005870243               0.004546867               0.000000000               0.000000000               0.000000000               0.000000000               0.002115826               0.013083336               0.000052759              -0.000841980               0.004641728               0.003799748               0.000000000               0.000000000               0.000000000               0.000000000               0.001862243               0.011263939              -0.000513634              -0.000709650               0.003991159               0.003281509               0.000000000               0.000000000               0.000000000               0.000000000               0.001512031               0.010102806              -0.000738009              -0.000695838               0.003599514               0.002903677               0.000000000               0.000000000               0.000000000               0.000000000               0.001177897               0.009284459              -0.000804012              -0.000718844               0.003334403               0.002615559               0.000000000               0.000000000               0.000000000               0.000000000               0.000894386               0.008655649              -0.000797599              -0.000746560               0.003134041               0.002387481               0.000000000               0.000000000               0.000000000               0.000000000               0.000663001               0.008136350              -0.000766454              -0.000768417               0.002968228               0.002199812               0.000000000               0.000000000               0.000000000               0.000000000               0.000480352               0.007683445              -0.000727318              -0.000780297               0.002821222               0.002040925               0.000000000               0.000000000               0.000000000               0.000000000               0.000335595               0.007269812              -0.000684918              -0.000782877               0.002684205               0.001901328               0.000000000               0.000000000               0.000000000               0.000000000               0.000215475               0.006878538              -0.000642351              -0.000779013               0.002552494               0.001773481               0.000000000               0.000000000               0.000000000               0.000000000               0.000121094               0.006502441              -0.000593499              -0.000767393               0.002423256               0.001655863               0.000000000               0.000000000               0.000000000               0.000000000               0.000056165               0.006136234              -0.000532145              -0.000745966               0.002294046               0.001548081               0.000000000               0.000000000               0.000000000               0.000000000               0.000012081               0.005774964              -0.000455067              -0.000717339               0.002164082               0.001446743               0.000000000               0.000000000               0.000000000               0.000000000              -0.000013262               0.005418230              -0.000349730              -0.000682250               0.002033475               0.001351225               0.000000000               0.000000000               0.000000000               0.000000000              -0.000015603               0.005066968              -0.000198043              -0.000639221               0.001902046               0.001262825               0.000000000               0.000000000               0.000000000               0.000000000              -0.000034472               0.004829227              -0.000116962              -0.000616579               0.001815252               0.001198674               0.000000000               0.000000000               0.000000000               0.000000000               0.002511672               0.018490727               0.003773498              -0.001369463               0.006620001               0.005250538               0.000000000               0.000000000               0.000000000               0.000000000               0.001674004               0.015049435               0.001919529              -0.001253426               0.005434236               0.004180811               0.000000000               0.000000000               0.000000000               0.000000000               0.001436324               0.012556782               0.000113185              -0.001030974               0.004529210               0.003498236               0.000000000               0.000000000               0.000000000               0.000000000               0.001048107               0.011079211              -0.000589667              -0.000991859               0.004023653               0.003031794               0.000000000               0.000000000               0.000000000               0.000000000               0.000705444               0.010086233              -0.000853152              -0.000996235               0.003694123               0.002697887               0.000000000               0.000000000               0.000000000               0.000000000               0.000435397               0.009351331              -0.000923920              -0.001005640               0.003452292               0.002446652               0.000000000               0.000000000               0.000000000               0.000000000               0.000237347               0.008764728              -0.000907127              -0.001006584               0.003257075               0.002250491               0.000000000               0.000000000               0.000000000               0.000000000               0.000096148               0.008265217              -0.000861889              -0.000997094               0.003087410               0.002090315               0.000000000               0.000000000               0.000000000               0.000000000              -0.000001575               0.007818678              -0.000808702              -0.000977923               0.002932174               0.001954251               0.000000000               0.000000000               0.000000000               0.000000000              -0.000068519               0.007403635              -0.000752587              -0.000951147               0.002784903               0.001833756               0.000000000               0.000000000               0.000000000               0.000000000              -0.000112055               0.007015962              -0.000696991              -0.000919014               0.002644968               0.001725955               0.000000000               0.000000000               0.000000000               0.000000000              -0.000131622               0.006650065              -0.000633419              -0.000880615               0.002510204               0.001629590               0.000000000               0.000000000               0.000000000               0.000000000              -0.000128890               0.006305659              -0.000555391              -0.000836539               0.002380712               0.001544173               0.000000000               0.000000000               0.000000000               0.000000000              -0.000115105               0.005985660              -0.000462919              -0.000791370               0.002258990               0.001467620               0.000000000               0.000000000               0.000000000               0.000000000              -0.000087225               0.005697386              -0.000345287              -0.000744881               0.002147403               0.001402522               0.000000000               0.000000000               0.000000000               0.000000000              -0.000046410               0.005450282              -0.000189700              -0.000698687               0.002049638               0.001350951               0.000000000               0.000000000               0.000000000               0.000000000              -0.000039784               0.005304407              -0.000109994              -0.000677968               0.001994107               0.001316139               0.000000000               0.000000000               0.000000000               0.000000000               0.002586894               0.016106784               0.004269233              -0.001043264               0.005716628               0.004673364               0.000000000               0.000000000               0.000000000               0.000000000               0.001303782               0.013562895               0.002205292              -0.001206442               0.004923067               0.003716625               0.000000000               0.000000000               0.000000000               0.000000000               0.000597919               0.011924311               0.000226160              -0.001266316               0.004396836               0.003130520               0.000000000               0.000000000               0.000000000               0.000000000               0.000119116               0.010826788              -0.000494466              -0.001308677               0.004045119               0.002736442               0.000000000               0.000000000               0.000000000               0.000000000              -0.000169818               0.010011338              -0.000749180              -0.001315096               0.003775445               0.002460349               0.000000000               0.000000000               0.000000000               0.000000000              -0.000334733               0.009355651              -0.000812476              -0.001294978               0.003550179               0.002255200               0.000000000               0.000000000               0.000000000               0.000000000              -0.000420001               0.008795868              -0.000792804              -0.001256981               0.003350920               0.002093939               0.000000000               0.000000000               0.000000000               0.000000000              -0.000451795               0.008301616              -0.000746224              -0.001207122               0.003169552               0.001962429               0.000000000               0.000000000               0.000000000               0.000000000              -0.000448915               0.007848977              -0.000691147              -0.001149463               0.002999454               0.001849991               0.000000000               0.000000000               0.000000000               0.000000000              -0.000427688               0.007428900              -0.000637117              -0.001088993               0.002839273               0.001750280               0.000000000               0.000000000               0.000000000               0.000000000              -0.000395100               0.007042926              -0.000584336              -0.001028526               0.002690461               0.001661935               0.000000000               0.000000000               0.000000000               0.000000000              -0.000352716               0.006688180              -0.000520410              -0.000968289               0.002552134               0.001583845               0.000000000               0.000000000               0.000000000               0.000000000              -0.000296820               0.006367533              -0.000444663              -0.000907247               0.002424906               0.001517658               0.000000000               0.000000000               0.000000000               0.000000000              -0.000229129               0.006083760              -0.000360028              -0.000846391               0.002310030               0.001463639               0.000000000               0.000000000               0.000000000               0.000000000              -0.000155189               0.005838984              -0.000259388              -0.000788067               0.002208998               0.001420931               0.000000000               0.000000000               0.000000000               0.000000000              -0.000077695               0.005646769              -0.000137052              -0.000734980               0.002127231               0.001392251               0.000000000               0.000000000               0.000000000               0.000000000              -0.000051624               0.005544773              -0.000078118              -0.000712454               0.002085724               0.001373270               0.000000000               0.000000000               0.000000000               0.000000000               0.002428792               0.013525291               0.004320497              -0.000779867               0.004768340               0.003988473               0.000000000               0.000000000               0.000000000               0.000000000               0.000788913               0.011988283               0.002315781              -0.001202691               0.004396951               0.003194260               0.000000000               0.000000000               0.000000000               0.000000000              -0.000303295               0.011242767               0.000417430              -0.001519078               0.004253911               0.002734833               0.000000000               0.000000000               0.000000000               0.000000000              -0.000784277               0.010504080              -0.000235181              -0.001607110               0.004037028               0.002429918               0.000000000               0.000000000               0.000000000               0.000000000              -0.000965104               0.009838278              -0.000463872              -0.001591695               0.003809958               0.002218263               0.000000000               0.000000000               0.000000000               0.000000000              -0.000996660               0.009237766              -0.000526515              -0.001528465               0.003588713               0.002060248               0.000000000               0.000000000               0.000000000               0.000000000              -0.000954356               0.008691697              -0.000518444              -0.001444342               0.003378651               0.001934308               0.000000000               0.000000000               0.000000000               0.000000000              -0.000875362               0.008192062              -0.000486476              -0.001352265               0.003181415               0.001829150               0.000000000               0.000000000               0.000000000               0.000000000              -0.000779517               0.007730181              -0.000445945              -0.001258588               0.002996231               0.001737642               0.000000000               0.000000000               0.000000000               0.000000000              -0.000677185               0.007305125              -0.000408724              -0.001167082               0.002824045               0.001656962               0.000000000               0.000000000               0.000000000               0.000000000              -0.000576412               0.006920653              -0.000376705              -0.001081233               0.002667273               0.001586039               0.000000000               0.000000000               0.000000000               0.000000000              -0.000478209               0.006579367              -0.000335603              -0.001001747               0.002527016               0.001525269               0.000000000               0.000000000               0.000000000               0.000000000              -0.000376309               0.006283958              -0.000282678              -0.000926608               0.002403501               0.001476893               0.000000000               0.000000000               0.000000000               0.000000000              -0.000270966               0.006028902              -0.000220730              -0.000855223               0.002294688               0.001439465               0.000000000               0.000000000               0.000000000               0.000000000              -0.000169426               0.005815547              -0.000151054              -0.000790476               0.002201988               0.001411512               0.000000000               0.000000000               0.000000000               0.000000000              -0.000079071               0.005659177              -0.000077132              -0.000737047               0.002132056               0.001395009               0.000000000               0.000000000               0.000000000               0.000000000              -0.000049084               0.005582376              -0.000045807              -0.000716202               0.002099507               0.001383305               0.000000000               0.000000000               0.000000000               0.000000000               0.001971971               0.010963856               0.003999627              -0.000630995               0.003864913               0.003233917               0.000000000               0.000000000               0.000000000               0.000000000               0.000159916               0.010451496               0.002302406              -0.001246467               0.003899286               0.002652818               0.000000000               0.000000000               0.000000000               0.000000000              -0.001160487               0.010537473               0.000690609              -0.001752363               0.004096577               0.002344214               0.000000000               0.000000000               0.000000000               0.000000000              -0.001546998               0.010095017               0.000144350              -0.001841997               0.003978971               0.002136974               0.000000000               0.000000000               0.000000000               0.000000000              -0.001581719               0.009542784              -0.000064730              -0.001785988               0.003776226               0.001990237               0.000000000               0.000000000               0.000000000               0.000000000              -0.001474824               0.008983768              -0.000142640              -0.001676026               0.003553235               0.001877209               0.000000000               0.000000000               0.000000000               0.000000000              -0.001308501               0.008447588              -0.000161820              -0.001546633               0.003331379               0.001784746               0.000000000               0.000000000               0.000000000               0.000000000              -0.001123713               0.007946275              -0.000160318              -0.001414673               0.003120290               0.001705617               0.000000000               0.000000000               0.000000000               0.000000000              -0.000944980               0.007482636              -0.000152021              -0.001289694               0.002924085               0.001634391               0.000000000               0.000000000               0.000000000               0.000000000              -0.000779073               0.007062450              -0.000149075              -0.001174956               0.002745778               0.001570823               0.000000000               0.000000000               0.000000000               0.000000000              -0.000625259               0.006690189              -0.000153148              -0.001070743               0.002586955               0.001516212               0.000000000               0.000000000               0.000000000               0.000000000              -0.000483635               0.006365402              -0.000148799              -0.000977036               0.002447458               0.001470422               0.000000000               0.000000000               0.000000000               0.000000000              -0.000352203               0.006085505              -0.000128502              -0.000892762               0.002326069               0.001433307               0.000000000               0.000000000               0.000000000               0.000000000              -0.000229772               0.005847580              -0.000095881              -0.000817110               0.002221544               0.001404434               0.000000000               0.000000000               0.000000000               0.000000000              -0.000125960               0.005660644              -0.000061329              -0.000754814               0.002138467               0.001383653               0.000000000               0.000000000               0.000000000               0.000000000              -0.000051850               0.005532815              -0.000030124              -0.000711044               0.002081268               0.001370224               0.000000000               0.000000000               0.000000000               0.000000000              -0.000031104               0.005472200              -0.000019900              -0.000695687               0.002055944               0.001360257               0.000000000               0.000000000               0.000000000               0.000000000               0.001240206               0.008590207               0.003403807              -0.000608700               0.003066273               0.002457572               0.000000000               0.000000000               0.000000000               0.000000000              -0.000544623               0.009042760               0.002210870              -0.001334577               0.003459082               0.002124505               0.000000000               0.000000000               0.000000000               0.000000000              -0.001891268               0.009803367               0.001031574              -0.001934642               0.003912637               0.001977995               0.000000000               0.000000000               0.000000000               0.000000000              -0.002101538               0.009585569               0.000584806              -0.001986268               0.003857247               0.001870979               0.000000000               0.000000000               0.000000000               0.000000000              -0.001969148               0.009131272               0.000372614              -0.001879835               0.003670339               0.001790504               0.000000000               0.000000000               0.000000000               0.000000000              -0.001734085               0.008611350               0.000263386              -0.001726696               0.003445987               0.001719291               0.000000000               0.000000000               0.000000000               0.000000000              -0.001468071               0.008090799               0.000203011              -0.001561873               0.003217530               0.001655658               0.000000000               0.000000000               0.000000000               0.000000000              -0.001201794               0.007598989               0.000157467              -0.001400543               0.002999819               0.001599276               0.000000000               0.000000000               0.000000000               0.000000000              -0.000957721               0.007148379               0.000117763              -0.001252690               0.002800332               0.001547643               0.000000000               0.000000000               0.000000000               0.000000000              -0.000746124               0.006747508               0.000078135              -0.001123232               0.002623557               0.001500325               0.000000000               0.000000000               0.000000000               0.000000000              -0.000562101               0.006394819               0.000036537              -0.001010138               0.002468298               0.001458160               0.000000000               0.000000000               0.000000000               0.000000000              -0.000399975               0.006083553               0.000005376              -0.000910432               0.002331308               0.001420876               0.000000000               0.000000000               0.000000000               0.000000000              -0.000260655               0.005811238              -0.000007007              -0.000824148               0.002211776               0.001387628               0.000000000               0.000000000               0.000000000               0.000000000              -0.000150321               0.005589234              -0.000006396              -0.000755023               0.002114734               0.001359711               0.000000000               0.000000000               0.000000000               0.000000000              -0.000074857               0.005428829              -0.000004448              -0.000706673               0.002045149               0.001338476               0.000000000               0.000000000               0.000000000               0.000000000              -0.000029846               0.005323986              -0.000003977              -0.000676689               0.002000207               0.001323518               0.000000000               0.000000000               0.000000000               0.000000000              -0.000017987               0.005273582              -0.000007018              -0.000665941               0.001979823               0.001313882               0.000000000               0.000000000               0.000000000               0.000000000               0.000351461               0.006579160               0.002646583              -0.000690598               0.002423230               0.001732632               0.000000000               0.000000000               0.000000000               0.000000000              -0.001225643               0.007776277               0.002089500              -0.001431648               0.003069282               0.001637634               0.000000000               0.000000000               0.000000000               0.000000000              -0.002447220               0.009063637               0.001430336              -0.002050657               0.003704734               0.001654077               0.000000000               0.000000000               0.000000000               0.000000000              -0.002468417               0.009078704               0.001048023              -0.002060489               0.003713034               0.001652545               0.000000000               0.000000000               0.000000000               0.000000000              -0.002204884               0.008740831               0.000812727              -0.001919431               0.003553391               0.001633961               0.000000000               0.000000000               0.000000000               0.000000000              -0.001869678               0.008286841               0.000661552              -0.001736980               0.003341246               0.001604266               0.000000000               0.000000000               0.000000000               0.000000000              -0.001524618               0.007808262               0.000549104              -0.001547761               0.003118648               0.001570887               0.000000000               0.000000000               0.000000000               0.000000000              -0.001199734               0.007346300               0.000451650              -0.001368184               0.002904804               0.001536619               0.000000000               0.000000000               0.000000000               0.000000000              -0.000912609               0.006921830               0.000365348              -0.001207454               0.002709738               0.001502284               0.000000000               0.000000000               0.000000000               0.000000000              -0.000667205               0.006544853               0.000288227              -0.001068306               0.002537698               0.001469392               0.000000000               0.000000000               0.000000000               0.000000000              -0.000460878               0.006207946               0.000215810              -0.000948820               0.002385568               0.001436748               0.000000000               0.000000000               0.000000000               0.000000000              -0.000291212               0.005896768               0.000151484              -0.000846298               0.002247669               0.001401371               0.000000000               0.000000000               0.000000000               0.000000000              -0.000166077               0.005620330               0.000098794              -0.000764818               0.002128364               0.001363546               0.000000000               0.000000000               0.000000000               0.000000000              -0.000094517               0.005402406               0.000058241              -0.000710743               0.002037698               0.001326955               0.000000000               0.000000000               0.000000000               0.000000000              -0.000067185               0.005252631               0.000028805              -0.000681772               0.001978117               0.001296345               0.000000000               0.000000000               0.000000000               0.000000000              -0.000065642               0.005152026               0.000007895              -0.000668617               0.001940197               0.001271580               0.000000000               0.000000000               0.000000000               0.000000000              -0.000068004               0.005104825              -0.000001747              -0.000663603               0.001922792               0.001259189               0.000000000               0.000000000               0.000000000               0.000000000              -0.000712925               0.004697941               0.001839770              -0.000854589               0.001850827               0.000996238               0.000000000               0.000000000               0.000000000               0.000000000              -0.001783710               0.006295373               0.001949375              -0.001455810               0.002583706               0.001127896               0.000000000               0.000000000               0.000000000               0.000000000              -0.002747218               0.007960280               0.001854585              -0.002025237               0.003328479               0.001303242               0.000000000               0.000000000               0.000000000               0.000000000              -0.002672326               0.008316576               0.001547603              -0.002041690               0.003452727               0.001411038               0.000000000               0.000000000               0.000000000               0.000000000              -0.002355381               0.008210314               0.001283936              -0.001909553               0.003373261               0.001463709               0.000000000               0.000000000               0.000000000               0.000000000              -0.001993055               0.007927659               0.001081682              -0.001738349               0.003221976               0.001483627               0.000000000               0.000000000               0.000000000               0.000000000              -0.001633983               0.007572306               0.000916767              -0.001559278               0.003043836               0.001484558               0.000000000               0.000000000               0.000000000               0.000000000              -0.001295622               0.007201526               0.000773853              -0.001386046               0.002862500               0.001476454               0.000000000               0.000000000               0.000000000               0.000000000              -0.000992843               0.006842879               0.000649663              -0.001227673               0.002690161               0.001462488               0.000000000               0.000000000               0.000000000               0.000000000              -0.000727178               0.006508856               0.000541895              -0.001086296               0.002531696               0.001445400               0.000000000               0.000000000               0.000000000               0.000000000              -0.000505952               0.006195638               0.000440495              -0.000964185               0.002386587               0.001422402               0.000000000               0.000000000               0.000000000               0.000000000              -0.000327012               0.005904498               0.000340327              -0.000860690               0.002255043               0.001394353               0.000000000               0.000000000               0.000000000               0.000000000              -0.000194794               0.005636778               0.000238038              -0.000777643               0.002138122               0.001360478               0.000000000               0.000000000               0.000000000               0.000000000              -0.000121047               0.005404342               0.000146840              -0.000720934               0.002041741               0.001320807               0.000000000               0.000000000               0.000000000               0.000000000              -0.000104660               0.005223327               0.000074737              -0.000692161               0.001971812               0.001279651               0.000000000               0.000000000               0.000000000               0.000000000              -0.000128795               0.005095140               0.000023554              -0.000685189               0.001926759               0.001241571               0.000000000               0.000000000               0.000000000               0.000000000              -0.000152312               0.005039074               0.000001912              -0.000687000               0.001908675               0.001221675               0.000000000               0.000000000               0.000000000               0.000000000              -0.002099132               0.002975905               0.001036414              -0.001159160               0.001378345               0.000219184               0.000000000               0.000000000               0.000000000               0.000000000              -0.002414823               0.004797883               0.001740676              -0.001505291               0.002101042               0.000595750               0.000000000               0.000000000               0.000000000               0.000000000              -0.002950240               0.006672045               0.002187762              -0.001940342               0.002870773               0.000930431               0.000000000               0.000000000               0.000000000               0.000000000              -0.002789935               0.007347423               0.002020467              -0.001964649               0.003103999               0.001139350               0.000000000               0.000000000               0.000000000               0.000000000              -0.002446062               0.007513622               0.001760774              -0.001856472               0.003123339               0.001266867               0.000000000               0.000000000               0.000000000               0.000000000              -0.002079341               0.007447263               0.001519142              -0.001710657               0.003052615               0.001341958               0.000000000               0.000000000               0.000000000               0.000000000              -0.001722850               0.007262827               0.001310767              -0.001553919               0.002938891               0.001384972               0.000000000               0.000000000               0.000000000               0.000000000              -0.001382166               0.007021998               0.001132405              -0.001396059               0.002805995               0.001409937               0.000000000               0.000000000               0.000000000               0.000000000              -0.001066608               0.006758421               0.000981239              -0.001244778               0.002667710               0.001422933               0.000000000               0.000000000               0.000000000               0.000000000              -0.000784277               0.006489519               0.000849395              -0.001105291               0.002531582               0.001426291               0.000000000               0.000000000               0.000000000               0.000000000              -0.000543682               0.006222615               0.000722680              -0.000981705               0.002401419               0.001419714               0.000000000               0.000000000               0.000000000               0.000000000              -0.000348202               0.005967187               0.000594861              -0.000876472               0.002281200               0.001404728               0.000000000               0.000000000               0.000000000               0.000000000              -0.000197433               0.005721034               0.000456161              -0.000789165               0.002170047               0.001380882               0.000000000               0.000000000               0.000000000               0.000000000              -0.000098069               0.005491272               0.000315039              -0.000723183               0.002071467               0.001348284               0.000000000               0.000000000               0.000000000               0.000000000              -0.000067173               0.005285831               0.000184785              -0.000685917               0.001990565               0.001304648               0.000000000               0.000000000               0.000000000               0.000000000              -0.000100463               0.005125311               0.000078073              -0.000678336               0.001934532               0.001256196               0.000000000               0.000000000               0.000000000               0.000000000              -0.000149634               0.005046664               0.000025112              -0.000686944               0.001911186               0.001224242               0.000000000               0.000000000               0.000000000               0.000000000              -0.003704162               0.001545496               0.000298376              -0.001582245               0.001042573              -0.000539672               0.000000000               0.000000000               0.000000000               0.000000000              -0.003164201               0.003379693               0.001439654              -0.001609034               0.001662897               0.000053863               0.000000000               0.000000000               0.000000000               0.000000000              -0.003098129               0.005216949               0.002321384              -0.001813913               0.002343602               0.000529689               0.000000000               0.000000000               0.000000000               0.000000000              -0.002783666               0.006114018               0.002332649              -0.001808123               0.002640693               0.000832569               0.000000000               0.000000000               0.000000000               0.000000000              -0.002403274               0.006534889               0.002123223              -0.001718085               0.002750969               0.001032884               0.000000000               0.000000000               0.000000000               0.000000000              -0.002031329               0.006694385               0.001877073              -0.001598543               0.002764287               0.001165743               0.000000000               0.000000000               0.000000000               0.000000000              -0.001683503               0.006703377               0.001646415              -0.001469233               0.002724180               0.001254948               0.000000000               0.000000000               0.000000000               0.000000000              -0.001350018               0.006620186               0.001447382              -0.001333777               0.002651299               0.001317522               0.000000000               0.000000000               0.000000000               0.000000000              -0.001030765               0.006479885               0.001280648              -0.001196520               0.002558780               0.001362260               0.000000000               0.000000000               0.000000000               0.000000000              -0.000739420               0.006306925               0.001132520              -0.001065646               0.002457503               0.001391857               0.000000000               0.000000000               0.000000000               0.000000000              -0.000480355               0.006119594               0.000989594              -0.000945080               0.002354871               0.001409791               0.000000000               0.000000000               0.000000000               0.000000000              -0.000261437               0.005924908               0.000845066              -0.000838650               0.002254500               0.001415849               0.000000000               0.000000000               0.000000000               0.000000000              -0.000086596               0.005723065               0.000688252              -0.000747855               0.002156954               0.001409099               0.000000000               0.000000000               0.000000000               0.000000000               0.000042017               0.005519691               0.000516782              -0.000674204               0.002064613               0.001390409               0.000000000               0.000000000               0.000000000               0.000000000               0.000109938               0.005321146               0.000338348              -0.000623915               0.001981669               0.001357754               0.000000000               0.000000000               0.000000000               0.000000000               0.000099831               0.005148341               0.000164150              -0.000606105               0.001918131               0.001312027               0.000000000               0.000000000               0.000000000               0.000000000               0.000050027               0.005056016               0.000071888              -0.000613240               0.001889735               0.001276495               0.000000000               0.000000000               0.000000000               0.000000000              -0.005415295               0.000486642              -0.000274723              -0.002091564               0.000859396              -0.001232168               0.000000000               0.000000000               0.000000000               0.000000000              -0.003989510               0.002118269               0.001087077              -0.001760847               0.001293030              -0.000467817               0.000000000               0.000000000               0.000000000               0.000000000              -0.003215312               0.003722324               0.002226715              -0.001671029               0.001797771               0.000126741               0.000000000               0.000000000               0.000000000               0.000000000              -0.002677191               0.004727067               0.002401090              -0.001594827               0.002107281               0.000512454               0.000000000               0.000000000               0.000000000               0.000000000              -0.002239272               0.005344143               0.002273996              -0.001507742               0.002283943               0.000776201               0.000000000               0.000000000               0.000000000               0.000000000              -0.001854666               0.005711388               0.002060687              -0.001409421               0.002373583               0.000964162               0.000000000               0.000000000               0.000000000               0.000000000              -0.001509528               0.005912629               0.001841109              -0.001305149               0.002405906               0.001100757               0.000000000               0.000000000               0.000000000               0.000000000              -0.001189552               0.005998865               0.001642621              -0.001195938               0.002398247               0.001202309               0.000000000               0.000000000               0.000000000               0.000000000              -0.000882524               0.006005035               0.001470404              -0.001081574               0.002362183               0.001280609               0.000000000               0.000000000               0.000000000               0.000000000              -0.000591125               0.005953583               0.001316556              -0.000965868               0.002306464               0.001340596               0.000000000               0.000000000               0.000000000               0.000000000              -0.000319058               0.005867652               0.001169616              -0.000853102               0.002240232               0.001387130               0.000000000               0.000000000               0.000000000               0.000000000              -0.000073165               0.005755834               0.001020741              -0.000746915               0.002167563               0.001420649               0.000000000               0.000000000               0.000000000               0.000000000               0.000140452               0.005621320               0.000860766              -0.000649994               0.002090419               0.001440425               0.000000000               0.000000000               0.000000000               0.000000000               0.000318103               0.005469170               0.000681969              -0.000564356               0.002011157               0.001446801               0.000000000               0.000000000               0.000000000               0.000000000               0.000448779               0.005309351               0.000478322              -0.000495375               0.001934891               0.001439515               0.000000000               0.000000000               0.000000000               0.000000000               0.000510613               0.005153836               0.000248989              -0.000452749               0.001868844               0.001416096               0.000000000               0.000000000               0.000000000               0.000000000               0.000511072               0.005070317               0.000126161              -0.000442137               0.001837468               0.001395331               0.000000000               0.000000000               0.000000000               0.000000000              -0.007062258              -0.000205161              -0.000594026              -0.002622700               0.000805840              -0.001816859               0.000000000               0.000000000               0.000000000               0.000000000              -0.004818742               0.001090582               0.000736218              -0.001943349               0.001011303              -0.000932046               0.000000000               0.000000000               0.000000000               0.000000000              -0.003323045               0.002338573               0.001905353              -0.001538461               0.001292335              -0.000246126               0.000000000               0.000000000               0.000000000               0.000000000              -0.002506114               0.003347518               0.002175794              -0.001358230               0.001568570               0.000210340               0.000000000               0.000000000               0.000000000               0.000000000              -0.001977211               0.004089101               0.002131960              -0.001252589               0.001780549               0.000527959               0.000000000               0.000000000               0.000000000               0.000000000              -0.001572349               0.004619877               0.001979330              -0.001167114               0.001928981               0.000761867               0.000000000               0.000000000               0.000000000               0.000000000              -0.001228548               0.004985599               0.001799826              -0.001083904               0.002023150               0.000939247               0.000000000               0.000000000               0.000000000               0.000000000              -0.000925052               0.005224338               0.001626614              -0.000999935               0.002074740               0.001074805               0.000000000               0.000000000               0.000000000               0.000000000              -0.000639662               0.005376988               0.001469947              -0.000911995               0.002096309               0.001184314               0.000000000               0.000000000               0.000000000               0.000000000              -0.000360872               0.005460664               0.001326766              -0.000817909               0.002092839               0.001274930               0.000000000               0.000000000               0.000000000               0.000000000              -0.000085488               0.005490597               0.001189551              -0.000718381               0.002069641               0.001351260               0.000000000               0.000000000               0.000000000               0.000000000               0.000183012               0.005477326               0.001051734              -0.000616035               0.002031102               0.001415067               0.000000000               0.000000000               0.000000000               0.000000000               0.000442998               0.005428095               0.000906221              -0.000512387               0.001980142               0.001467756               0.000000000               0.000000000               0.000000000               0.000000000               0.000691166               0.005349079               0.000740547              -0.000409447               0.001919491               0.001510044               0.000000000               0.000000000               0.000000000               0.000000000               0.000919148               0.005248392               0.000541256              -0.000311368               0.001853236               0.001541868               0.000000000               0.000000000               0.000000000               0.000000000               0.001114460               0.005131128               0.000295550              -0.000223468               0.001784848               0.001561380               0.000000000               0.000000000               0.000000000               0.000000000               0.001226734               0.005076480               0.000164698              -0.000174534               0.001750321               0.001575787               0.000000000               0.000000000               0.000000000               0.000000000              -0.008448145              -0.000594411              -0.000617379              -0.003093751               0.000833108              -0.002260643               0.000000000               0.000000000               0.000000000               0.000000000              -0.005542083               0.000345906               0.000433585              -0.002121517               0.000822469              -0.001299049               0.000000000               0.000000000               0.000000000               0.000000000              -0.003422183               0.001217601               0.001388932              -0.001435517               0.000884366              -0.000551151               0.000000000               0.000000000               0.000000000               0.000000000              -0.002330492               0.002161651               0.001658091              -0.001144139               0.001101921              -0.000042217               0.000000000               0.000000000               0.000000000               0.000000000              -0.001688900               0.002964359               0.001666529              -0.001003881               0.001322736               0.000318855               0.000000000               0.000000000               0.000000000               0.000000000              -0.001253306               0.003603831               0.001576625              -0.000920467               0.001508087               0.000587620               0.000000000               0.000000000               0.000000000               0.000000000              -0.000913492               0.004091406               0.001454285              -0.000853984               0.001648449               0.000794465               0.000000000               0.000000000               0.000000000               0.000000000              -0.000622124               0.004452299               0.001328890              -0.000789833               0.001747362               0.000957529               0.000000000               0.000000000               0.000000000               0.000000000              -0.000353204               0.004725205               0.001210834              -0.000723101               0.001816086               0.001092985               0.000000000               0.000000000               0.000000000               0.000000000              -0.000091627               0.004926981               0.001100558              -0.000650232               0.001859054               0.001208822               0.000000000               0.000000000               0.000000000               0.000000000               0.000179216               0.005064984               0.000993655              -0.000565916               0.001876950               0.001311034               0.000000000               0.000000000               0.000000000               0.000000000               0.000465030               0.005147804               0.000885194              -0.000469089               0.001872280               0.001403192               0.000000000               0.000000000               0.000000000               0.000000000               0.000765242               0.005186774               0.000771705              -0.000361380               0.001849367               0.001487987               0.000000000               0.000000000               0.000000000               0.000000000               0.001084130               0.005189359               0.000641785              -0.000242121               0.001810476               0.001568355               0.000000000               0.000000000               0.000000000               0.000000000               0.001425744               0.005155890               0.000482459              -0.000109832               0.001755224               0.001645391               0.000000000               0.000000000               0.000000000               0.000000000               0.001784884               0.005086937               0.000271658               0.000033463               0.001684474               0.001717938               0.000000000               0.000000000               0.000000000               0.000000000               0.002043190               0.005071736               0.000159681               0.000132228               0.001646486               0.001778714               0.000000000               0.000000000               0.000000000               0.000000000              -0.009380761              -0.000782082              -0.000381479              -0.003420023               0.000879308              -0.002540715               0.000000000               0.000000000               0.000000000               0.000000000              -0.006037165              -0.000105993               0.000196267              -0.002250686               0.000714893              -0.001535793               0.000000000               0.000000000               0.000000000               0.000000000              -0.003491448               0.000488655               0.000730377              -0.001370373               0.000619671              -0.000750702               0.000000000               0.000000000               0.000000000               0.000000000              -0.002202639               0.001359502               0.000896762              -0.000995926               0.000785137              -0.000210789               0.000000000               0.000000000               0.000000000               0.000000000              -0.001471591               0.002174383               0.000917303              -0.000823643               0.000999334               0.000175691               0.000000000               0.000000000               0.000000000               0.000000000              -0.001002560               0.002873008               0.000878412              -0.000735085               0.001202688               0.000467603               0.000000000               0.000000000               0.000000000               0.000000000              -0.000660215               0.003438845               0.000817687              -0.000677435               0.001372082               0.000694647               0.000000000               0.000000000               0.000000000               0.000000000              -0.000378047               0.003878893               0.000753008              -0.000626628               0.001501827               0.000875199               0.000000000               0.000000000               0.000000000               0.000000000              -0.000117895               0.004226996               0.000689354              -0.000572584               0.001599846               0.001027262               0.000000000               0.000000000               0.000000000               0.000000000               0.000139269               0.004501243               0.000629006              -0.000510428               0.001670542               0.001160114               0.000000000               0.000000000               0.000000000               0.000000000               0.000408193               0.004713162               0.000572067              -0.000436072               0.001716396               0.001280323               0.000000000               0.000000000               0.000000000               0.000000000               0.000702397               0.004870387               0.000511765              -0.000345399               0.001738579               0.001393180               0.000000000               0.000000000               0.000000000               0.000000000               0.001029248               0.004977333               0.000446644              -0.000236198               0.001737827               0.001501629               0.000000000               0.000000000               0.000000000               0.000000000               0.001397593               0.005039388               0.000375843              -0.000105826               0.001715055               0.001609228               0.000000000               0.000000000               0.000000000               0.000000000               0.001821234               0.005062414               0.000286666               0.000050160               0.001670734               0.001720895               0.000000000               0.000000000               0.000000000               0.000000000               0.002313047               0.005044446               0.000161098               0.000236835               0.001602520               0.001839355               0.000000000               0.000000000               0.000000000               0.000000000               0.002698551               0.005067039               0.000095443               0.000378573               0.001562805               0.001941378               0.000000000               0.000000000               0.000000000               0.000000000              -0.009710140              -0.000837126              -0.000000000              -0.003536659               0.000899838              -0.002636821               0.000000000               0.000000000               0.000000000               0.000000000              -0.006212605              -0.000259031              -0.000000000              -0.002297346               0.000679434              -0.001617913               0.000000000               0.000000000               0.000000000               0.000000000              -0.003516234               0.000232821              -0.000000000              -0.001347689               0.000526833              -0.000820856               0.000000000               0.000000000               0.000000000               0.000000000              -0.002155128               0.001076721              -0.000000000              -0.000942761               0.000673156              -0.000269605               0.000000000               0.000000000               0.000000000               0.000000000              -0.001389033               0.001894273               0.000000000              -0.000757670               0.000883974               0.000126305               0.000000000               0.000000000               0.000000000               0.000000000              -0.000906242               0.002606079               0.000000000              -0.000665599               0.001090551               0.000424952               0.000000000               0.000000000               0.000000000               0.000000000              -0.000561647               0.003196732               0.000000000              -0.000610208               0.001268969               0.000658762               0.000000000               0.000000000               0.000000000               0.000000000              -0.000282749               0.003668394               0.000000000              -0.000564579               0.001410979               0.000846400               0.000000000               0.000000000               0.000000000               0.000000000              -0.000026611               0.004040321              -0.000000000              -0.000515018               0.001518433               0.001003415               0.000000000               0.000000000               0.000000000               0.000000000               0.000232036               0.004335390               0.000000000              -0.000454909               0.001596752               0.001141843               0.000000000               0.000000000               0.000000000               0.000000000               0.000502894               0.004574866              -0.000000000              -0.000383272               0.001652697               0.001269425               0.000000000               0.000000000               0.000000000               0.000000000               0.000797396               0.004760946              -0.000000000              -0.000296094               0.001685664               0.001389570               0.000000000               0.000000000               0.000000000               0.000000000               0.001133286               0.004891930              -0.000000000              -0.000186509               0.001692797               0.001506288               0.000000000               0.000000000               0.000000000               0.000000000               0.001520090               0.004975659              -0.000000000              -0.000051923               0.001675844               0.001623921               0.000000000               0.000000000               0.000000000               0.000000000               0.001971179               0.005023480              -0.000000000               0.000111256               0.001637391               0.001748647               0.000000000               0.000000000               0.000000000               0.000000000               0.002514031               0.005028194              -0.000000000               0.000314234               0.001571303               0.001885538               0.000000000               0.000000000               0.000000000               0.000000000               0.002950764               0.005065364              -0.000000000               0.000473361               0.001530651               0.002004012               0.000000000               0.000000000               0.000000000               0.000000000               0.002040964               0.022154262              -0.000000000              -0.002003916               0.008052652               0.006048736               0.000000000               0.000000000               0.000000000               0.000000000               0.002043891               0.017399266              -0.000000000              -0.001408445               0.006269179               0.004860734               0.000000000               0.000000000               0.000000000               0.000000000               0.002699780               0.013554088               0.000000000              -0.000681842               0.004745265               0.004063423               0.000000000               0.000000000               0.000000000               0.000000000               0.002608476               0.011408377              -0.000000000              -0.000447868               0.003952044               0.003504176               0.000000000               0.000000000               0.000000000               0.000000000               0.002291814               0.010081848               0.000000000              -0.000400800               0.003494182               0.003093383               0.000000000               0.000000000               0.000000000               0.000000000               0.001932457               0.009182429               0.000000000              -0.000423131               0.003201823               0.002778691               0.000000000               0.000000000               0.000000000               0.000000000               0.001590266               0.008507584              -0.000000000              -0.000467097               0.002991532               0.002524435               0.000000000               0.000000000               0.000000000               0.000000000               0.001282359               0.007957986               0.000000000              -0.000513862               0.002823923               0.002310060               0.000000000               0.000000000               0.000000000               0.000000000               0.001010716               0.007489007              -0.000000000              -0.000557106               0.002682013               0.002124907               0.000000000               0.000000000               0.000000000               0.000000000               0.000770275               0.007064255              -0.000000000              -0.000594177               0.002552787               0.001958610               0.000000000               0.000000000               0.000000000               0.000000000               0.000556498               0.006661081              -0.000000000              -0.000623947               0.002428320               0.001804374               0.000000000               0.000000000               0.000000000               0.000000000               0.000380805               0.006269156              -0.000000000              -0.000640841               0.002303312               0.001662470               0.000000000               0.000000000               0.000000000               0.000000000               0.000243067               0.005868843               0.000000000              -0.000642454               0.002170413               0.001527959               0.000000000               0.000000000               0.000000000               0.000000000               0.000133657               0.005441336              -0.000000000              -0.000630044               0.002023775               0.001393731               0.000000000               0.000000000               0.000000000               0.000000000               0.000057068               0.004970584               0.000000000              -0.000599921               0.001856819               0.001256897               0.000000000               0.000000000               0.000000000               0.000000000               0.000016662               0.004434940               0.000000000              -0.000548118               0.001661005               0.001112887               0.000000000               0.000000000               0.000000000               0.000000000              -0.000038016               0.004022013              -0.000000000              -0.000517007               0.001512993               0.000995987               0.000000000               0.000000000               0.000000000               0.000000000               0.002117865               0.021709911              -0.001521230              -0.001919535               0.007876410               0.005956875               0.000000000               0.000000000               0.000000000               0.000000000               0.002012132               0.017110760              -0.000771397              -0.001384292               0.006164960               0.004780668               0.000000000               0.000000000               0.000000000               0.000000000               0.002552323               0.013432393              -0.000021039              -0.000721926               0.004718062               0.003996136               0.000000000               0.000000000               0.000000000               0.000000000               0.002416517               0.011374431               0.000298493              -0.000515609               0.003963309               0.003447700               0.000000000               0.000000000               0.000000000               0.000000000               0.002086713               0.010092657               0.000429796              -0.000479064               0.003523873               0.003044810               0.000000000               0.000000000               0.000000000               0.000000000               0.001726329               0.009213166               0.000470074              -0.000504271               0.003239115               0.002734844               0.000000000               0.000000000               0.000000000               0.000000000               0.001394092               0.008547990               0.000466596              -0.000545713               0.003031206               0.002485493               0.000000000               0.000000000               0.000000000               0.000000000               0.001107906               0.008008573               0.000449502              -0.000585606               0.002864699               0.002279094               0.000000000               0.000000000               0.000000000               0.000000000               0.000862424               0.007544165               0.000429030              -0.000619610               0.002721233               0.002101623               0.000000000               0.000000000               0.000000000               0.000000000               0.000651499               0.007124608               0.000406923              -0.000646262               0.002590266               0.001944004               0.000000000               0.000000000               0.000000000               0.000000000               0.000467832               0.006728285               0.000386664              -0.000665597               0.002464605               0.001799008               0.000000000               0.000000000               0.000000000               0.000000000               0.000312466               0.006342058               0.000362906              -0.000675581               0.002339192               0.001663611               0.000000000               0.000000000               0.000000000               0.000000000               0.000191011               0.005952495               0.000330060              -0.000672431               0.002208289               0.001535858               0.000000000               0.000000000               0.000000000               0.000000000               0.000098212               0.005546202               0.000286420              -0.000656444               0.002067530               0.001411086               0.000000000               0.000000000               0.000000000               0.000000000               0.000033126               0.005111379               0.000223663              -0.000626498               0.001912609               0.001286110               0.000000000               0.000000000               0.000000000               0.000000000               0.000003915               0.004634739               0.000128715              -0.000577873               0.001737522               0.001159649               0.000000000               0.000000000               0.000000000               0.000000000              -0.000037865               0.004277926               0.000077914              -0.000548939               0.001608941               0.001060002               0.000000000               0.000000000               0.000000000               0.000000000               0.002310375               0.020434489              -0.002831238              -0.001687917               0.007374067               0.005686150               0.000000000               0.000000000               0.000000000               0.000000000               0.001900161               0.016287517              -0.001434166              -0.001323376               0.005870243               0.004546867               0.000000000               0.000000000               0.000000000               0.000000000               0.002115826               0.013083336              -0.000052759              -0.000841980               0.004641728               0.003799748               0.000000000               0.000000000               0.000000000               0.000000000               0.001862243               0.011263939               0.000513634              -0.000709650               0.003991159               0.003281509               0.000000000               0.000000000               0.000000000               0.000000000               0.001512031               0.010102806               0.000738009              -0.000695838               0.003599514               0.002903677               0.000000000               0.000000000               0.000000000               0.000000000               0.001177897               0.009284459               0.000804012              -0.000718844               0.003334403               0.002615559               0.000000000               0.000000000               0.000000000               0.000000000               0.000894386               0.008655649               0.000797599              -0.000746560               0.003134041               0.002387481               0.000000000               0.000000000               0.000000000               0.000000000               0.000663001               0.008136350               0.000766454              -0.000768417               0.002968228               0.002199812               0.000000000               0.000000000               0.000000000               0.000000000               0.000480352               0.007683445               0.000727318              -0.000780297               0.002821222               0.002040925               0.000000000               0.000000000               0.000000000               0.000000000               0.000335595               0.007269812               0.000684918              -0.000782877               0.002684205               0.001901328               0.000000000               0.000000000               0.000000000               0.000000000               0.000215475               0.006878538               0.000642351              -0.000779013               0.002552494               0.001773481               0.000000000               0.000000000               0.000000000               0.000000000               0.000121094               0.006502441               0.000593499              -0.000767393               0.002423256               0.001655863               0.000000000               0.000000000               0.000000000               0.000000000               0.000056165               0.006136234               0.000532145              -0.000745966               0.002294046               0.001548081               0.000000000               0.000000000               0.000000000               0.000000000               0.000012081               0.005774964               0.000455067              -0.000717339               0.002164082               0.001446743               0.000000000               0.000000000               0.000000000               0.000000000              -0.000013262               0.005418230               0.000349730              -0.000682250               0.002033475               0.001351225               0.000000000               0.000000000               0.000000000               0.000000000              -0.000015603               0.005066968               0.000198043              -0.000639221               0.001902046               0.001262825               0.000000000               0.000000000               0.000000000               0.000000000              -0.000034472               0.004829227               0.000116962              -0.000616579               0.001815252               0.001198674               0.000000000               0.000000000               0.000000000               0.000000000               0.002511672               0.018490727              -0.003773498              -0.001369463               0.006620001               0.005250538               0.000000000               0.000000000               0.000000000               0.000000000               0.001674004               0.015049435              -0.001919529              -0.001253426               0.005434236               0.004180811               0.000000000               0.000000000               0.000000000               0.000000000               0.001436324               0.012556782              -0.000113185              -0.001030974               0.004529210               0.003498236               0.000000000               0.000000000               0.000000000               0.000000000               0.001048107               0.011079211               0.000589667              -0.000991859               0.004023653               0.003031794               0.000000000               0.000000000               0.000000000               0.000000000               0.000705444               0.010086233               0.000853152              -0.000996235               0.003694123               0.002697887               0.000000000               0.000000000               0.000000000               0.000000000               0.000435397               0.009351331               0.000923920              -0.001005640               0.003452292               0.002446652               0.000000000               0.000000000               0.000000000               0.000000000               0.000237347               0.008764728               0.000907127              -0.001006584               0.003257075               0.002250491               0.000000000               0.000000000               0.000000000               0.000000000               0.000096148               0.008265217               0.000861889              -0.000997094               0.003087410               0.002090315               0.000000000               0.000000000               0.000000000               0.000000000              -0.000001575               0.007818678               0.000808702              -0.000977923               0.002932174               0.001954251               0.000000000               0.000000000               0.000000000               0.000000000              -0.000068519               0.007403635               0.000752587              -0.000951147               0.002784903               0.001833756               0.000000000               0.000000000               0.000000000               0.000000000              -0.000112055               0.007015962               0.000696991              -0.000919014               0.002644968               0.001725955               0.000000000               0.000000000               0.000000000               0.000000000              -0.000131622               0.006650065               0.000633419              -0.000880615               0.002510204               0.001629590               0.000000000               0.000000000               0.000000000               0.000000000              -0.000128890               0.006305659               0.000555391              -0.000836539               0.002380712               0.001544173               0.000000000               0.000000000               0.000000000               0.000000000              -0.000115105               0.005985660               0.000462919              -0.000791370               0.002258990               0.001467620               0.000000000               0.000000000               0.000000000               0.000000000              -0.000087225               0.005697386               0.000345287              -0.000744881               0.002147403               0.001402522               0.000000000               0.000000000               0.000000000               0.000000000              -0.000046410               0.005450282               0.000189700              -0.000698687               0.002049638               0.001350951               0.000000000               0.000000000               0.000000000               0.000000000              -0.000039784               0.005304407               0.000109994              -0.000677968               0.001994107               0.001316139               0.000000000               0.000000000               0.000000000               0.000000000               0.002586894               0.016106784              -0.004269233              -0.001043264               0.005716628               0.004673364               0.000000000               0.000000000               0.000000000               0.000000000               0.001303782               0.013562895              -0.002205292              -0.001206442               0.004923067               0.003716625               0.000000000               0.000000000               0.000000000               0.000000000               0.000597919               0.011924311              -0.000226160              -0.001266316               0.004396836               0.003130520               0.000000000               0.000000000               0.000000000               0.000000000               0.000119116               0.010826788               0.000494466              -0.001308677               0.004045119               0.002736442               0.000000000               0.000000000               0.000000000               0.000000000              -0.000169818               0.010011338               0.000749180              -0.001315096               0.003775445               0.002460349               0.000000000               0.000000000               0.000000000               0.000000000              -0.000334733               0.009355651               0.000812476              -0.001294978               0.003550179               0.002255200               0.000000000               0.000000000               0.000000000               0.000000000              -0.000420001               0.008795868               0.000792804              -0.001256981               0.003350920               0.002093939               0.000000000               0.000000000               0.000000000               0.000000000              -0.000451795               0.008301616               0.000746224              -0.001207122               0.003169552               0.001962429               0.000000000               0.000000000               0.000000000               0.000000000              -0.000448915               0.007848977               0.000691147              -0.001149463               0.002999454               0.001849991               0.000000000               0.000000000               0.000000000               0.000000000              -0.000427688               0.007428900               0.000637117              -0.001088993               0.002839273               0.001750280               0.000000000               0.000000000               0.000000000               0.000000000              -0.000395100               0.007042926               0.000584336              -0.001028526               0.002690461               0.001661935               0.000000000               0.000000000               0.000000000               0.000000000              -0.000352716               0.006688180               0.000520410              -0.000968289               0.002552134               0.001583845               0.000000000               0.000000000               0.000000000               0.000000000              -0.000296820               0.006367533               0.000444663              -0.000907247               0.002424906               0.001517658               0.000000000               0.000000000               0.000000000               0.000000000              -0.000229129               0.006083760               0.000360028              -0.000846391               0.002310030               0.001463639               0.000000000               0.000000000               0.000000000               0.000000000              -0.000155189               0.005838984               0.000259388              -0.000788067               0.002208998               0.001420931               0.000000000               0.000000000               0.000000000               0.000000000              -0.000077695               0.005646769               0.000137052              -0.000734980               0.002127231               0.001392251               0.000000000               0.000000000               0.000000000               0.000000000              -0.000051624               0.005544773               0.000078118              -0.000712454               0.002085724               0.001373270               0.000000000               0.000000000               0.000000000               0.000000000               0.002428792               0.013525291              -0.004320497              -0.000779867               0.004768340               0.003988473               0.000000000               0.000000000               0.000000000               0.000000000               0.000788913               0.011988283              -0.002315781              -0.001202691               0.004396951               0.003194260               0.000000000               0.000000000               0.000000000               0.000000000              -0.000303295               0.011242767              -0.000417430              -0.001519078               0.004253911               0.002734833               0.000000000               0.000000000               0.000000000               0.000000000              -0.000784277               0.010504080               0.000235181              -0.001607110               0.004037028               0.002429918               0.000000000               0.000000000               0.000000000               0.000000000              -0.000965104               0.009838278               0.000463872              -0.001591695               0.003809958               0.002218263               0.000000000               0.000000000               0.000000000               0.000000000              -0.000996660               0.009237766               0.000526515              -0.001528465               0.003588713               0.002060248               0.000000000               0.000000000               0.000000000               0.000000000              -0.000954356               0.008691697               0.000518444              -0.001444342               0.003378651               0.001934308               0.000000000               0.000000000               0.000000000               0.000000000              -0.000875362               0.008192062               0.000486476              -0.001352265               0.003181415               0.001829150               0.000000000               0.000000000               0.000000000               0.000000000              -0.000779517               0.007730181               0.000445945              -0.001258588               0.002996231               0.001737642               0.000000000               0.000000000               0.000000000               0.000000000              -0.000677185               0.007305125               0.000408724              -0.001167082               0.002824045               0.001656962               0.000000000               0.000000000               0.000000000               0.000000000              -0.000576412               0.006920653               0.000376705              -0.001081233               0.002667273               0.001586039               0.000000000               0.000000000               0.000000000               0.000000000              -0.000478209               0.006579367               0.000335603              -0.001001747               0.002527016               0.001525269               0.000000000               0.000000000               0.000000000               0.000000000              -0.000376309               0.006283958               0.000282678              -0.000926608               0.002403501               0.001476893               0.000000000               0.000000000               0.000000000               0.000000000              -0.000270966               0.006028902               0.000220730              -0.000855223               0.002294688               0.001439465               0.000000000               0.000000000               0.000000000               0.000000000              -0.000169426               0.005815547               0.000151054              -0.000790476               0.002201988               0.001411512               0.000000000               0.000000000               0.000000000               0.000000000              -0.000079071               0.005659177               0.000077132              -0.000737047               0.002132056               0.001395009               0.000000000               0.000000000               0.000000000               0.000000000              -0.000049084               0.005582376               0.000045807              -0.000716202               0.002099507               0.001383305               0.000000000               0.000000000               0.000000000               0.000000000               0.001971971               0.010963856              -0.003999627              -0.000630995               0.003864913               0.003233917               0.000000000               0.000000000               0.000000000               0.000000000               0.000159916               0.010451496              -0.002302406              -0.001246467               0.003899286               0.002652818               0.000000000               0.000000000               0.000000000               0.000000000              -0.001160487               0.010537473              -0.000690609              -0.001752363               0.004096577               0.002344214               0.000000000               0.000000000               0.000000000               0.000000000              -0.001546998               0.010095017              -0.000144350              -0.001841997               0.003978971               0.002136974               0.000000000               0.000000000               0.000000000               0.000000000              -0.001581719               0.009542784               0.000064730              -0.001785988               0.003776226               0.001990237               0.000000000               0.000000000               0.000000000               0.000000000              -0.001474824               0.008983768               0.000142640              -0.001676026               0.003553235               0.001877209               0.000000000               0.000000000               0.000000000               0.000000000              -0.001308501               0.008447588               0.000161820              -0.001546633               0.003331379               0.001784746               0.000000000               0.000000000               0.000000000               0.000000000              -0.001123713               0.007946275               0.000160318              -0.001414673               0.003120290               0.001705617               0.000000000               0.000000000               0.000000000               0.000000000              -0.000944980               0.007482636               0.000152021              -0.001289694               0.002924085               0.001634391               0.000000000               0.000000000               0.000000000               0.000000000              -0.000779073               0.007062450               0.000149075              -0.001174956               0.002745778               0.001570823               0.000000000               0.000000000               0.000000000               0.000000000              -0.000625259               0.006690189               0.000153148              -0.001070743               0.002586955               0.001516212               0.000000000               0.000000000               0.000000000               0.000000000              -0.000483635               0.006365402               0.000148799              -0.000977036               0.002447458               0.001470422               0.000000000               0.000000000               0.000000000               0.000000000              -0.000352203               0.006085505               0.000128502              -0.000892762               0.002326069               0.001433307               0.000000000               0.000000000               0.000000000               0.000000000              -0.000229772               0.005847580               0.000095881              -0.000817110               0.002221544               0.001404434               0.000000000               0.000000000               0.000000000               0.000000000              -0.000125960               0.005660644               0.000061329              -0.000754814               0.002138467               0.001383653               0.000000000               0.000000000               0.000000000               0.000000000              -0.000051850               0.005532815               0.000030124              -0.000711044               0.002081268               0.001370224               0.000000000               0.000000000               0.000000000               0.000000000              -0.000031104               0.005472200               0.000019900              -0.000695687               0.002055944               0.001360257               0.000000000               0.000000000               0.000000000               0.000000000               0.001240206               0.008590207              -0.003403807              -0.000608700               0.003066273               0.002457572               0.000000000               0.000000000               0.000000000               0.000000000              -0.000544623               0.009042760              -0.002210870              -0.001334577               0.003459082               0.002124505               0.000000000               0.000000000               0.000000000               0.000000000              -0.001891268               0.009803367              -0.001031574              -0.001934642               0.003912637               0.001977995               0.000000000               0.000000000               0.000000000               0.000000000              -0.002101538               0.009585569              -0.000584806              -0.001986268               0.003857247               0.001870979               0.000000000               0.000000000               0.000000000               0.000000000              -0.001969148               0.009131272              -0.000372614              -0.001879835               0.003670339               0.001790504               0.000000000               0.000000000               0.000000000               0.000000000              -0.001734085               0.008611350              -0.000263386              -0.001726696               0.003445987               0.001719291               0.000000000               0.000000000               0.000000000               0.000000000              -0.001468071               0.008090799              -0.000203011              -0.001561873               0.003217530               0.001655658               0.000000000               0.000000000               0.000000000               0.000000000              -0.001201794               0.007598989              -0.000157467              -0.001400543               0.002999819               0.001599276               0.000000000               0.000000000               0.000000000               0.000000000              -0.000957721               0.007148379              -0.000117763              -0.001252690               0.002800332               0.001547643               0.000000000               0.000000000               0.000000000               0.000000000              -0.000746124               0.006747508              -0.000078135              -0.001123232               0.002623557               0.001500325               0.000000000               0.000000000               0.000000000               0.000000000              -0.000562101               0.006394819              -0.000036537              -0.001010138               0.002468298               0.001458160               0.000000000               0.000000000               0.000000000               0.000000000              -0.000399975               0.006083553              -0.000005376              -0.000910432               0.002331308               0.001420876               0.000000000               0.000000000               0.000000000               0.000000000              -0.000260655               0.005811238               0.000007007              -0.000824148               0.002211776               0.001387628               0.000000000               0.000000000               0.000000000               0.000000000              -0.000150321               0.005589234               0.000006396              -0.000755023               0.002114734               0.001359711               0.000000000               0.000000000               0.000000000               0.000000000              -0.000074857               0.005428829               0.000004448              -0.000706673               0.002045149               0.001338476               0.000000000               0.000000000               0.000000000               0.000000000              -0.000029846               0.005323986               0.000003977              -0.000676689               0.002000207               0.001323518               0.000000000               0.000000000               0.000000000               0.000000000              -0.000017987               0.005273582               0.000007018              -0.000665941               0.001979823               0.001313882               0.000000000               0.000000000               0.000000000               0.000000000               0.000351461               0.006579160              -0.002646583              -0.000690598               0.002423230               0.001732632               0.000000000               0.000000000               0.000000000               0.000000000              -0.001225643               0.007776277              -0.002089500              -0.001431648               0.003069282               0.001637634               0.000000000               0.000000000               0.000000000               0.000000000              -0.002447220               0.009063637              -0.001430336              -0.002050657               0.003704734               0.001654077               0.000000000               0.000000000               0.000000000               0.000000000              -0.002468417               0.009078704              -0.001048023              -0.002060489               0.003713034               0.001652545               0.000000000               0.000000000               0.000000000               0.000000000              -0.002204884               0.008740831              -0.000812727              -0.001919431               0.003553391               0.001633961               0.000000000               0.000000000               0.000000000               0.000000000              -0.001869678               0.008286841              -0.000661552              -0.001736980               0.003341246               0.001604266               0.000000000               0.000000000               0.000000000               0.000000000              -0.001524618               0.007808262              -0.000549104              -0.001547761               0.003118648               0.001570887               0.000000000               0.000000000               0.000000000               0.000000000              -0.001199734               0.007346300              -0.000451650              -0.001368184               0.002904804               0.001536619               0.000000000               0.000000000               0.000000000               0.000000000              -0.000912609               0.006921830              -0.000365348              -0.001207454               0.002709738               0.001502284               0.000000000               0.000000000               0.000000000               0.000000000              -0.000667205               0.006544853              -0.000288227              -0.001068306               0.002537698               0.001469392               0.000000000               0.000000000               0.000000000               0.000000000              -0.000460878               0.006207946              -0.000215810              -0.000948820               0.002385568               0.001436748               0.000000000               0.000000000               0.000000000               0.000000000              -0.000291212               0.005896768              -0.000151484              -0.000846298               0.002247669               0.001401371               0.000000000               0.000000000               0.000000000               0.000000000              -0.000166077               0.005620330              -0.000098794              -0.000764818               0.002128364               0.001363546               0.000000000               0.000000000               0.000000000               0.000000000              -0.000094517               0.005402406              -0.000058241              -0.000710743               0.002037698               0.001326955               0.000000000               0.000000000               0.000000000               0.000000000              -0.000067185               0.005252631              -0.000028805              -0.000681772               0.001978117               0.001296345               0.000000000               0.000000000               0.000000000               0.000000000              -0.000065642               0.005152026              -0.000007895              -0.000668617               0.001940197               0.001271580               0.000000000               0.000000000               0.000000000               0.000000000              -0.000068004               0.005104825               0.000001747              -0.000663603               0.001922792               0.001259189               0.000000000               0.000000000               0.000000000               0.000000000              -0.000712925               0.004697941              -0.001839770              -0.000854589               0.001850827               0.000996238               0.000000000               0.000000000               0.000000000               0.000000000              -0.001783710               0.006295373              -0.001949375              -0.001455810               0.002583706               0.001127896               0.000000000               0.000000000               0.000000000               0.000000000              -0.002747218               0.007960280              -0.001854585              -0.002025237               0.003328479               0.001303242               0.000000000               0.000000000               0.000000000               0.000000000              -0.002672326               0.008316576              -0.001547603              -0.002041690               0.003452727               0.001411038               0.000000000               0.000000000               0.000000000               0.000000000              -0.002355381               0.008210314              -0.001283936              -0.001909553               0.003373261               0.001463709               0.000000000               0.000000000               0.000000000               0.000000000              -0.001993055               0.007927659              -0.001081682              -0.001738349               0.003221976               0.001483627               0.000000000               0.000000000               0.000000000               0.000000000              -0.001633983               0.007572306              -0.000916767              -0.001559278               0.003043836               0.001484558               0.000000000               0.000000000               0.000000000               0.000000000              -0.001295622               0.007201526              -0.000773853              -0.001386046               0.002862500               0.001476454               0.000000000               0.000000000               0.000000000               0.000000000              -0.000992843               0.006842879              -0.000649663              -0.001227673               0.002690161               0.001462488               0.000000000               0.000000000               0.000000000               0.000000000              -0.000727178               0.006508856              -0.000541895              -0.001086296               0.002531696               0.001445400               0.000000000               0.000000000               0.000000000               0.000000000              -0.000505952               0.006195638              -0.000440495              -0.000964185               0.002386587               0.001422402               0.000000000               0.000000000               0.000000000               0.000000000              -0.000327012               0.005904498              -0.000340327              -0.000860690               0.002255043               0.001394353               0.000000000               0.000000000               0.000000000               0.000000000              -0.000194794               0.005636778              -0.000238038              -0.000777643               0.002138122               0.001360478               0.000000000               0.000000000               0.000000000               0.000000000              -0.000121047               0.005404342              -0.000146840              -0.000720934               0.002041741               0.001320807               0.000000000               0.000000000               0.000000000               0.000000000              -0.000104660               0.005223327              -0.000074737              -0.000692161               0.001971812               0.001279651               0.000000000               0.000000000               0.000000000               0.000000000              -0.000128795               0.005095140              -0.000023554              -0.000685189               0.001926759               0.001241571               0.000000000               0.000000000               0.000000000               0.000000000              -0.000152312               0.005039074              -0.000001912              -0.000687000               0.001908675               0.001221675               0.000000000               0.000000000               0.000000000               0.000000000              -0.002099132               0.002975905              -0.001036414              -0.001159160               0.001378345               0.000219184               0.000000000               0.000000000               0.000000000               0.000000000              -0.002414823               0.004797883              -0.001740676              -0.001505291               0.002101042               0.000595750               0.000000000               0.000000000               0.000000000               0.000000000              -0.002950240               0.006672045              -0.002187762              -0.001940342               0.002870773               0.000930431               0.000000000               0.000000000               0.000000000               0.000000000              -0.002789935               0.007347423              -0.002020467              -0.001964649               0.003103999               0.001139350               0.000000000               0.000000000               0.000000000               0.000000000              -0.002446062               0.007513622              -0.001760774              -0.001856472               0.003123339               0.001266867               0.000000000               0.000000000               0.000000000               0.000000000              -0.002079341               0.007447263              -0.001519142              -0.001710657               0.003052615               0.001341958               0.000000000               0.000000000               0.000000000               0.000000000              -0.001722850               0.007262827              -0.001310767              -0.001553919               0.002938891               0.001384972               0.000000000               0.000000000               0.000000000               0.000000000              -0.001382166               0.007021998              -0.001132405              -0.001396059               0.002805995               0.001409937               0.000000000               0.000000000               0.000000000               0.000000000              -0.001066608               0.006758421              -0.000981239              -0.001244778               0.002667710               0.001422933               0.000000000               0.000000000               0.000000000               0.000000000              -0.000784277               0.006489519              -0.000849395              -0.001105291               0.002531582               0.001426291               0.000000000               0.000000000               0.000000000               0.000000000              -0.000543682               0.006222615              -0.000722680              -0.000981705               0.002401419               0.001419714               0.000000000               0.000000000               0.000000000               0.000000000              -0.000348202               0.005967187              -0.000594861              -0.000876472               0.002281200               0.001404728               0.000000000               0.000000000               0.000000000               0.000000000              -0.000197433               0.005721034              -0.000456161              -0.000789165               0.002170047               0.001380882               0.000000000               0.000000000               0.000000000               0.000000000              -0.000098069               0.005491272              -0.000315039              -0.000723183               0.002071467               0.001348284               0.000000000               0.000000000               0.000000000               0.000000000              -0.000067173               0.005285831              -0.000184785              -0.000685917               0.001990565               0.001304648               0.000000000               0.000000000               0.000000000               0.000000000              -0.000100463               0.005125311              -0.000078073              -0.000678336               0.001934532               0.001256196               0.000000000               0.000000000               0.000000000               0.000000000              -0.000149634               0.005046664              -0.000025112              -0.000686944               0.001911186               0.001224242               0.000000000               0.000000000               0.000000000               0.000000000              -0.003704162               0.001545496              -0.000298376              -0.001582245               0.001042573              -0.000539672               0.000000000               0.000000000               0.000000000               0.000000000              -0.003164201               0.003379693              -0.001439654              -0.001609034               0.001662897               0.000053863               0.000000000               0.000000000               0.000000000               0.000000000              -0.003098129               0.005216949              -0.002321384              -0.001813913               0.002343602               0.000529689               0.000000000               0.000000000               0.000000000               0.000000000              -0.002783666               0.006114018              -0.002332649              -0.001808123               0.002640693               0.000832569               0.000000000               0.000000000               0.000000000               0.000000000              -0.002403274               0.006534889              -0.002123223              -0.001718085               0.002750969               0.001032884               0.000000000               0.000000000               0.000000000               0.000000000              -0.002031329               0.006694385              -0.001877073              -0.001598543               0.002764287               0.001165743               0.000000000               0.000000000               0.000000000               0.000000000              -0.001683503               0.006703377              -0.001646415              -0.001469233               0.002724180               0.001254948               0.000000000               0.000000000               0.000000000               0.000000000              -0.001350018               0.006620186              -0.001447382              -0.001333777               0.002651299               0.001317522               0.000000000               0.000000000               0.000000000               0.000000000              -0.001030765               0.006479885              -0.001280648              -0.001196520               0.002558780               0.001362260               0.000000000               0.000000000               0.000000000               0.000000000              -0.000739420               0.006306925              -0.001132520              -0.001065646               0.002457503               0.001391857               0.000000000               0.000000000               0.000000000               0.000000000              -0.000480355               0.006119594              -0.000989594              -0.000945080               0.002354871               0.001409791               0.000000000               0.000000000               0.000000000               0.000000000              -0.000261437               0.005924908              -0.000845066              -0.000838650               0.002254500               0.001415849               0.000000000               0.000000000               0.000000000               0.000000000              -0.000086596               0.005723065              -0.000688252              -0.000747855               0.002156954               0.001409099               0.000000000               0.000000000               0.000000000               0.000000000               0.000042017               0.005519691              -0.000516782              -0.000674204               0.002064613               0.001390409               0.000000000               0.000000000               0.000000000               0.000000000               0.000109938               0.005321146              -0.000338348              -0.000623915               0.001981669               0.001357754               0.000000000               0.000000000               0.000000000               0.000000000               0.000099831               0.005148341              -0.000164150              -0.000606105               0.001918131               0.001312027               0.000000000               0.000000000               0.000000000               0.000000000               0.000050027               0.005056016              -0.000071888              -0.000613240               0.001889735               0.001276495               0.000000000               0.000000000               0.000000000               0.000000000              -0.005415295               0.000486642               0.000274723              -0.002091564               0.000859396              -0.001232168               0.000000000               0.000000000               0.000000000               0.000000000              -0.003989510               0.002118269              -0.001087077              -0.001760847               0.001293030              -0.000467817               0.000000000               0.000000000               0.000000000               0.000000000              -0.003215312               0.003722324              -0.002226715              -0.001671029               0.001797771               0.000126741               0.000000000               0.000000000               0.000000000               0.000000000              -0.002677191               0.004727067              -0.002401090              -0.001594827               0.002107281               0.000512454               0.000000000               0.000000000               0.000000000               0.000000000              -0.002239272               0.005344143              -0.002273996              -0.001507742               0.002283943               0.000776201               0.000000000               0.000000000               0.000000000               0.000000000              -0.001854666               0.005711388              -0.002060687              -0.001409421               0.002373583               0.000964162               0.000000000               0.000000000               0.000000000               0.000000000              -0.001509528               0.005912629              -0.001841109              -0.001305149               0.002405906               0.001100757               0.000000000               0.000000000               0.000000000               0.000000000              -0.001189552               0.005998865              -0.001642621              -0.001195938               0.002398247               0.001202309               0.000000000               0.000000000               0.000000000               0.000000000              -0.000882524               0.006005035              -0.001470404              -0.001081574               0.002362183               0.001280609               0.000000000               0.000000000               0.000000000               0.000000000              -0.000591125               0.005953583              -0.001316556              -0.000965868               0.002306464               0.001340596               0.000000000               0.000000000               0.000000000               0.000000000              -0.000319058               0.005867652              -0.001169616              -0.000853102               0.002240232               0.001387130               0.000000000               0.000000000               0.000000000               0.000000000              -0.000073165               0.005755834              -0.001020741              -0.000746915               0.002167563               0.001420649               0.000000000               0.000000000               0.000000000               0.000000000               0.000140452               0.005621320              -0.000860766              -0.000649994               0.002090419               0.001440425               0.000000000               0.000000000               0.000000000               0.000000000               0.000318103               0.005469170              -0.000681969              -0.000564356               0.002011157               0.001446801               0.000000000               0.000000000               0.000000000               0.000000000               0.000448779               0.005309351              -0.000478322              -0.000495375               0.001934891               0.001439515               0.000000000               0.000000000               0.000000000               0.000000000               0.000510613               0.005153836              -0.000248989              -0.000452749               0.001868844               0.001416096               0.000000000               0.000000000               0.000000000               0.000000000               0.000511072               0.005070317              -0.000126161              -0.000442137               0.001837468               0.001395331               0.000000000               0.000000000               0.000000000               0.000000000              -0.007062258              -0.000205161               0.000594026              -0.002622700               0.000805840              -0.001816859               0.000000000               0.000000000               0.000000000               0.000000000              -0.004818742               0.001090582              -0.000736218              -0.001943349               0.001011303              -0.000932046               0.000000000               0.000000000               0.000000000               0.000000000              -0.003323045               0.002338573              -0.001905353              -0.001538461               0.001292335              -0.000246126               0.000000000               0.000000000               0.000000000               0.000000000              -0.002506114               0.003347518              -0.002175794              -0.001358230               0.001568570               0.000210340               0.000000000               0.000000000               0.000000000               0.000000000              -0.001977211               0.004089101              -0.002131960              -0.001252589               0.001780549               0.000527959               0.000000000               0.000000000               0.000000000               0.000000000              -0.001572349               0.004619877              -0.001979330              -0.001167114               0.001928981               0.000761867               0.000000000               0.000000000               0.000000000               0.000000000              -0.001228548               0.004985599              -0.001799826              -0.001083904               0.002023150               0.000939247               0.000000000               0.000000000               0.000000000               0.000000000              -0.000925052               0.005224338              -0.001626614              -0.000999935               0.002074740               0.001074805               0.000000000               0.000000000               0.000000000               0.000000000              -0.000639662               0.005376988              -0.001469947              -0.000911995               0.002096309               0.001184314               0.000000000               0.000000000               0.000000000               0.000000000              -0.000360872               0.005460664              -0.001326766              -0.000817909               0.002092839               0.001274930               0.000000000               0.000000000               0.000000000               0.000000000              -0.000085488               0.005490597              -0.001189551              -0.000718381               0.002069641               0.001351260               0.000000000               0.000000000               0.000000000               0.000000000               0.000183012               0.005477326              -0.001051734              -0.000616035               0.002031102               0.001415067               0.000000000               0.000000000               0.000000000               0.000000000               0.000442998               0.005428095              -0.000906221              -0.000512387               0.001980142               0.001467756               0.000000000               0.000000000               0.000000000               0.000000000               0.000691166               0.005349079              -0.000740547              -0.000409447               0.001919491               0.001510044               0.000000000               0.000000000               0.000000000               0.000000000               0.000919148               0.005248392              -0.000541256              -0.000311368               0.001853236               0.001541868               0.000000000               0.000000000               0.000000000               0.000000000               0.001114460               0.005131128              -0.000295550              -0.000223468               0.001784848               0.001561380               0.000000000               0.000000000               0.000000000               0.000000000               0.001226734               0.005076480              -0.000164698              -0.000174534               0.001750321               0.001575787               0.000000000               0.000000000               0.000000000               0.000000000              -0.008448145              -0.000594411               0.000617379              -0.003093751               0.000833108              -0.002260643               0.000000000               0.000000000               0.000000000               0.000000000              -0.005542083               0.000345906              -0.000433585              -0.002121517               0.000822469              -0.001299049               0.000000000               0.000000000               0.000000000               0.000000000              -0.003422183               0.001217601              -0.001388932              -0.001435517               0.000884366              -0.000551151               0.000000000               0.000000000               0.000000000               0.000000000              -0.002330492               0.002161651              -0.001658091              -0.001144139               0.001101921              -0.000042217               0.000000000               0.000000000               0.000000000               0.000000000              -0.001688900               0.002964359              -0.001666529              -0.001003881               0.001322736               0.000318855               0.000000000               0.000000000               0.000000000               0.000000000              -0.001253306               0.003603831              -0.001576625              -0.000920467               0.001508087               0.000587620               0.000000000               0.000000000               0.000000000               0.000000000              -0.000913492               0.004091406              -0.001454285              -0.000853984               0.001648449               0.000794465               0.000000000               0.000000000               0.000000000               0.000000000              -0.000622124               0.004452299              -0.001328890              -0.000789833               0.001747362               0.000957529               0.000000000               0.000000000               0.000000000               0.000000000              -0.000353204               0.004725205              -0.001210834              -0.000723101               0.001816086               0.001092985               0.000000000               0.000000000               0.000000000               0.000000000              -0.000091627               0.004926981              -0.001100558              -0.000650232               0.001859054               0.001208822               0.000000000               0.000000000               0.000000000               0.000000000               0.000179216               0.005064984              -0.000993655              -0.000565916               0.001876950               0.001311034               0.000000000               0.000000000               0.000000000               0.000000000               0.000465030               0.005147804              -0.000885194              -0.000469089               0.001872280               0.001403192               0.000000000               0.000000000               0.000000000               0.000000000               0.000765242               0.005186774              -0.000771705              -0.000361380               0.001849367               0.001487987               0.000000000               0.000000000               0.000000000               0.000000000               0.001084130               0.005189359              -0.000641785              -0.000242121               0.001810476               0.001568355               0.000000000               0.000000000               0.000000000               0.000000000               0.001425744               0.005155890              -0.000482459              -0.000109832               0.001755224               0.001645391               0.000000000               0.000000000               0.000000000               0.000000000               0.001784884               0.005086937              -0.000271658               0.000033463               0.001684474               0.001717938               0.000000000               0.000000000               0.000000000               0.000000000               0.002043190               0.005071736              -0.000159681               0.000132228               0.001646486               0.001778714               0.000000000               0.000000000               0.000000000               0.000000000              -0.009380761              -0.000782082               0.000381479              -0.003420023               0.000879308              -0.002540715               0.000000000               0.000000000               0.000000000               0.000000000              -0.006037165              -0.000105993              -0.000196267              -0.002250686               0.000714893              -0.001535793               0.000000000               0.000000000               0.000000000               0.000000000              -0.003491448               0.000488655              -0.000730377              -0.001370373               0.000619671              -0.000750702               0.000000000               0.000000000               0.000000000               0.000000000              -0.002202639               0.001359502              -0.000896762              -0.000995926               0.000785137              -0.000210789               0.000000000               0.000000000               0.000000000               0.000000000              -0.001471591               0.002174383              -0.000917303              -0.000823643               0.000999334               0.000175691               0.000000000               0.000000000               0.000000000               0.000000000              -0.001002560               0.002873008              -0.000878412              -0.000735085               0.001202688               0.000467603               0.000000000               0.000000000               0.000000000               0.000000000              -0.000660215               0.003438845              -0.000817687              -0.000677435               0.001372082               0.000694647               0.000000000               0.000000000               0.000000000               0.000000000              -0.000378047               0.003878893              -0.000753008              -0.000626628               0.001501827               0.000875199               0.000000000               0.000000000               0.000000000               0.000000000              -0.000117895               0.004226996              -0.000689354              -0.000572584               0.001599846               0.001027262               0.000000000               0.000000000               0.000000000               0.000000000               0.000139269               0.004501243              -0.000629006              -0.000510428               0.001670542               0.001160114               0.000000000               0.000000000               0.000000000               0.000000000               0.000408193               0.004713162              -0.000572067              -0.000436072               0.001716396               0.001280323               0.000000000               0.000000000               0.000000000               0.000000000               0.000702397               0.004870387              -0.000511765              -0.000345399               0.001738579               0.001393180               0.000000000               0.000000000               0.000000000               0.000000000               0.001029248               0.004977333              -0.000446644              -0.000236198               0.001737827               0.001501629               0.000000000               0.000000000               0.000000000               0.000000000               0.001397593               0.005039388              -0.000375843              -0.000105826               0.001715055               0.001609228               0.000000000               0.000000000               0.000000000               0.000000000               0.001821234               0.005062414              -0.000286666               0.000050160               0.001670734               0.001720895               0.000000000               0.000000000               0.000000000               0.000000000               0.002313047               0.005044446              -0.000161098               0.000236835               0.001602520               0.001839355               0.000000000               0.000000000               0.000000000               0.000000000               0.002698551               0.005067039              -0.000095443               0.000378573               0.001562805               0.001941378               0.000000000               0.000000000               0.000000000               0.000000000               0.000000000               0.000000000               0.000000000               0.000000000               0.000000000               0.000000000               0.000000000               0.000000000               0.000000000               0.000000000               0.000000000               0.000000000               0.000000000               0.000000000               0.000000000               0.000000000               0.000000000               0.000000000               0.000000000               0.000000000               0.000000000               0.000000000               0.000000000               0.000000000               0.000000000               0.000000000               0.000000000               0.000000000               0.000000000               0.000000000               0.000000000               0.000000000               0.000000000               0.000000000               0.000000000               0.000000000               0.000000000               0.000000000               0.000000000               0.000000000               0.000000000               0.000000000               0.000000000               0.000000000               0.000000000               0.000000000               0.000000000               0.000000000               0.000000000               0.000000000               0.000000000               0.000000000               0.000000000               0.000000000               0.000000000               0.000000000               0.000000000               0.000000000               0.000000000               0.000000000               0.000000000               0.000000000               0.000000000               0.000000000               0.000000000               0.000000000               0.000000000               0.000000000               0.000000000               0.000000000               0.000000000               0.000000000               0.000000000               0.000000000               0.000000000               0.000000000               0.000000000               0.000000000               0.000000000               0.000000000               0.000000000               0.000000000               0.000000000               0.000000000               0.000000000               0.000000000               0.000000000               0.000000000               0.000000000               0.000000000               0.000000000               0.000000000               0.000000000               0.000000000               0.000000000               0.000000000               0.000000000               0.000000000               0.000000000               0.000000000               0.000000000               0.000000000               0.000000000               0.000000000               0.000000000               0.000000000               0.000000000               0.000000000               0.000000000               0.000000000               0.000000000               0.000000000               0.000000000               0.000000000               0.000000000               0.000000000               0.000000000               0.000000000               0.000000000               0.000000000               0.000000000               0.000000000               0.000000000               0.000000000               0.000000000               0.000000000               0.000000000               0.000000000               0.000000000               0.000000000               0.000000000               0.000000000               0.000000000               0.000000000               0.000000000               0.000000000               0.000000000               0.000000000               0.000000000               0.000000000               0.000000000               0.000000000               0.000000000               0.000000000               0.000000000               0.000000000               0.000000000               0.000000000               0.000000000               0.000000000               0.000000000               0.000000000               0.000000000               0.000000000               0.000000000               0.000000000               0.000000000               0.000000000               0.000000000               0.000000000               0.000000000               0.000000000               0.000000000               0.000000000               0.000000000               0.000000000               0.000000000               0.000000000               0.000000000               0.000000000               0.000000000               0.000000000               0.000000000               0.000000000               0.000000000               0.000000000               0.000000000               0.000000000               0.000000000               0.000000000               0.000000000               0.000000000               0.000000000               0.000000000               0.000000000               0.000000000               0.000000000               0.000000000               0.000000000               0.000000000               0.000000000               0.000000000               0.000000000               0.000000000               0.000000000               0.000000000               0.000000000               0.000000000               0.000000000               0.000000000               0.000000000               0.000000000               0.000000000               0.000000000               0.000000000               0.000000000               0.000000000               0.000000000               0.000000000               0.000000000               0.000000000               0.000000000               0.000000000               0.000000000               0.000000000               0.000000000               0.000000000               0.000000000               0.000000000               0.000000000               0.000000000               0.000000000               0.000000000               0.000000000               0.000000000               0.000000000               0.000000000               0.000000000               0.000000000               0.000000000               0.000000000               0.000000000               0.000000000               0.000000000               0.000000000               0.000000000               0.000000000               0.000000000               0.000000000               0.000000000               0.000000000               0.000000000               0.000000000               0.000000000               0.000000000               0.000000000               0.000000000               0.000000000               0.000000000               0.000000000               0.000000000               0.000000000               0.000000000               0.000000000               0.000000000               0.000000000               0.000000000               0.000000000               0.000000000               0.000000000               0.000000000               0.000000000               0.000000000               0.000000000               0.000000000               0.000000000               0.000000000               0.000000000               0.000000000               0.000000000               0.000000000               0.000000000               0.000000000               0.000000000               0.000000000               0.000000000               0.000000000               0.000000000               0.000000000               0.000000000               0.000000000               0.000000000               0.000000000               0.000000000               0.000000000               0.000000000               0.000000000               0.000000000               0.000000000               0.000000000               0.000000000               0.000000000               0.000000000               0.000000000               0.000000000               0.000000000               0.000000000               0.000000000               0.000000000               0.000000000               0.000000000               0.000000000               0.000000000               0.000000000               0.000000000               0.000000000               0.000000000               0.000000000               0.000000000               0.000000000               0.000000000               0.000000000               0.000000000               0.000000000               0.000000000               0.000000000               0.000000000               0.000000000               0.000000000               0.000000000               0.000000000               0.000000000               0.000000000               0.000000000               0.000000000               0.000000000               0.000000000               0.000000000               0.000000000               0.000000000               0.000000000               0.000000000               0.000000000               0.000000000               0.000000000               0.000000000               0.000000000               0.000000000               0.000000000               0.000000000               0.002117865               0.021709911               0.001521230              -0.001919535               0.007876410               0.005956875               0.000000000               0.000000000               0.000000000               0.000000000               0.002012132               0.017110760               0.000771397              -0.001384292               0.006164960               0.004780668               0.000000000               0.000000000               0.000000000               0.000000000               0.002552323               0.013432393               0.000021039              -0.000721926               0.004718062               0.003996136               0.000000000               0.000000000               0.000000000               0.000000000               0.002416517               0.011374431              -0.000298493              -0.000515609               0.003963309               0.003447700               0.000000000               0.000000000               0.000000000               0.000000000               0.002086713               0.010092657              -0.000429796              -0.000479064               0.003523873               0.003044810               0.000000000               0.000000000               0.000000000               0.000000000               0.001726329               0.009213166              -0.000470074              -0.000504271               0.003239115               0.002734844               0.000000000               0.000000000               0.000000000               0.000000000               0.001394092               0.008547990              -0.000466596              -0.000545713               0.003031206               0.002485493               0.000000000               0.000000000               0.000000000               0.000000000               0.001107906               0.008008573              -0.000449502              -0.000585606               0.002864699               0.002279094               0.000000000               0.000000000               0.000000000               0.000000000               0.000862424               0.007544165              -0.000429030              -0.000619610               0.002721233               0.002101623               0.000000000               0.000000000               0.000000000               0.000000000               0.000651499               0.007124608              -0.000406923              -0.000646262               0.002590266               0.001944004               0.000000000               0.000000000               0.000000000               0.000000000               0.000467832               0.006728285              -0.000386664              -0.000665597               0.002464605               0.001799008               0.000000000               0.000000000               0.000000000               0.000000000               0.000312466               0.006342058              -0.000362906              -0.000675581               0.002339192               0.001663611               0.000000000               0.000000000               0.000000000               0.000000000               0.000191011               0.005952495              -0.000330060              -0.000672431               0.002208289               0.001535858               0.000000000               0.000000000               0.000000000               0.000000000               0.000098212               0.005546202              -0.000286420              -0.000656444               0.002067530               0.001411086               0.000000000               0.000000000               0.000000000               0.000000000               0.000033126               0.005111379              -0.000223663              -0.000626498               0.001912609               0.001286110               0.000000000               0.000000000               0.000000000               0.000000000               0.000003915               0.004634739              -0.000128715              -0.000577873               0.001737522               0.001159649               0.000000000               0.000000000               0.000000000               0.000000000              -0.000037865               0.004277926              -0.000077914              -0.000548939               0.001608941               0.001060002               0.000000000               0.000000000               0.000000000               0.000000000               0.002310375               0.020434489               0.002831238              -0.001687917               0.007374067               0.005686150               0.000000000               0.000000000               0.000000000               0.000000000               0.001900161               0.016287517               0.001434166              -0.001323376               0.005870243               0.004546867               0.000000000               0.000000000               0.000000000               0.000000000               0.002115826               0.013083336               0.000052759              -0.000841980               0.004641728               0.003799748               0.000000000               0.000000000               0.000000000               0.000000000               0.001862243               0.011263939              -0.000513634              -0.000709650               0.003991159               0.003281509               0.000000000               0.000000000               0.000000000               0.000000000               0.001512031               0.010102806              -0.000738009              -0.000695838               0.003599514               0.002903677               0.000000000               0.000000000               0.000000000               0.000000000               0.001177897               0.009284459              -0.000804012              -0.000718844               0.003334403               0.002615559               0.000000000               0.000000000               0.000000000               0.000000000               0.000894386               0.008655649              -0.000797599              -0.000746560               0.003134041               0.002387481               0.000000000               0.000000000               0.000000000               0.000000000               0.000663001               0.008136350              -0.000766454              -0.000768417               0.002968228               0.002199812               0.000000000               0.000000000               0.000000000               0.000000000               0.000480352               0.007683445              -0.000727318              -0.000780297               0.002821222               0.002040925               0.000000000               0.000000000               0.000000000               0.000000000               0.000335595               0.007269812              -0.000684918              -0.000782877               0.002684205               0.001901328               0.000000000               0.000000000               0.000000000               0.000000000               0.000215475               0.006878538              -0.000642351              -0.000779013               0.002552494               0.001773481               0.000000000               0.000000000               0.000000000               0.000000000               0.000121094               0.006502441              -0.000593499              -0.000767393               0.002423256               0.001655863               0.000000000               0.000000000               0.000000000               0.000000000               0.000056165               0.006136234              -0.000532145              -0.000745966               0.002294046               0.001548081               0.000000000               0.000000000               0.000000000               0.000000000               0.000012081               0.005774964              -0.000455067              -0.000717339               0.002164082               0.001446743               0.000000000               0.000000000               0.000000000               0.000000000              -0.000013262               0.005418230              -0.000349730              -0.000682250               0.002033475               0.001351225               0.000000000               0.000000000               0.000000000               0.000000000              -0.000015603               0.005066968              -0.000198043              -0.000639221               0.001902046               0.001262825               0.000000000               0.000000000               0.000000000               0.000000000              -0.000034472               0.004829227              -0.000116962              -0.000616579               0.001815252               0.001198674               0.000000000               0.000000000               0.000000000               0.000000000               0.002511672               0.018490727               0.003773498              -0.001369463               0.006620001               0.005250538               0.000000000               0.000000000               0.000000000               0.000000000               0.001674004               0.015049435               0.001919529              -0.001253426               0.005434236               0.004180811               0.000000000               0.000000000               0.000000000               0.000000000               0.001436324               0.012556782               0.000113185              -0.001030974               0.004529210               0.003498236               0.000000000               0.000000000               0.000000000               0.000000000               0.001048107               0.011079211              -0.000589667              -0.000991859               0.004023653               0.003031794               0.000000000               0.000000000               0.000000000               0.000000000               0.000705444               0.010086233              -0.000853152              -0.000996235               0.003694123               0.002697887               0.000000000               0.000000000               0.000000000               0.000000000               0.000435397               0.009351331              -0.000923920              -0.001005640               0.003452292               0.002446652               0.000000000               0.000000000               0.000000000               0.000000000               0.000237347               0.008764728              -0.000907127              -0.001006584               0.003257075               0.002250491               0.000000000               0.000000000               0.000000000               0.000000000               0.000096148               0.008265217              -0.000861889              -0.000997094               0.003087410               0.002090315               0.000000000               0.000000000               0.000000000               0.000000000              -0.000001575               0.007818678              -0.000808702              -0.000977923               0.002932174               0.001954251               0.000000000               0.000000000               0.000000000               0.000000000              -0.000068519               0.007403635              -0.000752587              -0.000951147               0.002784903               0.001833756               0.000000000               0.000000000               0.000000000               0.000000000              -0.000112055               0.007015962              -0.000696991              -0.000919014               0.002644968               0.001725955               0.000000000               0.000000000               0.000000000               0.000000000              -0.000131622               0.006650065              -0.000633419              -0.000880615               0.002510204               0.001629590               0.000000000               0.000000000               0.000000000               0.000000000              -0.000128890               0.006305659              -0.000555391              -0.000836539               0.002380712               0.001544173               0.000000000               0.000000000               0.000000000               0.000000000              -0.000115105               0.005985660              -0.000462919              -0.000791370               0.002258990               0.001467620               0.000000000               0.000000000               0.000000000               0.000000000              -0.000087225               0.005697386              -0.000345287              -0.000744881               0.002147403               0.001402522               0.000000000               0.000000000               0.000000000               0.000000000              -0.000046410               0.005450282              -0.000189700              -0.000698687               0.002049638               0.001350951               0.000000000               0.000000000               0.000000000               0.000000000              -0.000039784               0.005304407              -0.000109994              -0.000677968               0.001994107               0.001316139               0.000000000               0.000000000               0.000000000               0.000000000               0.002586894               0.016106784               0.004269233              -0.001043264               0.005716628               0.004673364               0.000000000               0.000000000               0.000000000               0.000000000               0.001303782               0.013562895               0.002205292              -0.001206442               0.004923067               0.003716625               0.000000000               0.000000000               0.000000000               0.000000000               0.000597919               0.011924311               0.000226160              -0.001266316               0.004396836               0.003130520               0.000000000               0.000000000               0.000000000               0.000000000               0.000119116               0.010826788              -0.000494466              -0.001308677               0.004045119               0.002736442               0.000000000               0.000000000               0.000000000               0.000000000              -0.000169818               0.010011338              -0.000749180              -0.001315096               0.003775445               0.002460349               0.000000000               0.000000000               0.000000000               0.000000000              -0.000334733               0.009355651              -0.000812476              -0.001294978               0.003550179               0.002255200               0.000000000               0.000000000               0.000000000               0.000000000              -0.000420001               0.008795868              -0.000792804              -0.001256981               0.003350920               0.002093939               0.000000000               0.000000000               0.000000000               0.000000000              -0.000451795               0.008301616              -0.000746224              -0.001207122               0.003169552               0.001962429               0.000000000               0.000000000               0.000000000               0.000000000              -0.000448915               0.007848977              -0.000691147              -0.001149463               0.002999454               0.001849991               0.000000000               0.000000000               0.000000000               0.000000000              -0.000427688               0.007428900              -0.000637117              -0.001088993               0.002839273               0.001750280               0.000000000               0.000000000               0.000000000               0.000000000              -0.000395100               0.007042926              -0.000584336              -0.001028526               0.002690461               0.001661935               0.000000000               0.000000000               0.000000000               0.000000000              -0.000352716               0.006688180              -0.000520410              -0.000968289               0.002552134               0.001583845               0.000000000               0.000000000               0.000000000               0.000000000              -0.000296820               0.006367533              -0.000444663              -0.000907247               0.002424906               0.001517658               0.000000000               0.000000000               0.000000000               0.000000000              -0.000229129               0.006083760              -0.000360028              -0.000846391               0.002310030               0.001463639               0.000000000               0.000000000               0.000000000               0.000000000              -0.000155189               0.005838984              -0.000259388              -0.000788067               0.002208998               0.001420931               0.000000000               0.000000000               0.000000000               0.000000000              -0.000077695               0.005646769              -0.000137052              -0.000734980               0.002127231               0.001392251               0.000000000               0.000000000               0.000000000               0.000000000              -0.000051624               0.005544773              -0.000078118              -0.000712454               0.002085724               0.001373270               0.000000000               0.000000000               0.000000000               0.000000000               0.002428792               0.013525291               0.004320497              -0.000779867               0.004768340               0.003988473               0.000000000               0.000000000               0.000000000               0.000000000               0.000788913               0.011988283               0.002315781              -0.001202691               0.004396951               0.003194260               0.000000000               0.000000000               0.000000000               0.000000000              -0.000303295               0.011242767               0.000417430              -0.001519078               0.004253911               0.002734833               0.000000000               0.000000000               0.000000000               0.000000000              -0.000784277               0.010504080              -0.000235181              -0.001607110               0.004037028               0.002429918               0.000000000               0.000000000               0.000000000               0.000000000              -0.000965104               0.009838278              -0.000463872              -0.001591695               0.003809958               0.002218263               0.000000000               0.000000000               0.000000000               0.000000000              -0.000996660               0.009237766              -0.000526515              -0.001528465               0.003588713               0.002060248               0.000000000               0.000000000               0.000000000               0.000000000              -0.000954356               0.008691697              -0.000518444              -0.001444342               0.003378651               0.001934308               0.000000000               0.000000000               0.000000000               0.000000000              -0.000875362               0.008192062              -0.000486476              -0.001352265               0.003181415               0.001829150               0.000000000               0.000000000               0.000000000               0.000000000              -0.000779517               0.007730181              -0.000445945              -0.001258588               0.002996231               0.001737642               0.000000000               0.000000000               0.000000000               0.000000000              -0.000677185               0.007305125              -0.000408724              -0.001167082               0.002824045               0.001656962               0.000000000               0.000000000               0.000000000               0.000000000              -0.000576412               0.006920653              -0.000376705              -0.001081233               0.002667273               0.001586039               0.000000000               0.000000000               0.000000000               0.000000000              -0.000478209               0.006579367              -0.000335603              -0.001001747               0.002527016               0.001525269               0.000000000               0.000000000               0.000000000               0.000000000              -0.000376309               0.006283958              -0.000282678              -0.000926608               0.002403501               0.001476893               0.000000000               0.000000000               0.000000000               0.000000000              -0.000270966               0.006028902              -0.000220730              -0.000855223               0.002294688               0.001439465               0.000000000               0.000000000               0.000000000               0.000000000              -0.000169426               0.005815547              -0.000151054              -0.000790476               0.002201988               0.001411512               0.000000000               0.000000000               0.000000000               0.000000000              -0.000079071               0.005659177              -0.000077132              -0.000737047               0.002132056               0.001395009               0.000000000               0.000000000               0.000000000               0.000000000              -0.000049084               0.005582376              -0.000045807              -0.000716202               0.002099507               0.001383305               0.000000000               0.000000000               0.000000000               0.000000000               0.001971971               0.010963856               0.003999627              -0.000630995               0.003864913               0.003233917               0.000000000               0.000000000               0.000000000               0.000000000               0.000159916               0.010451496               0.002302406              -0.001246467               0.003899286               0.002652818               0.000000000               0.000000000               0.000000000               0.000000000              -0.001160487               0.010537473               0.000690609              -0.001752363               0.004096577               0.002344214               0.000000000               0.000000000               0.000000000               0.000000000              -0.001546998               0.010095017               0.000144350              -0.001841997               0.003978971               0.002136974               0.000000000               0.000000000               0.000000000               0.000000000              -0.001581719               0.009542784              -0.000064730              -0.001785988               0.003776226               0.001990237               0.000000000               0.000000000               0.000000000               0.000000000              -0.001474824               0.008983768              -0.000142640              -0.001676026               0.003553235               0.001877209               0.000000000               0.000000000               0.000000000               0.000000000              -0.001308501               0.008447588              -0.000161820              -0.001546633               0.003331379               0.001784746               0.000000000               0.000000000               0.000000000               0.000000000              -0.001123713               0.007946275              -0.000160318              -0.001414673               0.003120290               0.001705617               0.000000000               0.000000000               0.000000000               0.000000000              -0.000944980               0.007482636              -0.000152021              -0.001289694               0.002924085               0.001634391               0.000000000               0.000000000               0.000000000               0.000000000              -0.000779073               0.007062450              -0.000149075              -0.001174956               0.002745778               0.001570823               0.000000000               0.000000000               0.000000000               0.000000000              -0.000625259               0.006690189              -0.000153148              -0.001070743               0.002586955               0.001516212               0.000000000               0.000000000               0.000000000               0.000000000              -0.000483635               0.006365402              -0.000148799              -0.000977036               0.002447458               0.001470422               0.000000000               0.000000000               0.000000000               0.000000000              -0.000352203               0.006085505              -0.000128502              -0.000892762               0.002326069               0.001433307               0.000000000               0.000000000               0.000000000               0.000000000              -0.000229772               0.005847580              -0.000095881              -0.000817110               0.002221544               0.001404434               0.000000000               0.000000000               0.000000000               0.000000000              -0.000125960               0.005660644              -0.000061329              -0.000754814               0.002138467               0.001383653               0.000000000               0.000000000               0.000000000               0.000000000              -0.000051850               0.005532815              -0.000030124              -0.000711044               0.002081268               0.001370224               0.000000000               0.000000000               0.000000000               0.000000000              -0.000031104               0.005472200              -0.000019900              -0.000695687               0.002055944               0.001360257               0.000000000               0.000000000               0.000000000               0.000000000               0.001240206               0.008590207               0.003403807              -0.000608700               0.003066273               0.002457572               0.000000000               0.000000000               0.000000000               0.000000000              -0.000544623               0.009042760               0.002210870              -0.001334577               0.003459082               0.002124505               0.000000000               0.000000000               0.000000000               0.000000000              -0.001891268               0.009803367               0.001031574              -0.001934642               0.003912637               0.001977995               0.000000000               0.000000000               0.000000000               0.000000000              -0.002101538               0.009585569               0.000584806              -0.001986268               0.003857247               0.001870979               0.000000000               0.000000000               0.000000000               0.000000000              -0.001969148               0.009131272               0.000372614              -0.001879835               0.003670339               0.001790504               0.000000000               0.000000000               0.000000000               0.000000000              -0.001734085               0.008611350               0.000263386              -0.001726696               0.003445987               0.001719291               0.000000000               0.000000000               0.000000000               0.000000000              -0.001468071               0.008090799               0.000203011              -0.001561873               0.003217530               0.001655658               0.000000000               0.000000000               0.000000000               0.000000000              -0.001201794               0.007598989               0.000157467              -0.001400543               0.002999819               0.001599276               0.000000000               0.000000000               0.000000000               0.000000000              -0.000957721               0.007148379               0.000117763              -0.001252690               0.002800332               0.001547643               0.000000000               0.000000000               0.000000000               0.000000000              -0.000746124               0.006747508               0.000078135              -0.001123232               0.002623557               0.001500325               0.000000000               0.000000000               0.000000000               0.000000000              -0.000562101               0.006394819               0.000036537              -0.001010138               0.002468298               0.001458160               0.000000000               0.000000000               0.000000000               0.000000000              -0.000399975               0.006083553               0.000005376              -0.000910432               0.002331308               0.001420876               0.000000000               0.000000000               0.000000000               0.000000000              -0.000260655               0.005811238              -0.000007007              -0.000824148               0.002211776               0.001387628               0.000000000               0.000000000               0.000000000               0.000000000              -0.000150321               0.005589234              -0.000006396              -0.000755023               0.002114734               0.001359711               0.000000000               0.000000000               0.000000000               0.000000000              -0.000074857               0.005428829              -0.000004448              -0.000706673               0.002045149               0.001338476               0.000000000               0.000000000               0.000000000               0.000000000              -0.000029846               0.005323986              -0.000003977              -0.000676689               0.002000207               0.001323518               0.000000000               0.000000000               0.000000000               0.000000000              -0.000017987               0.005273582              -0.000007018              -0.000665941               0.001979823               0.001313882               0.000000000               0.000000000               0.000000000               0.000000000               0.000351461               0.006579160               0.002646583              -0.000690598               0.002423230               0.001732632               0.000000000               0.000000000               0.000000000               0.000000000              -0.001225643               0.007776277               0.002089500              -0.001431648               0.003069282               0.001637634               0.000000000               0.000000000               0.000000000               0.000000000              -0.002447220               0.009063637               0.001430336              -0.002050657               0.003704734               0.001654077               0.000000000               0.000000000               0.000000000               0.000000000              -0.002468417               0.009078704               0.001048023              -0.002060489               0.003713034               0.001652545               0.000000000               0.000000000               0.000000000               0.000000000              -0.002204884               0.008740831               0.000812727              -0.001919431               0.003553391               0.001633961               0.000000000               0.000000000               0.000000000               0.000000000              -0.001869678               0.008286841               0.000661552              -0.001736980               0.003341246               0.001604266               0.000000000               0.000000000               0.000000000               0.000000000              -0.001524618               0.007808262               0.000549104              -0.001547761               0.003118648               0.001570887               0.000000000               0.000000000               0.000000000               0.000000000              -0.001199734               0.007346300               0.000451650              -0.001368184               0.002904804               0.001536619               0.000000000               0.000000000               0.000000000               0.000000000              -0.000912609               0.006921830               0.000365348              -0.001207454               0.002709738               0.001502284               0.000000000               0.000000000               0.000000000               0.000000000              -0.000667205               0.006544853               0.000288227              -0.001068306               0.002537698               0.001469392               0.000000000               0.000000000               0.000000000               0.000000000              -0.000460878               0.006207946               0.000215810              -0.000948820               0.002385568               0.001436748               0.000000000               0.000000000               0.000000000               0.000000000              -0.000291212               0.005896768               0.000151484              -0.000846298               0.002247669               0.001401371               0.000000000               0.000000000               0.000000000               0.000000000              -0.000166077               0.005620330               0.000098794              -0.000764818               0.002128364               0.001363546               0.000000000               0.000000000               0.000000000               0.000000000              -0.000094517               0.005402406               0.000058241              -0.000710743               0.002037698               0.001326955               0.000000000               0.000000000               0.000000000               0.000000000              -0.000067185               0.005252631               0.000028805              -0.000681772               0.001978117               0.001296345               0.000000000               0.000000000               0.000000000               0.000000000              -0.000065642               0.005152026               0.000007895              -0.000668617               0.001940197               0.001271580               0.000000000               0.000000000               0.000000000               0.000000000              -0.000068004               0.005104825              -0.000001747              -0.000663603               0.001922792               0.001259189               0.000000000               0.000000000               0.000000000               0.000000000              -0.000712925               0.004697941               0.001839770              -0.000854589               0.001850827               0.000996238               0.000000000               0.000000000               0.000000000               0.000000000              -0.001783710               0.006295373               0.001949375              -0.001455810               0.002583706               0.001127896               0.000000000               0.000000000               0.000000000               0.000000000              -0.002747218               0.007960280               0.001854585              -0.002025237               0.003328479               0.001303242               0.000000000               0.000000000               0.000000000               0.000000000              -0.002672326               0.008316576               0.001547603              -0.002041690               0.003452727               0.001411038               0.000000000               0.000000000               0.000000000               0.000000000              -0.002355381               0.008210314               0.001283936              -0.001909553               0.003373261               0.001463709               0.000000000               0.000000000               0.000000000               0.000000000              -0.001993055               0.007927659               0.001081682              -0.001738349               0.003221976               0.001483627               0.000000000               0.000000000               0.000000000               0.000000000              -0.001633983               0.007572306               0.000916767              -0.001559278               0.003043836               0.001484558               0.000000000               0.000000000               0.000000000               0.000000000              -0.001295622               0.007201526               0.000773853              -0.001386046               0.002862500               0.001476454               0.000000000               0.000000000               0.000000000               0.000000000              -0.000992843               0.006842879               0.000649663              -0.001227673               0.002690161               0.001462488               0.000000000               0.000000000               0.000000000               0.000000000              -0.000727178               0.006508856               0.000541895              -0.001086296               0.002531696               0.001445400               0.000000000               0.000000000               0.000000000               0.000000000              -0.000505952               0.006195638               0.000440495              -0.000964185               0.002386587               0.001422402               0.000000000               0.000000000               0.000000000               0.000000000              -0.000327012               0.005904498               0.000340327              -0.000860690               0.002255043               0.001394353               0.000000000               0.000000000               0.000000000               0.000000000              -0.000194794               0.005636778               0.000238038              -0.000777643               0.002138122               0.001360478               0.000000000               0.000000000               0.000000000               0.000000000              -0.000121047               0.005404342               0.000146840              -0.000720934               0.002041741               0.001320807               0.000000000               0.000000000               0.000000000               0.000000000              -0.000104660               0.005223327               0.000074737              -0.000692161               0.001971812               0.001279651               0.000000000               0.000000000               0.000000000               0.000000000              -0.000128795               0.005095140               0.000023554              -0.000685189               0.001926759               0.001241571               0.000000000               0.000000000               0.000000000               0.000000000              -0.000152312               0.005039074               0.000001912              -0.000687000               0.001908675               0.001221675               0.000000000               0.000000000               0.000000000               0.000000000              -0.002099132               0.002975905               0.001036414              -0.001159160               0.001378345               0.000219184               0.000000000               0.000000000               0.000000000               0.000000000              -0.002414823               0.004797883               0.001740676              -0.001505291               0.002101042               0.000595750               0.000000000               0.000000000               0.000000000               0.000000000              -0.002950240               0.006672045               0.002187762              -0.001940342               0.002870773               0.000930431               0.000000000               0.000000000               0.000000000               0.000000000              -0.002789935               0.007347423               0.002020467              -0.001964649               0.003103999               0.001139350               0.000000000               0.000000000               0.000000000               0.000000000              -0.002446062               0.007513622               0.001760774              -0.001856472               0.003123339               0.001266867               0.000000000               0.000000000               0.000000000               0.000000000              -0.002079341               0.007447263               0.001519142              -0.001710657               0.003052615               0.001341958               0.000000000               0.000000000               0.000000000               0.000000000              -0.001722850               0.007262827               0.001310767              -0.001553919               0.002938891               0.001384972               0.000000000               0.000000000               0.000000000               0.000000000              -0.001382166               0.007021998               0.001132405              -0.001396059               0.002805995               0.001409937               0.000000000               0.000000000               0.000000000               0.000000000              -0.001066608               0.006758421               0.000981239              -0.001244778               0.002667710               0.001422933               0.000000000               0.000000000               0.000000000               0.000000000              -0.000784277               0.006489519               0.000849395              -0.001105291               0.002531582               0.001426291               0.000000000               0.000000000               0.000000000               0.000000000              -0.000543682               0.006222615               0.000722680              -0.000981705               0.002401419               0.001419714               0.000000000               0.000000000               0.000000000               0.000000000              -0.000348202               0.005967187               0.000594861              -0.000876472               0.002281200               0.001404728               0.000000000               0.000000000               0.000000000               0.000000000              -0.000197433               0.005721034               0.000456161              -0.000789165               0.002170047               0.001380882               0.000000000               0.000000000               0.000000000               0.000000000              -0.000098069               0.005491272               0.000315039              -0.000723183               0.002071467               0.001348284               0.000000000               0.000000000               0.000000000               0.000000000              -0.000067173               0.005285831               0.000184785              -0.000685917               0.001990565               0.001304648               0.000000000               0.000000000               0.000000000               0.000000000              -0.000100463               0.005125311               0.000078073              -0.000678336               0.001934532               0.001256196               0.000000000               0.000000000               0.000000000               0.000000000              -0.000149634               0.005046664               0.000025112              -0.000686944               0.001911186               0.001224242               0.000000000               0.000000000               0.000000000               0.000000000              -0.003704162               0.001545496               0.000298376              -0.001582245               0.001042573              -0.000539672               0.000000000               0.000000000               0.000000000               0.000000000              -0.003164201               0.003379693               0.001439654              -0.001609034               0.001662897               0.000053863               0.000000000               0.000000000               0.000000000               0.000000000              -0.003098129               0.005216949               0.002321384              -0.001813913               0.002343602               0.000529689               0.000000000               0.000000000               0.000000000               0.000000000              -0.002783666               0.006114018               0.002332649              -0.001808123               0.002640693               0.000832569               0.000000000               0.000000000               0.000000000               0.000000000              -0.002403274               0.006534889               0.002123223              -0.001718085               0.002750969               0.001032884               0.000000000               0.000000000               0.000000000               0.000000000              -0.002031329               0.006694385               0.001877073              -0.001598543               0.002764287               0.001165743               0.000000000               0.000000000               0.000000000               0.000000000              -0.001683503               0.006703377               0.001646415              -0.001469233               0.002724180               0.001254948               0.000000000               0.000000000               0.000000000               0.000000000              -0.001350018               0.006620186               0.001447382              -0.001333777               0.002651299               0.001317522               0.000000000               0.000000000               0.000000000               0.000000000              -0.001030765               0.006479885               0.001280648              -0.001196520               0.002558780               0.001362260               0.000000000               0.000000000               0.000000000               0.000000000              -0.000739420               0.006306925               0.001132520              -0.001065646               0.002457503               0.001391857               0.000000000               0.000000000               0.000000000               0.000000000              -0.000480355               0.006119594               0.000989594              -0.000945080               0.002354871               0.001409791               0.000000000               0.000000000               0.000000000               0.000000000              -0.000261437               0.005924908               0.000845066              -0.000838650               0.002254500               0.001415849               0.000000000               0.000000000               0.000000000               0.000000000              -0.000086596               0.005723065               0.000688252              -0.000747855               0.002156954               0.001409099               0.000000000               0.000000000               0.000000000               0.000000000               0.000042017               0.005519691               0.000516782              -0.000674204               0.002064613               0.001390409               0.000000000               0.000000000               0.000000000               0.000000000               0.000109938               0.005321146               0.000338348              -0.000623915               0.001981669               0.001357754               0.000000000               0.000000000               0.000000000               0.000000000               0.000099831               0.005148341               0.000164150              -0.000606105               0.001918131               0.001312027               0.000000000               0.000000000               0.000000000               0.000000000               0.000050027               0.005056016               0.000071888              -0.000613240               0.001889735               0.001276495               0.000000000               0.000000000               0.000000000               0.000000000              -0.005415295               0.000486642              -0.000274723              -0.002091564               0.000859396              -0.001232168               0.000000000               0.000000000               0.000000000               0.000000000              -0.003989510               0.002118269               0.001087077              -0.001760847               0.001293030              -0.000467817               0.000000000               0.000000000               0.000000000               0.000000000              -0.003215312               0.003722324               0.002226715              -0.001671029               0.001797771               0.000126741               0.000000000               0.000000000               0.000000000               0.000000000              -0.002677191               0.004727067               0.002401090              -0.001594827               0.002107281               0.000512454               0.000000000               0.000000000               0.000000000               0.000000000              -0.002239272               0.005344143               0.002273996              -0.001507742               0.002283943               0.000776201               0.000000000               0.000000000               0.000000000               0.000000000              -0.001854666               0.005711388               0.002060687              -0.001409421               0.002373583               0.000964162               0.000000000               0.000000000               0.000000000               0.000000000              -0.001509528               0.005912629               0.001841109              -0.001305149               0.002405906               0.001100757               0.000000000               0.000000000               0.000000000               0.000000000              -0.001189552               0.005998865               0.001642621              -0.001195938               0.002398247               0.001202309               0.000000000               0.000000000               0.000000000               0.000000000              -0.000882524               0.006005035               0.001470404              -0.001081574               0.002362183               0.001280609               0.000000000               0.000000000               0.000000000               0.000000000              -0.000591125               0.005953583               0.001316556              -0.000965868               0.002306464               0.001340596               0.000000000               0.000000000               0.000000000               0.000000000              -0.000319058               0.005867652               0.001169616              -0.000853102               0.002240232               0.001387130               0.000000000               0.000000000               0.000000000               0.000000000              -0.000073165               0.005755834               0.001020741              -0.000746915               0.002167563               0.001420649               0.000000000               0.000000000               0.000000000               0.000000000               0.000140452               0.005621320               0.000860766              -0.000649994               0.002090419               0.001440425               0.000000000               0.000000000               0.000000000               0.000000000               0.000318103               0.005469170               0.000681969              -0.000564356               0.002011157               0.001446801               0.000000000               0.000000000               0.000000000               0.000000000               0.000448779               0.005309351               0.000478322              -0.000495375               0.001934891               0.001439515               0.000000000               0.000000000               0.000000000               0.000000000               0.000510613               0.005153836               0.000248989              -0.000452749               0.001868844               0.001416096               0.000000000               0.000000000               0.000000000               0.000000000               0.000511072               0.005070317               0.000126161              -0.000442137               0.001837468               0.001395331               0.000000000               0.000000000               0.000000000               0.000000000              -0.007062258              -0.000205161              -0.000594026              -0.002622700               0.000805840              -0.001816859               0.000000000               0.000000000               0.000000000               0.000000000              -0.004818742               0.001090582               0.000736218              -0.001943349               0.001011303              -0.000932046               0.000000000               0.000000000               0.000000000               0.000000000              -0.003323045               0.002338573               0.001905353              -0.001538461               0.001292335              -0.000246126               0.000000000               0.000000000               0.000000000               0.000000000              -0.002506114               0.003347518               0.002175794              -0.001358230               0.001568570               0.000210340               0.000000000               0.000000000               0.000000000               0.000000000              -0.001977211               0.004089101               0.002131960              -0.001252589               0.001780549               0.000527959               0.000000000               0.000000000               0.000000000               0.000000000              -0.001572349               0.004619877               0.001979330              -0.001167114               0.001928981               0.000761867               0.000000000               0.000000000               0.000000000               0.000000000              -0.001228548               0.004985599               0.001799826              -0.001083904               0.002023150               0.000939247               0.000000000               0.000000000               0.000000000               0.000000000              -0.000925052               0.005224338               0.001626614              -0.000999935               0.002074740               0.001074805               0.000000000               0.000000000               0.000000000               0.000000000              -0.000639662               0.005376988               0.001469947              -0.000911995               0.002096309               0.001184314               0.000000000               0.000000000               0.000000000               0.000000000              -0.000360872               0.005460664               0.001326766              -0.000817909               0.002092839               0.001274930               0.000000000               0.000000000               0.000000000               0.000000000              -0.000085488               0.005490597               0.001189551              -0.000718381               0.002069641               0.001351260               0.000000000               0.000000000               0.000000000               0.000000000               0.000183012               0.005477326               0.001051734              -0.000616035               0.002031102               0.001415067               0.000000000               0.000000000               0.000000000               0.000000000               0.000442998               0.005428095               0.000906221              -0.000512387               0.001980142               0.001467756               0.000000000               0.000000000               0.000000000               0.000000000               0.000691166               0.005349079               0.000740547              -0.000409447               0.001919491               0.001510044               0.000000000               0.000000000               0.000000000               0.000000000               0.000919148               0.005248392               0.000541256              -0.000311368               0.001853236               0.001541868               0.000000000               0.000000000               0.000000000               0.000000000               0.001114460               0.005131128               0.000295550              -0.000223468               0.001784848               0.001561380               0.000000000               0.000000000               0.000000000               0.000000000               0.001226734               0.005076480               0.000164698              -0.000174534               0.001750321               0.001575787               0.000000000               0.000000000               0.000000000               0.000000000              -0.008448145              -0.000594411              -0.000617379              -0.003093751               0.000833108              -0.002260643               0.000000000               0.000000000               0.000000000               0.000000000              -0.005542083               0.000345906               0.000433585              -0.002121517               0.000822469              -0.001299049               0.000000000               0.000000000               0.000000000               0.000000000              -0.003422183               0.001217601               0.001388932              -0.001435517               0.000884366              -0.000551151               0.000000000               0.000000000               0.000000000               0.000000000              -0.002330492               0.002161651               0.001658091              -0.001144139               0.001101921              -0.000042217               0.000000000               0.000000000               0.000000000               0.000000000              -0.001688900               0.002964359               0.001666529              -0.001003881               0.001322736               0.000318855               0.000000000               0.000000000               0.000000000               0.000000000              -0.001253306               0.003603831               0.001576625              -0.000920467               0.001508087               0.000587620               0.000000000               0.000000000               0.000000000               0.000000000              -0.000913492               0.004091406               0.001454285              -0.000853984               0.001648449               0.000794465               0.000000000               0.000000000               0.000000000               0.000000000              -0.000622124               0.004452299               0.001328890              -0.000789833               0.001747362               0.000957529               0.000000000               0.000000000               0.000000000               0.000000000              -0.000353204               0.004725205               0.001210834              -0.000723101               0.001816086               0.001092985               0.000000000               0.000000000               0.000000000               0.000000000              -0.000091627               0.004926981               0.001100558              -0.000650232               0.001859054               0.001208822               0.000000000               0.000000000               0.000000000               0.000000000               0.000179216               0.005064984               0.000993655              -0.000565916               0.001876950               0.001311034               0.000000000               0.000000000               0.000000000               0.000000000               0.000465030               0.005147804               0.000885194              -0.000469089               0.001872280               0.001403192               0.000000000               0.000000000               0.000000000               0.000000000               0.000765242               0.005186774               0.000771705              -0.000361380               0.001849367               0.001487987               0.000000000               0.000000000               0.000000000               0.000000000               0.001084130               0.005189359               0.000641785              -0.000242121               0.001810476               0.001568355               0.000000000               0.000000000               0.000000000               0.000000000               0.001425744               0.005155890               0.000482459              -0.000109832               0.001755224               0.001645391               0.000000000               0.000000000               0.000000000               0.000000000               0.001784884               0.005086937               0.000271658               0.000033463               0.001684474               0.001717938               0.000000000               0.000000000               0.000000000               0.000000000               0.002043190               0.005071736               0.000159681               0.000132228               0.001646486               0.001778714               0.000000000               0.000000000               0.000000000               0.000000000              -0.009380761              -0.000782082              -0.000381479              -0.003420023               0.000879308              -0.002540715               0.000000000               0.000000000               0.000000000               0.000000000              -0.006037165              -0.000105993               0.000196267              -0.002250686               0.000714893              -0.001535793               0.000000000               0.000000000               0.000000000               0.000000000              -0.003491448               0.000488655               0.000730377              -0.001370373               0.000619671              -0.000750702               0.000000000               0.000000000               0.000000000               0.000000000              -0.002202639               0.001359502               0.000896762              -0.000995926               0.000785137              -0.000210789               0.000000000               0.000000000               0.000000000               0.000000000              -0.001471591               0.002174383               0.000917303              -0.000823643               0.000999334               0.000175691               0.000000000               0.000000000               0.000000000               0.000000000              -0.001002560               0.002873008               0.000878412              -0.000735085               0.001202688               0.000467603               0.000000000               0.000000000               0.000000000               0.000000000              -0.000660215               0.003438845               0.000817687              -0.000677435               0.001372082               0.000694647               0.000000000               0.000000000               0.000000000               0.000000000              -0.000378047               0.003878893               0.000753008              -0.000626628               0.001501827               0.000875199               0.000000000               0.000000000               0.000000000               0.000000000              -0.000117895               0.004226996               0.000689354              -0.000572584               0.001599846               0.001027262               0.000000000               0.000000000               0.000000000               0.000000000               0.000139269               0.004501243               0.000629006              -0.000510428               0.001670542               0.001160114               0.000000000               0.000000000               0.000000000               0.000000000               0.000408193               0.004713162               0.000572067              -0.000436072               0.001716396               0.001280323               0.000000000               0.000000000               0.000000000               0.000000000               0.000702397               0.004870387               0.000511765              -0.000345399               0.001738579               0.001393180               0.000000000               0.000000000               0.000000000               0.000000000               0.001029248               0.004977333               0.000446644              -0.000236198               0.001737827               0.001501629               0.000000000               0.000000000               0.000000000               0.000000000               0.001397593               0.005039388               0.000375843              -0.000105826               0.001715055               0.001609228               0.000000000               0.000000000               0.000000000               0.000000000               0.001821234               0.005062414               0.000286666               0.000050160               0.001670734               0.001720895               0.000000000               0.000000000               0.000000000               0.000000000               0.002313047               0.005044446               0.000161098               0.000236835               0.001602520               0.001839355               0.000000000               0.000000000               0.000000000               0.000000000               0.002698551               0.005067039               0.000095443               0.000378573               0.001562805               0.001941378               0.000000000               0.000000000               0.000000000               0.000000000               0.000000000               0.000000000               0.000000000               0.000000000               0.000000000               0.000000000               0.000000000               0.000000000               0.000000000               0.000000000               0.000000000               0.000000000               0.000000000               0.000000000               0.000000000               0.000000000               0.000000000               0.000000000               0.000000000               0.000000000               0.000000000               0.000000000               0.000000000               0.000000000               0.000000000               0.000000000               0.000000000               0.000000000               0.000000000               0.000000000               0.000000000               0.000000000               0.000000000               0.000000000               0.000000000               0.000000000               0.000000000               0.000000000               0.000000000               0.000000000               0.000000000               0.000000000               0.000000000               0.000000000               0.000000000               0.000000000               0.000000000               0.000000000               0.000000000               0.000000000               0.000000000               0.000000000               0.000000000               0.000000000               0.000000000               0.000000000               0.000000000               0.000000000               0.000000000               0.000000000               0.000000000               0.000000000               0.000000000               0.000000000               0.000000000               0.000000000               0.000000000               0.000000000               0.000000000               0.000000000               0.000000000               0.000000000               0.000000000               0.000000000               0.000000000               0.000000000               0.000000000               0.000000000               0.000000000               0.000000000               0.000000000               0.000000000               0.000000000               0.000000000               0.000000000               0.000000000               0.000000000               0.000000000               0.000000000               0.000000000               0.000000000               0.000000000               0.000000000               0.000000000               0.000000000               0.000000000               0.000000000               0.000000000               0.000000000               0.000000000               0.000000000               0.000000000               0.000000000               0.000000000               0.000000000               0.000000000               0.000000000               0.000000000               0.000000000               0.000000000               0.000000000               0.000000000               0.000000000               0.000000000               0.000000000               0.000000000               0.000000000               0.000000000               0.000000000               0.000000000               0.000000000               0.000000000               0.000000000               0.000000000               0.000000000               0.000000000               0.000000000               0.000000000               0.000000000               0.000000000               0.000000000               0.000000000               0.000000000               0.000000000               0.000000000               0.000000000               0.000000000               0.000000000               0.000000000               0.000000000               0.000000000               0.000000000               0.000000000               0.000000000               0.000000000               0.000000000               0.000000000               0.000000000               0.000000000               0.000000000               0.000000000               0.000000000               0.000000000               0.000000000               0.000000000               0.000000000               0.000000000               0.000000000               0.000000000               0.000000000               0.000000000               0.000000000               0.000000000               0.000000000               0.000000000               0.000000000               0.000000000               0.000000000               0.000000000               0.000000000 </DataArray>
</PointData>
</Piece>
</UnstructuredGrid> </VTKFile>
