<?xml version="1.0"?>
<VTKFile type="UnstructuredGrid" version="0.1">
<UnstructuredGrid>
<Piece NumberOfPoints="      1156" NumberOfCells="      1024">
<Points>
<DataArray type="Float64"                                    Name="coordinates"                                                      NumberOfComponents=" 3" format="ascii">
              0.133000000               0.000000000               0.000000000               0.155937500               0.000000000               0.000000000               0.178875000               0.000000000               0.000000000               0.201812500               0.000000000               0.000000000               0.224750000               0.000000000               0.000000000               0.247687500               0.000000000               0.000000000               0.270625000               0.000000000               0.000000000               0.293562500               0.000000000               0.000000000               0.316500000               0.000000000               0.000000000               0.339437500               0.000000000               0.000000000               0.362375000               0.000000000               0.000000000               0.385312500               0.000000000               0.000000000               0.408250000               0.000000000               0.000000000               0.431187500               0.000000000               0.000000000               0.454125000               0.000000000               0.000000000               0.477062500               0.000000000               0.000000000               0.500000000               0.000000000               0.000000000               0.132359569               0.013036280               0.000000000               0.155337096               0.016127762               0.000000000               0.178314623               0.019219245               0.000000000               0.201292150               0.022310727               0.000000000               0.224269676               0.025402210               0.000000000               0.247247203               0.028493692               0.000000000               0.270224730               0.031585175               0.000000000               0.293202257               0.034676657               0.000000000               0.316179784               0.037768140               0.000000000               0.339157311               0.040859622               0.000000000               0.362134838               0.043951105               0.000000000               0.385112365               0.047042587               0.000000000               0.408089892               0.050134070               0.000000000               0.431067419               0.053225552               0.000000000               0.454044946               0.056317035               0.000000000               0.477022473               0.059408517               0.000000000               0.500000000               0.062500000               0.000000000               0.130444442               0.025947013               0.000000000               0.153541665               0.032137825               0.000000000               0.176638887               0.038328636               0.000000000               0.199736109               0.044519448               0.000000000               0.222833332               0.050710260               0.000000000               0.245930554               0.056901071               0.000000000               0.269027776               0.063091883               0.000000000               0.292124999               0.069282695               0.000000000               0.315222221               0.075473506               0.000000000               0.338319444               0.081664318               0.000000000               0.361416666               0.087855130               0.000000000               0.384513888               0.094045942               0.000000000               0.407611111               0.100236753               0.000000000               0.430708333               0.106427565               0.000000000               0.453805555               0.112618377               0.000000000               0.476902778               0.118809188               0.000000000               0.500000000               0.125000000               0.000000000               0.127273065               0.038607862               0.000000000               0.150568498               0.047913621               0.000000000               0.173863932               0.057219379               0.000000000               0.197159365               0.066525138               0.000000000               0.220454798               0.075830897               0.000000000               0.243750232               0.085136655               0.000000000               0.267045665               0.094442414               0.000000000               0.290341099               0.103748172               0.000000000               0.313636532               0.113053931               0.000000000               0.336931966               0.122359690               0.000000000               0.360227399               0.131665448               0.000000000               0.383522833               0.140971207               0.000000000               0.406818266               0.150276966               0.000000000               0.430113700               0.159582724               0.000000000               0.453409133               0.168888483               0.000000000               0.476704567               0.178194241               0.000000000               0.500000000               0.187500000               0.000000000               0.122875978               0.050896897               0.000000000               0.146446229               0.063340840               0.000000000               0.170016481               0.075784784               0.000000000               0.193586732               0.088228728               0.000000000               0.217156983               0.100672672               0.000000000               0.240727235               0.113116616               0.000000000               0.264297486               0.125560560               0.000000000               0.287867738               0.138004504               0.000000000               0.311437989               0.150448448               0.000000000               0.335008240               0.162892392               0.000000000               0.358578492               0.175336336               0.000000000               0.382148743               0.187780280               0.000000000               0.405718994               0.200224224               0.000000000               0.429289246               0.212668168               0.000000000               0.452859497               0.225112112               0.000000000               0.476429749               0.237556056               0.000000000               0.500000000               0.250000000               0.000000000               0.117295528               0.062695766               0.000000000               0.141214558               0.078308531               0.000000000               0.165133587               0.093921295               0.000000000               0.189052617               0.109534060               0.000000000               0.212971646               0.125146824               0.000000000               0.236890676               0.140759589               0.000000000               0.260809705               0.156372354               0.000000000               0.284728735               0.171985118               0.000000000               0.308647764               0.187597883               0.000000000               0.332566794               0.203210648               0.000000000               0.356485823               0.218823412               0.000000000               0.380404853               0.234436177               0.000000000               0.404323882               0.250048941               0.000000000               0.428242912               0.265661706               0.000000000               0.452161941               0.281274471               0.000000000               0.476080971               0.296887235               0.000000000               0.500000000               0.312500000               0.000000000               0.110585458               0.073890841               0.000000000               0.134923867               0.092710163               0.000000000               0.159262276               0.111529486               0.000000000               0.183600685               0.130348808               0.000000000               0.207939094               0.149168131               0.000000000               0.232277503               0.167987453               0.000000000               0.256615912               0.186806776               0.000000000               0.280954320               0.205626098               0.000000000               0.305292729               0.224445420               0.000000000               0.329631138               0.243264743               0.000000000               0.353969547               0.262084065               0.000000000               0.378307956               0.280903388               0.000000000               0.402646365               0.299722710               0.000000000               0.426984773               0.318542033               0.000000000               0.451323182               0.337361355               0.000000000               0.475661591               0.356180678               0.000000000               0.500000000               0.375000000               0.000000000               0.102810390               0.084374307               0.000000000               0.127634741               0.106444663               0.000000000               0.152459092               0.128515018               0.000000000               0.177283442               0.150585374               0.000000000               0.202107793               0.172655730               0.000000000               0.226932143               0.194726086               0.000000000               0.251756494               0.216796442               0.000000000               0.276580845               0.238866798               0.000000000               0.301405195               0.260937153               0.000000000               0.326229546               0.283007509               0.000000000               0.351053896               0.305077865               0.000000000               0.375878247               0.327148221               0.000000000               0.400702598               0.349218577               0.000000000               0.425526948               0.371288933               0.000000000               0.450351299               0.393359288               0.000000000               0.475175649               0.415429644               0.000000000               0.500000000               0.437500000               0.000000000               0.094045202               0.094045202               0.000000000               0.119417377               0.119417377               0.000000000               0.144789552               0.144789552               0.000000000               0.170161727               0.170161727               0.000000000               0.195533901               0.195533901               0.000000000               0.220906076               0.220906076               0.000000000               0.246278251               0.246278251               0.000000000               0.271650426               0.271650426               0.000000000               0.297022601               0.297022601               0.000000000               0.322394776               0.322394776               0.000000000               0.347766951               0.347766951               0.000000000               0.373139126               0.373139126               0.000000000               0.398511300               0.398511300               0.000000000               0.423883475               0.423883475               0.000000000               0.449255650               0.449255650               0.000000000               0.474627825               0.474627825               0.000000000               0.500000000               0.500000000               0.000000000               0.084374307               0.102810390               0.000000000               0.106444663               0.127634741               0.000000000               0.128515018               0.152459092               0.000000000               0.150585374               0.177283442               0.000000000               0.172655730               0.202107793               0.000000000               0.194726086               0.226932143               0.000000000               0.216796442               0.251756494               0.000000000               0.238866798               0.276580845               0.000000000               0.260937153               0.301405195               0.000000000               0.283007509               0.326229546               0.000000000               0.305077865               0.351053896               0.000000000               0.327148221               0.375878247               0.000000000               0.349218577               0.400702598               0.000000000               0.371288933               0.425526948               0.000000000               0.393359288               0.450351299               0.000000000               0.415429644               0.475175649               0.000000000               0.437500000               0.500000000               0.000000000               0.073890841               0.110585458               0.000000000               0.092710163               0.134923867               0.000000000               0.111529486               0.159262276               0.000000000               0.130348808               0.183600685               0.000000000               0.149168131               0.207939094               0.000000000               0.167987453               0.232277503               0.000000000               0.186806776               0.256615912               0.000000000               0.205626098               0.280954320               0.000000000               0.224445420               0.305292729               0.000000000               0.243264743               0.329631138               0.000000000               0.262084065               0.353969547               0.000000000               0.280903388               0.378307956               0.000000000               0.299722710               0.402646365               0.000000000               0.318542033               0.426984773               0.000000000               0.337361355               0.451323182               0.000000000               0.356180678               0.475661591               0.000000000               0.375000000               0.500000000               0.000000000               0.062695766               0.117295528               0.000000000               0.078308531               0.141214558               0.000000000               0.093921295               0.165133587               0.000000000               0.109534060               0.189052617               0.000000000               0.125146824               0.212971646               0.000000000               0.140759589               0.236890676               0.000000000               0.156372354               0.260809705               0.000000000               0.171985118               0.284728735               0.000000000               0.187597883               0.308647764               0.000000000               0.203210648               0.332566794               0.000000000               0.218823412               0.356485823               0.000000000               0.234436177               0.380404853               0.000000000               0.250048941               0.404323882               0.000000000               0.265661706               0.428242912               0.000000000               0.281274471               0.452161941               0.000000000               0.296887235               0.476080971               0.000000000               0.312500000               0.500000000               0.000000000               0.050896897               0.122875978               0.000000000               0.063340840               0.146446229               0.000000000               0.075784784               0.170016481               0.000000000               0.088228728               0.193586732               0.000000000               0.100672672               0.217156983               0.000000000               0.113116616               0.240727235               0.000000000               0.125560560               0.264297486               0.000000000               0.138004504               0.287867738               0.000000000               0.150448448               0.311437989               0.000000000               0.162892392               0.335008240               0.000000000               0.175336336               0.358578492               0.000000000               0.187780280               0.382148743               0.000000000               0.200224224               0.405718994               0.000000000               0.212668168               0.429289246               0.000000000               0.225112112               0.452859497               0.000000000               0.237556056               0.476429749               0.000000000               0.250000000               0.500000000               0.000000000               0.038607862               0.127273065               0.000000000               0.047913621               0.150568498               0.000000000               0.057219379               0.173863932               0.000000000               0.066525138               0.197159365               0.000000000               0.075830897               0.220454798               0.000000000               0.085136655               0.243750232               0.000000000               0.094442414               0.267045665               0.000000000               0.103748172               0.290341099               0.000000000               0.113053931               0.313636532               0.000000000               0.122359690               0.336931966               0.000000000               0.131665448               0.360227399               0.000000000               0.140971207               0.383522833               0.000000000               0.150276966               0.406818266               0.000000000               0.159582724               0.430113700               0.000000000               0.168888483               0.453409133               0.000000000               0.178194241               0.476704567               0.000000000               0.187500000               0.500000000               0.000000000               0.025947013               0.130444442               0.000000000               0.032137825               0.153541665               0.000000000               0.038328636               0.176638887               0.000000000               0.044519448               0.199736109               0.000000000               0.050710260               0.222833332               0.000000000               0.056901071               0.245930554               0.000000000               0.063091883               0.269027776               0.000000000               0.069282695               0.292124999               0.000000000               0.075473506               0.315222221               0.000000000               0.081664318               0.338319444               0.000000000               0.087855130               0.361416666               0.000000000               0.094045942               0.384513888               0.000000000               0.100236753               0.407611111               0.000000000               0.106427565               0.430708333               0.000000000               0.112618377               0.453805555               0.000000000               0.118809188               0.476902778               0.000000000               0.125000000               0.500000000               0.000000000               0.013036280               0.132359569               0.000000000               0.016127762               0.155337096               0.000000000               0.019219245               0.178314623               0.000000000               0.022310727               0.201292150               0.000000000               0.025402210               0.224269676               0.000000000               0.028493692               0.247247203               0.000000000               0.031585175               0.270224730               0.000000000               0.034676657               0.293202257               0.000000000               0.037768140               0.316179784               0.000000000               0.040859622               0.339157311               0.000000000               0.043951105               0.362134838               0.000000000               0.047042587               0.385112365               0.000000000               0.050134070               0.408089892               0.000000000               0.053225552               0.431067419               0.000000000               0.056317035               0.454044946               0.000000000               0.059408517               0.477022473               0.000000000               0.062500000               0.500000000               0.000000000               0.000000000               0.133000000               0.000000000               0.000000000               0.155937500               0.000000000               0.000000000               0.178875000               0.000000000               0.000000000               0.201812500               0.000000000               0.000000000               0.224750000               0.000000000               0.000000000               0.247687500               0.000000000               0.000000000               0.270625000               0.000000000               0.000000000               0.293562500               0.000000000               0.000000000               0.316500000               0.000000000               0.000000000               0.339437500               0.000000000               0.000000000               0.362375000               0.000000000               0.000000000               0.385312500               0.000000000               0.000000000               0.408250000               0.000000000               0.000000000               0.431187500               0.000000000               0.000000000               0.454125000               0.000000000               0.000000000               0.477062500               0.000000000               0.000000000               0.500000000               0.000000000               0.133000000               0.000000000               0.000000000               0.155937500               0.000000000               0.000000000               0.178875000               0.000000000               0.000000000               0.201812500               0.000000000               0.000000000               0.224750000               0.000000000               0.000000000               0.247687500               0.000000000               0.000000000               0.270625000               0.000000000               0.000000000               0.293562500               0.000000000               0.000000000               0.316500000               0.000000000               0.000000000               0.339437500               0.000000000               0.000000000               0.362375000               0.000000000               0.000000000               0.385312500               0.000000000               0.000000000               0.408250000               0.000000000               0.000000000               0.431187500               0.000000000               0.000000000               0.454125000               0.000000000               0.000000000               0.477062500               0.000000000               0.000000000               0.500000000               0.000000000               0.000000000               0.132359569              -0.013036280               0.000000000               0.155337096              -0.016127762               0.000000000               0.178314623              -0.019219245               0.000000000               0.201292150              -0.022310727               0.000000000               0.224269676              -0.025402210               0.000000000               0.247247203              -0.028493692               0.000000000               0.270224730              -0.031585175               0.000000000               0.293202257              -0.034676657               0.000000000               0.316179784              -0.037768140               0.000000000               0.339157311              -0.040859622               0.000000000               0.362134838              -0.043951105               0.000000000               0.385112365              -0.047042587               0.000000000               0.408089892              -0.050134070               0.000000000               0.431067419              -0.053225552               0.000000000               0.454044946              -0.056317035               0.000000000               0.477022473              -0.059408517               0.000000000               0.500000000              -0.062500000               0.000000000               0.130444442              -0.025947013               0.000000000               0.153541665              -0.032137825               0.000000000               0.176638887              -0.038328636               0.000000000               0.199736109              -0.044519448               0.000000000               0.222833332              -0.050710260               0.000000000               0.245930554              -0.056901071               0.000000000               0.269027776              -0.063091883               0.000000000               0.292124999              -0.069282695               0.000000000               0.315222221              -0.075473506               0.000000000               0.338319444              -0.081664318               0.000000000               0.361416666              -0.087855130               0.000000000               0.384513888              -0.094045942               0.000000000               0.407611111              -0.100236753               0.000000000               0.430708333              -0.106427565               0.000000000               0.453805555              -0.112618377               0.000000000               0.476902778              -0.118809188               0.000000000               0.500000000              -0.125000000               0.000000000               0.127273065              -0.038607862               0.000000000               0.150568498              -0.047913621               0.000000000               0.173863932              -0.057219379               0.000000000               0.197159365              -0.066525138               0.000000000               0.220454798              -0.075830897               0.000000000               0.243750232              -0.085136655               0.000000000               0.267045665              -0.094442414               0.000000000               0.290341099              -0.103748172               0.000000000               0.313636532              -0.113053931               0.000000000               0.336931966              -0.122359690               0.000000000               0.360227399              -0.131665448               0.000000000               0.383522833              -0.140971207               0.000000000               0.406818266              -0.150276966               0.000000000               0.430113700              -0.159582724               0.000000000               0.453409133              -0.168888483               0.000000000               0.476704567              -0.178194241               0.000000000               0.500000000              -0.187500000               0.000000000               0.122875978              -0.050896897               0.000000000               0.146446229              -0.063340840               0.000000000               0.170016481              -0.075784784               0.000000000               0.193586732              -0.088228728               0.000000000               0.217156983              -0.100672672               0.000000000               0.240727235              -0.113116616               0.000000000               0.264297486              -0.125560560               0.000000000               0.287867738              -0.138004504               0.000000000               0.311437989              -0.150448448               0.000000000               0.335008240              -0.162892392               0.000000000               0.358578492              -0.175336336               0.000000000               0.382148743              -0.187780280               0.000000000               0.405718994              -0.200224224               0.000000000               0.429289246              -0.212668168               0.000000000               0.452859497              -0.225112112               0.000000000               0.476429749              -0.237556056               0.000000000               0.500000000              -0.250000000               0.000000000               0.117295528              -0.062695766               0.000000000               0.141214558              -0.078308531               0.000000000               0.165133587              -0.093921295               0.000000000               0.189052617              -0.109534060               0.000000000               0.212971646              -0.125146824               0.000000000               0.236890676              -0.140759589               0.000000000               0.260809705              -0.156372354               0.000000000               0.284728735              -0.171985118               0.000000000               0.308647764              -0.187597883               0.000000000               0.332566794              -0.203210648               0.000000000               0.356485823              -0.218823412               0.000000000               0.380404853              -0.234436177               0.000000000               0.404323882              -0.250048941               0.000000000               0.428242912              -0.265661706               0.000000000               0.452161941              -0.281274471               0.000000000               0.476080971              -0.296887235               0.000000000               0.500000000              -0.312500000               0.000000000               0.110585458              -0.073890841               0.000000000               0.134923867              -0.092710163               0.000000000               0.159262276              -0.111529486               0.000000000               0.183600685              -0.130348808               0.000000000               0.207939094              -0.149168131               0.000000000               0.232277503              -0.167987453               0.000000000               0.256615912              -0.186806776               0.000000000               0.280954320              -0.205626098               0.000000000               0.305292729              -0.224445420               0.000000000               0.329631138              -0.243264743               0.000000000               0.353969547              -0.262084065               0.000000000               0.378307956              -0.280903388               0.000000000               0.402646365              -0.299722710               0.000000000               0.426984773              -0.318542033               0.000000000               0.451323182              -0.337361355               0.000000000               0.475661591              -0.356180678               0.000000000               0.500000000              -0.375000000               0.000000000               0.102810390              -0.084374307               0.000000000               0.127634741              -0.106444663               0.000000000               0.152459092              -0.128515018               0.000000000               0.177283442              -0.150585374               0.000000000               0.202107793              -0.172655730               0.000000000               0.226932143              -0.194726086               0.000000000               0.251756494              -0.216796442               0.000000000               0.276580845              -0.238866798               0.000000000               0.301405195              -0.260937153               0.000000000               0.326229546              -0.283007509               0.000000000               0.351053896              -0.305077865               0.000000000               0.375878247              -0.327148221               0.000000000               0.400702598              -0.349218577               0.000000000               0.425526948              -0.371288933               0.000000000               0.450351299              -0.393359288               0.000000000               0.475175649              -0.415429644               0.000000000               0.500000000              -0.437500000               0.000000000               0.094045202              -0.094045202               0.000000000               0.119417377              -0.119417377               0.000000000               0.144789552              -0.144789552               0.000000000               0.170161727              -0.170161727               0.000000000               0.195533901              -0.195533901               0.000000000               0.220906076              -0.220906076               0.000000000               0.246278251              -0.246278251               0.000000000               0.271650426              -0.271650426               0.000000000               0.297022601              -0.297022601               0.000000000               0.322394776              -0.322394776               0.000000000               0.347766951              -0.347766951               0.000000000               0.373139126              -0.373139126               0.000000000               0.398511300              -0.398511300               0.000000000               0.423883475              -0.423883475               0.000000000               0.449255650              -0.449255650               0.000000000               0.474627825              -0.474627825               0.000000000               0.500000000              -0.500000000               0.000000000               0.084374307              -0.102810390               0.000000000               0.106444663              -0.127634741               0.000000000               0.128515018              -0.152459092               0.000000000               0.150585374              -0.177283442               0.000000000               0.172655730              -0.202107793               0.000000000               0.194726086              -0.226932143               0.000000000               0.216796442              -0.251756494               0.000000000               0.238866798              -0.276580845               0.000000000               0.260937153              -0.301405195               0.000000000               0.283007509              -0.326229546               0.000000000               0.305077865              -0.351053896               0.000000000               0.327148221              -0.375878247               0.000000000               0.349218577              -0.400702598               0.000000000               0.371288933              -0.425526948               0.000000000               0.393359288              -0.450351299               0.000000000               0.415429644              -0.475175649               0.000000000               0.437500000              -0.500000000               0.000000000               0.073890841              -0.110585458               0.000000000               0.092710163              -0.134923867               0.000000000               0.111529486              -0.159262276               0.000000000               0.130348808              -0.183600685               0.000000000               0.149168131              -0.207939094               0.000000000               0.167987453              -0.232277503               0.000000000               0.186806776              -0.256615912               0.000000000               0.205626098              -0.280954320               0.000000000               0.224445420              -0.305292729               0.000000000               0.243264743              -0.329631138               0.000000000               0.262084065              -0.353969547               0.000000000               0.280903388              -0.378307956               0.000000000               0.299722710              -0.402646365               0.000000000               0.318542033              -0.426984773               0.000000000               0.337361355              -0.451323182               0.000000000               0.356180678              -0.475661591               0.000000000               0.375000000              -0.500000000               0.000000000               0.062695766              -0.117295528               0.000000000               0.078308531              -0.141214558               0.000000000               0.093921295              -0.165133587               0.000000000               0.109534060              -0.189052617               0.000000000               0.125146824              -0.212971646               0.000000000               0.140759589              -0.236890676               0.000000000               0.156372354              -0.260809705               0.000000000               0.171985118              -0.284728735               0.000000000               0.187597883              -0.308647764               0.000000000               0.203210648              -0.332566794               0.000000000               0.218823412              -0.356485823               0.000000000               0.234436177              -0.380404853               0.000000000               0.250048941              -0.404323882               0.000000000               0.265661706              -0.428242912               0.000000000               0.281274471              -0.452161941               0.000000000               0.296887235              -0.476080971               0.000000000               0.312500000              -0.500000000               0.000000000               0.050896897              -0.122875978               0.000000000               0.063340840              -0.146446229               0.000000000               0.075784784              -0.170016481               0.000000000               0.088228728              -0.193586732               0.000000000               0.100672672              -0.217156983               0.000000000               0.113116616              -0.240727235               0.000000000               0.125560560              -0.264297486               0.000000000               0.138004504              -0.287867738               0.000000000               0.150448448              -0.311437989               0.000000000               0.162892392              -0.335008240               0.000000000               0.175336336              -0.358578492               0.000000000               0.187780280              -0.382148743               0.000000000               0.200224224              -0.405718994               0.000000000               0.212668168              -0.429289246               0.000000000               0.225112112              -0.452859497               0.000000000               0.237556056              -0.476429749               0.000000000               0.250000000              -0.500000000               0.000000000               0.038607862              -0.127273065               0.000000000               0.047913621              -0.150568498               0.000000000               0.057219379              -0.173863932               0.000000000               0.066525138              -0.197159365               0.000000000               0.075830897              -0.220454798               0.000000000               0.085136655              -0.243750232               0.000000000               0.094442414              -0.267045665               0.000000000               0.103748172              -0.290341099               0.000000000               0.113053931              -0.313636532               0.000000000               0.122359690              -0.336931966               0.000000000               0.131665448              -0.360227399               0.000000000               0.140971207              -0.383522833               0.000000000               0.150276966              -0.406818266               0.000000000               0.159582724              -0.430113700               0.000000000               0.168888483              -0.453409133               0.000000000               0.178194241              -0.476704567               0.000000000               0.187500000              -0.500000000               0.000000000               0.025947013              -0.130444442               0.000000000               0.032137825              -0.153541665               0.000000000               0.038328636              -0.176638887               0.000000000               0.044519448              -0.199736109               0.000000000               0.050710260              -0.222833332               0.000000000               0.056901071              -0.245930554               0.000000000               0.063091883              -0.269027776               0.000000000               0.069282695              -0.292124999               0.000000000               0.075473506              -0.315222221               0.000000000               0.081664318              -0.338319444               0.000000000               0.087855130              -0.361416666               0.000000000               0.094045942              -0.384513888               0.000000000               0.100236753              -0.407611111               0.000000000               0.106427565              -0.430708333               0.000000000               0.112618377              -0.453805555               0.000000000               0.118809188              -0.476902778               0.000000000               0.125000000              -0.500000000               0.000000000               0.013036280              -0.132359569               0.000000000               0.016127762              -0.155337096               0.000000000               0.019219245              -0.178314623               0.000000000               0.022310727              -0.201292150               0.000000000               0.025402210              -0.224269676               0.000000000               0.028493692              -0.247247203               0.000000000               0.031585175              -0.270224730               0.000000000               0.034676657              -0.293202257               0.000000000               0.037768140              -0.316179784               0.000000000               0.040859622              -0.339157311               0.000000000               0.043951105              -0.362134838               0.000000000               0.047042587              -0.385112365               0.000000000               0.050134070              -0.408089892               0.000000000               0.053225552              -0.431067419               0.000000000               0.056317035              -0.454044946               0.000000000               0.059408517              -0.477022473               0.000000000               0.062500000              -0.500000000               0.000000000               0.000000000              -0.133000000               0.000000000               0.000000000              -0.155937500               0.000000000               0.000000000              -0.178875000               0.000000000               0.000000000              -0.201812500               0.000000000               0.000000000              -0.224750000               0.000000000               0.000000000              -0.247687500               0.000000000               0.000000000              -0.270625000               0.000000000               0.000000000              -0.293562500               0.000000000               0.000000000              -0.316500000               0.000000000               0.000000000              -0.339437500               0.000000000               0.000000000              -0.362375000               0.000000000               0.000000000              -0.385312500               0.000000000               0.000000000              -0.408250000               0.000000000               0.000000000              -0.431187500               0.000000000               0.000000000              -0.454125000               0.000000000               0.000000000              -0.477062500               0.000000000               0.000000000              -0.500000000               0.000000000              -0.133000000               0.000000000               0.000000000              -0.155937500               0.000000000               0.000000000              -0.178875000               0.000000000               0.000000000              -0.201812500               0.000000000               0.000000000              -0.224750000               0.000000000               0.000000000              -0.247687500               0.000000000               0.000000000              -0.270625000               0.000000000               0.000000000              -0.293562500               0.000000000               0.000000000              -0.316500000               0.000000000               0.000000000              -0.339437500               0.000000000               0.000000000              -0.362375000               0.000000000               0.000000000              -0.385312500               0.000000000               0.000000000              -0.408250000               0.000000000               0.000000000              -0.431187500               0.000000000               0.000000000              -0.454125000               0.000000000               0.000000000              -0.477062500               0.000000000               0.000000000              -0.500000000               0.000000000               0.000000000              -0.132359569              -0.013036280               0.000000000              -0.155337096              -0.016127762               0.000000000              -0.178314623              -0.019219245               0.000000000              -0.201292150              -0.022310727               0.000000000              -0.224269676              -0.025402210               0.000000000              -0.247247203              -0.028493692               0.000000000              -0.270224730              -0.031585175               0.000000000              -0.293202257              -0.034676657               0.000000000              -0.316179784              -0.037768140               0.000000000              -0.339157311              -0.040859622               0.000000000              -0.362134838              -0.043951105               0.000000000              -0.385112365              -0.047042587               0.000000000              -0.408089892              -0.050134070               0.000000000              -0.431067419              -0.053225552               0.000000000              -0.454044946              -0.056317035               0.000000000              -0.477022473              -0.059408517               0.000000000              -0.500000000              -0.062500000               0.000000000              -0.130444442              -0.025947013               0.000000000              -0.153541665              -0.032137825               0.000000000              -0.176638887              -0.038328636               0.000000000              -0.199736109              -0.044519448               0.000000000              -0.222833332              -0.050710260               0.000000000              -0.245930554              -0.056901071               0.000000000              -0.269027776              -0.063091883               0.000000000              -0.292124999              -0.069282695               0.000000000              -0.315222221              -0.075473506               0.000000000              -0.338319444              -0.081664318               0.000000000              -0.361416666              -0.087855130               0.000000000              -0.384513888              -0.094045942               0.000000000              -0.407611111              -0.100236753               0.000000000              -0.430708333              -0.106427565               0.000000000              -0.453805555              -0.112618377               0.000000000              -0.476902778              -0.118809188               0.000000000              -0.500000000              -0.125000000               0.000000000              -0.127273065              -0.038607862               0.000000000              -0.150568498              -0.047913621               0.000000000              -0.173863932              -0.057219379               0.000000000              -0.197159365              -0.066525138               0.000000000              -0.220454798              -0.075830897               0.000000000              -0.243750232              -0.085136655               0.000000000              -0.267045665              -0.094442414               0.000000000              -0.290341099              -0.103748172               0.000000000              -0.313636532              -0.113053931               0.000000000              -0.336931966              -0.122359690               0.000000000              -0.360227399              -0.131665448               0.000000000              -0.383522833              -0.140971207               0.000000000              -0.406818266              -0.150276966               0.000000000              -0.430113700              -0.159582724               0.000000000              -0.453409133              -0.168888483               0.000000000              -0.476704567              -0.178194241               0.000000000              -0.500000000              -0.187500000               0.000000000              -0.122875978              -0.050896897               0.000000000              -0.146446229              -0.063340840               0.000000000              -0.170016481              -0.075784784               0.000000000              -0.193586732              -0.088228728               0.000000000              -0.217156983              -0.100672672               0.000000000              -0.240727235              -0.113116616               0.000000000              -0.264297486              -0.125560560               0.000000000              -0.287867738              -0.138004504               0.000000000              -0.311437989              -0.150448448               0.000000000              -0.335008240              -0.162892392               0.000000000              -0.358578492              -0.175336336               0.000000000              -0.382148743              -0.187780280               0.000000000              -0.405718994              -0.200224224               0.000000000              -0.429289246              -0.212668168               0.000000000              -0.452859497              -0.225112112               0.000000000              -0.476429749              -0.237556056               0.000000000              -0.500000000              -0.250000000               0.000000000              -0.117295528              -0.062695766               0.000000000              -0.141214558              -0.078308531               0.000000000              -0.165133587              -0.093921295               0.000000000              -0.189052617              -0.109534060               0.000000000              -0.212971646              -0.125146824               0.000000000              -0.236890676              -0.140759589               0.000000000              -0.260809705              -0.156372354               0.000000000              -0.284728735              -0.171985118               0.000000000              -0.308647764              -0.187597883               0.000000000              -0.332566794              -0.203210648               0.000000000              -0.356485823              -0.218823412               0.000000000              -0.380404853              -0.234436177               0.000000000              -0.404323882              -0.250048941               0.000000000              -0.428242912              -0.265661706               0.000000000              -0.452161941              -0.281274471               0.000000000              -0.476080971              -0.296887235               0.000000000              -0.500000000              -0.312500000               0.000000000              -0.110585458              -0.073890841               0.000000000              -0.134923867              -0.092710163               0.000000000              -0.159262276              -0.111529486               0.000000000              -0.183600685              -0.130348808               0.000000000              -0.207939094              -0.149168131               0.000000000              -0.232277503              -0.167987453               0.000000000              -0.256615912              -0.186806776               0.000000000              -0.280954320              -0.205626098               0.000000000              -0.305292729              -0.224445420               0.000000000              -0.329631138              -0.243264743               0.000000000              -0.353969547              -0.262084065               0.000000000              -0.378307956              -0.280903388               0.000000000              -0.402646365              -0.299722710               0.000000000              -0.426984773              -0.318542033               0.000000000              -0.451323182              -0.337361355               0.000000000              -0.475661591              -0.356180678               0.000000000              -0.500000000              -0.375000000               0.000000000              -0.102810390              -0.084374307               0.000000000              -0.127634741              -0.106444663               0.000000000              -0.152459092              -0.128515018               0.000000000              -0.177283442              -0.150585374               0.000000000              -0.202107793              -0.172655730               0.000000000              -0.226932143              -0.194726086               0.000000000              -0.251756494              -0.216796442               0.000000000              -0.276580845              -0.238866798               0.000000000              -0.301405195              -0.260937153               0.000000000              -0.326229546              -0.283007509               0.000000000              -0.351053896              -0.305077865               0.000000000              -0.375878247              -0.327148221               0.000000000              -0.400702598              -0.349218577               0.000000000              -0.425526948              -0.371288933               0.000000000              -0.450351299              -0.393359288               0.000000000              -0.475175649              -0.415429644               0.000000000              -0.500000000              -0.437500000               0.000000000              -0.094045202              -0.094045202               0.000000000              -0.119417377              -0.119417377               0.000000000              -0.144789552              -0.144789552               0.000000000              -0.170161727              -0.170161727               0.000000000              -0.195533901              -0.195533901               0.000000000              -0.220906076              -0.220906076               0.000000000              -0.246278251              -0.246278251               0.000000000              -0.271650426              -0.271650426               0.000000000              -0.297022601              -0.297022601               0.000000000              -0.322394776              -0.322394776               0.000000000              -0.347766951              -0.347766951               0.000000000              -0.373139126              -0.373139126               0.000000000              -0.398511300              -0.398511300               0.000000000              -0.423883475              -0.423883475               0.000000000              -0.449255650              -0.449255650               0.000000000              -0.474627825              -0.474627825               0.000000000              -0.500000000              -0.500000000               0.000000000              -0.084374307              -0.102810390               0.000000000              -0.106444663              -0.127634741               0.000000000              -0.128515018              -0.152459092               0.000000000              -0.150585374              -0.177283442               0.000000000              -0.172655730              -0.202107793               0.000000000              -0.194726086              -0.226932143               0.000000000              -0.216796442              -0.251756494               0.000000000              -0.238866798              -0.276580845               0.000000000              -0.260937153              -0.301405195               0.000000000              -0.283007509              -0.326229546               0.000000000              -0.305077865              -0.351053896               0.000000000              -0.327148221              -0.375878247               0.000000000              -0.349218577              -0.400702598               0.000000000              -0.371288933              -0.425526948               0.000000000              -0.393359288              -0.450351299               0.000000000              -0.415429644              -0.475175649               0.000000000              -0.437500000              -0.500000000               0.000000000              -0.073890841              -0.110585458               0.000000000              -0.092710163              -0.134923867               0.000000000              -0.111529486              -0.159262276               0.000000000              -0.130348808              -0.183600685               0.000000000              -0.149168131              -0.207939094               0.000000000              -0.167987453              -0.232277503               0.000000000              -0.186806776              -0.256615912               0.000000000              -0.205626098              -0.280954320               0.000000000              -0.224445420              -0.305292729               0.000000000              -0.243264743              -0.329631138               0.000000000              -0.262084065              -0.353969547               0.000000000              -0.280903388              -0.378307956               0.000000000              -0.299722710              -0.402646365               0.000000000              -0.318542033              -0.426984773               0.000000000              -0.337361355              -0.451323182               0.000000000              -0.356180678              -0.475661591               0.000000000              -0.375000000              -0.500000000               0.000000000              -0.062695766              -0.117295528               0.000000000              -0.078308531              -0.141214558               0.000000000              -0.093921295              -0.165133587               0.000000000              -0.109534060              -0.189052617               0.000000000              -0.125146824              -0.212971646               0.000000000              -0.140759589              -0.236890676               0.000000000              -0.156372354              -0.260809705               0.000000000              -0.171985118              -0.284728735               0.000000000              -0.187597883              -0.308647764               0.000000000              -0.203210648              -0.332566794               0.000000000              -0.218823412              -0.356485823               0.000000000              -0.234436177              -0.380404853               0.000000000              -0.250048941              -0.404323882               0.000000000              -0.265661706              -0.428242912               0.000000000              -0.281274471              -0.452161941               0.000000000              -0.296887235              -0.476080971               0.000000000              -0.312500000              -0.500000000               0.000000000              -0.050896897              -0.122875978               0.000000000              -0.063340840              -0.146446229               0.000000000              -0.075784784              -0.170016481               0.000000000              -0.088228728              -0.193586732               0.000000000              -0.100672672              -0.217156983               0.000000000              -0.113116616              -0.240727235               0.000000000              -0.125560560              -0.264297486               0.000000000              -0.138004504              -0.287867738               0.000000000              -0.150448448              -0.311437989               0.000000000              -0.162892392              -0.335008240               0.000000000              -0.175336336              -0.358578492               0.000000000              -0.187780280              -0.382148743               0.000000000              -0.200224224              -0.405718994               0.000000000              -0.212668168              -0.429289246               0.000000000              -0.225112112              -0.452859497               0.000000000              -0.237556056              -0.476429749               0.000000000              -0.250000000              -0.500000000               0.000000000              -0.038607862              -0.127273065               0.000000000              -0.047913621              -0.150568498               0.000000000              -0.057219379              -0.173863932               0.000000000              -0.066525138              -0.197159365               0.000000000              -0.075830897              -0.220454798               0.000000000              -0.085136655              -0.243750232               0.000000000              -0.094442414              -0.267045665               0.000000000              -0.103748172              -0.290341099               0.000000000              -0.113053931              -0.313636532               0.000000000              -0.122359690              -0.336931966               0.000000000              -0.131665448              -0.360227399               0.000000000              -0.140971207              -0.383522833               0.000000000              -0.150276966              -0.406818266               0.000000000              -0.159582724              -0.430113700               0.000000000              -0.168888483              -0.453409133               0.000000000              -0.178194241              -0.476704567               0.000000000              -0.187500000              -0.500000000               0.000000000              -0.025947013              -0.130444442               0.000000000              -0.032137825              -0.153541665               0.000000000              -0.038328636              -0.176638887               0.000000000              -0.044519448              -0.199736109               0.000000000              -0.050710260              -0.222833332               0.000000000              -0.056901071              -0.245930554               0.000000000              -0.063091883              -0.269027776               0.000000000              -0.069282695              -0.292124999               0.000000000              -0.075473506              -0.315222221               0.000000000              -0.081664318              -0.338319444               0.000000000              -0.087855130              -0.361416666               0.000000000              -0.094045942              -0.384513888               0.000000000              -0.100236753              -0.407611111               0.000000000              -0.106427565              -0.430708333               0.000000000              -0.112618377              -0.453805555               0.000000000              -0.118809188              -0.476902778               0.000000000              -0.125000000              -0.500000000               0.000000000              -0.013036280              -0.132359569               0.000000000              -0.016127762              -0.155337096               0.000000000              -0.019219245              -0.178314623               0.000000000              -0.022310727              -0.201292150               0.000000000              -0.025402210              -0.224269676               0.000000000              -0.028493692              -0.247247203               0.000000000              -0.031585175              -0.270224730               0.000000000              -0.034676657              -0.293202257               0.000000000              -0.037768140              -0.316179784               0.000000000              -0.040859622              -0.339157311               0.000000000              -0.043951105              -0.362134838               0.000000000              -0.047042587              -0.385112365               0.000000000              -0.050134070              -0.408089892               0.000000000              -0.053225552              -0.431067419               0.000000000              -0.056317035              -0.454044946               0.000000000              -0.059408517              -0.477022473               0.000000000              -0.062500000              -0.500000000               0.000000000               0.000000000              -0.133000000               0.000000000               0.000000000              -0.155937500               0.000000000               0.000000000              -0.178875000               0.000000000               0.000000000              -0.201812500               0.000000000               0.000000000              -0.224750000               0.000000000               0.000000000              -0.247687500               0.000000000               0.000000000              -0.270625000               0.000000000               0.000000000              -0.293562500               0.000000000               0.000000000              -0.316500000               0.000000000               0.000000000              -0.339437500               0.000000000               0.000000000              -0.362375000               0.000000000               0.000000000              -0.385312500               0.000000000               0.000000000              -0.408250000               0.000000000               0.000000000              -0.431187500               0.000000000               0.000000000              -0.454125000               0.000000000               0.000000000              -0.477062500               0.000000000               0.000000000              -0.500000000               0.000000000              -0.133000000               0.000000000               0.000000000              -0.155937500               0.000000000               0.000000000              -0.178875000               0.000000000               0.000000000              -0.201812500               0.000000000               0.000000000              -0.224750000               0.000000000               0.000000000              -0.247687500               0.000000000               0.000000000              -0.270625000               0.000000000               0.000000000              -0.293562500               0.000000000               0.000000000              -0.316500000               0.000000000               0.000000000              -0.339437500               0.000000000               0.000000000              -0.362375000               0.000000000               0.000000000              -0.385312500               0.000000000               0.000000000              -0.408250000               0.000000000               0.000000000              -0.431187500               0.000000000               0.000000000              -0.454125000               0.000000000               0.000000000              -0.477062500               0.000000000               0.000000000              -0.500000000               0.000000000               0.000000000              -0.132359569               0.013036280               0.000000000              -0.155337096               0.016127762               0.000000000              -0.178314623               0.019219245               0.000000000              -0.201292150               0.022310727               0.000000000              -0.224269676               0.025402210               0.000000000              -0.247247203               0.028493692               0.000000000              -0.270224730               0.031585175               0.000000000              -0.293202257               0.034676657               0.000000000              -0.316179784               0.037768140               0.000000000              -0.339157311               0.040859622               0.000000000              -0.362134838               0.043951105               0.000000000              -0.385112365               0.047042587               0.000000000              -0.408089892               0.050134070               0.000000000              -0.431067419               0.053225552               0.000000000              -0.454044946               0.056317035               0.000000000              -0.477022473               0.059408517               0.000000000              -0.500000000               0.062500000               0.000000000              -0.130444442               0.025947013               0.000000000              -0.153541665               0.032137825               0.000000000              -0.176638887               0.038328636               0.000000000              -0.199736109               0.044519448               0.000000000              -0.222833332               0.050710260               0.000000000              -0.245930554               0.056901071               0.000000000              -0.269027776               0.063091883               0.000000000              -0.292124999               0.069282695               0.000000000              -0.315222221               0.075473506               0.000000000              -0.338319444               0.081664318               0.000000000              -0.361416666               0.087855130               0.000000000              -0.384513888               0.094045942               0.000000000              -0.407611111               0.100236753               0.000000000              -0.430708333               0.106427565               0.000000000              -0.453805555               0.112618377               0.000000000              -0.476902778               0.118809188               0.000000000              -0.500000000               0.125000000               0.000000000              -0.127273065               0.038607862               0.000000000              -0.150568498               0.047913621               0.000000000              -0.173863932               0.057219379               0.000000000              -0.197159365               0.066525138               0.000000000              -0.220454798               0.075830897               0.000000000              -0.243750232               0.085136655               0.000000000              -0.267045665               0.094442414               0.000000000              -0.290341099               0.103748172               0.000000000              -0.313636532               0.113053931               0.000000000              -0.336931966               0.122359690               0.000000000              -0.360227399               0.131665448               0.000000000              -0.383522833               0.140971207               0.000000000              -0.406818266               0.150276966               0.000000000              -0.430113700               0.159582724               0.000000000              -0.453409133               0.168888483               0.000000000              -0.476704567               0.178194241               0.000000000              -0.500000000               0.187500000               0.000000000              -0.122875978               0.050896897               0.000000000              -0.146446229               0.063340840               0.000000000              -0.170016481               0.075784784               0.000000000              -0.193586732               0.088228728               0.000000000              -0.217156983               0.100672672               0.000000000              -0.240727235               0.113116616               0.000000000              -0.264297486               0.125560560               0.000000000              -0.287867738               0.138004504               0.000000000              -0.311437989               0.150448448               0.000000000              -0.335008240               0.162892392               0.000000000              -0.358578492               0.175336336               0.000000000              -0.382148743               0.187780280               0.000000000              -0.405718994               0.200224224               0.000000000              -0.429289246               0.212668168               0.000000000              -0.452859497               0.225112112               0.000000000              -0.476429749               0.237556056               0.000000000              -0.500000000               0.250000000               0.000000000              -0.117295528               0.062695766               0.000000000              -0.141214558               0.078308531               0.000000000              -0.165133587               0.093921295               0.000000000              -0.189052617               0.109534060               0.000000000              -0.212971646               0.125146824               0.000000000              -0.236890676               0.140759589               0.000000000              -0.260809705               0.156372354               0.000000000              -0.284728735               0.171985118               0.000000000              -0.308647764               0.187597883               0.000000000              -0.332566794               0.203210648               0.000000000              -0.356485823               0.218823412               0.000000000              -0.380404853               0.234436177               0.000000000              -0.404323882               0.250048941               0.000000000              -0.428242912               0.265661706               0.000000000              -0.452161941               0.281274471               0.000000000              -0.476080971               0.296887235               0.000000000              -0.500000000               0.312500000               0.000000000              -0.110585458               0.073890841               0.000000000              -0.134923867               0.092710163               0.000000000              -0.159262276               0.111529486               0.000000000              -0.183600685               0.130348808               0.000000000              -0.207939094               0.149168131               0.000000000              -0.232277503               0.167987453               0.000000000              -0.256615912               0.186806776               0.000000000              -0.280954320               0.205626098               0.000000000              -0.305292729               0.224445420               0.000000000              -0.329631138               0.243264743               0.000000000              -0.353969547               0.262084065               0.000000000              -0.378307956               0.280903388               0.000000000              -0.402646365               0.299722710               0.000000000              -0.426984773               0.318542033               0.000000000              -0.451323182               0.337361355               0.000000000              -0.475661591               0.356180678               0.000000000              -0.500000000               0.375000000               0.000000000              -0.102810390               0.084374307               0.000000000              -0.127634741               0.106444663               0.000000000              -0.152459092               0.128515018               0.000000000              -0.177283442               0.150585374               0.000000000              -0.202107793               0.172655730               0.000000000              -0.226932143               0.194726086               0.000000000              -0.251756494               0.216796442               0.000000000              -0.276580845               0.238866798               0.000000000              -0.301405195               0.260937153               0.000000000              -0.326229546               0.283007509               0.000000000              -0.351053896               0.305077865               0.000000000              -0.375878247               0.327148221               0.000000000              -0.400702598               0.349218577               0.000000000              -0.425526948               0.371288933               0.000000000              -0.450351299               0.393359288               0.000000000              -0.475175649               0.415429644               0.000000000              -0.500000000               0.437500000               0.000000000              -0.094045202               0.094045202               0.000000000              -0.119417377               0.119417377               0.000000000              -0.144789552               0.144789552               0.000000000              -0.170161727               0.170161727               0.000000000              -0.195533901               0.195533901               0.000000000              -0.220906076               0.220906076               0.000000000              -0.246278251               0.246278251               0.000000000              -0.271650426               0.271650426               0.000000000              -0.297022601               0.297022601               0.000000000              -0.322394776               0.322394776               0.000000000              -0.347766951               0.347766951               0.000000000              -0.373139126               0.373139126               0.000000000              -0.398511300               0.398511300               0.000000000              -0.423883475               0.423883475               0.000000000              -0.449255650               0.449255650               0.000000000              -0.474627825               0.474627825               0.000000000              -0.500000000               0.500000000               0.000000000              -0.084374307               0.102810390               0.000000000              -0.106444663               0.127634741               0.000000000              -0.128515018               0.152459092               0.000000000              -0.150585374               0.177283442               0.000000000              -0.172655730               0.202107793               0.000000000              -0.194726086               0.226932143               0.000000000              -0.216796442               0.251756494               0.000000000              -0.238866798               0.276580845               0.000000000              -0.260937153               0.301405195               0.000000000              -0.283007509               0.326229546               0.000000000              -0.305077865               0.351053896               0.000000000              -0.327148221               0.375878247               0.000000000              -0.349218577               0.400702598               0.000000000              -0.371288933               0.425526948               0.000000000              -0.393359288               0.450351299               0.000000000              -0.415429644               0.475175649               0.000000000              -0.437500000               0.500000000               0.000000000              -0.073890841               0.110585458               0.000000000              -0.092710163               0.134923867               0.000000000              -0.111529486               0.159262276               0.000000000              -0.130348808               0.183600685               0.000000000              -0.149168131               0.207939094               0.000000000              -0.167987453               0.232277503               0.000000000              -0.186806776               0.256615912               0.000000000              -0.205626098               0.280954320               0.000000000              -0.224445420               0.305292729               0.000000000              -0.243264743               0.329631138               0.000000000              -0.262084065               0.353969547               0.000000000              -0.280903388               0.378307956               0.000000000              -0.299722710               0.402646365               0.000000000              -0.318542033               0.426984773               0.000000000              -0.337361355               0.451323182               0.000000000              -0.356180678               0.475661591               0.000000000              -0.375000000               0.500000000               0.000000000              -0.062695766               0.117295528               0.000000000              -0.078308531               0.141214558               0.000000000              -0.093921295               0.165133587               0.000000000              -0.109534060               0.189052617               0.000000000              -0.125146824               0.212971646               0.000000000              -0.140759589               0.236890676               0.000000000              -0.156372354               0.260809705               0.000000000              -0.171985118               0.284728735               0.000000000              -0.187597883               0.308647764               0.000000000              -0.203210648               0.332566794               0.000000000              -0.218823412               0.356485823               0.000000000              -0.234436177               0.380404853               0.000000000              -0.250048941               0.404323882               0.000000000              -0.265661706               0.428242912               0.000000000              -0.281274471               0.452161941               0.000000000              -0.296887235               0.476080971               0.000000000              -0.312500000               0.500000000               0.000000000              -0.050896897               0.122875978               0.000000000              -0.063340840               0.146446229               0.000000000              -0.075784784               0.170016481               0.000000000              -0.088228728               0.193586732               0.000000000              -0.100672672               0.217156983               0.000000000              -0.113116616               0.240727235               0.000000000              -0.125560560               0.264297486               0.000000000              -0.138004504               0.287867738               0.000000000              -0.150448448               0.311437989               0.000000000              -0.162892392               0.335008240               0.000000000              -0.175336336               0.358578492               0.000000000              -0.187780280               0.382148743               0.000000000              -0.200224224               0.405718994               0.000000000              -0.212668168               0.429289246               0.000000000              -0.225112112               0.452859497               0.000000000              -0.237556056               0.476429749               0.000000000              -0.250000000               0.500000000               0.000000000              -0.038607862               0.127273065               0.000000000              -0.047913621               0.150568498               0.000000000              -0.057219379               0.173863932               0.000000000              -0.066525138               0.197159365               0.000000000              -0.075830897               0.220454798               0.000000000              -0.085136655               0.243750232               0.000000000              -0.094442414               0.267045665               0.000000000              -0.103748172               0.290341099               0.000000000              -0.113053931               0.313636532               0.000000000              -0.122359690               0.336931966               0.000000000              -0.131665448               0.360227399               0.000000000              -0.140971207               0.383522833               0.000000000              -0.150276966               0.406818266               0.000000000              -0.159582724               0.430113700               0.000000000              -0.168888483               0.453409133               0.000000000              -0.178194241               0.476704567               0.000000000              -0.187500000               0.500000000               0.000000000              -0.025947013               0.130444442               0.000000000              -0.032137825               0.153541665               0.000000000              -0.038328636               0.176638887               0.000000000              -0.044519448               0.199736109               0.000000000              -0.050710260               0.222833332               0.000000000              -0.056901071               0.245930554               0.000000000              -0.063091883               0.269027776               0.000000000              -0.069282695               0.292124999               0.000000000              -0.075473506               0.315222221               0.000000000              -0.081664318               0.338319444               0.000000000              -0.087855130               0.361416666               0.000000000              -0.094045942               0.384513888               0.000000000              -0.100236753               0.407611111               0.000000000              -0.106427565               0.430708333               0.000000000              -0.112618377               0.453805555               0.000000000              -0.118809188               0.476902778               0.000000000              -0.125000000               0.500000000               0.000000000              -0.013036280               0.132359569               0.000000000              -0.016127762               0.155337096               0.000000000              -0.019219245               0.178314623               0.000000000              -0.022310727               0.201292150               0.000000000              -0.025402210               0.224269676               0.000000000              -0.028493692               0.247247203               0.000000000              -0.031585175               0.270224730               0.000000000              -0.034676657               0.293202257               0.000000000              -0.037768140               0.316179784               0.000000000              -0.040859622               0.339157311               0.000000000              -0.043951105               0.362134838               0.000000000              -0.047042587               0.385112365               0.000000000              -0.050134070               0.408089892               0.000000000              -0.053225552               0.431067419               0.000000000              -0.056317035               0.454044946               0.000000000              -0.059408517               0.477022473               0.000000000              -0.062500000               0.500000000               0.000000000               0.000000000               0.133000000               0.000000000               0.000000000               0.155937500               0.000000000               0.000000000               0.178875000               0.000000000               0.000000000               0.201812500               0.000000000               0.000000000               0.224750000               0.000000000               0.000000000               0.247687500               0.000000000               0.000000000               0.270625000               0.000000000               0.000000000               0.293562500               0.000000000               0.000000000               0.316500000               0.000000000               0.000000000               0.339437500               0.000000000               0.000000000               0.362375000               0.000000000               0.000000000               0.385312500               0.000000000               0.000000000               0.408250000               0.000000000               0.000000000               0.431187500               0.000000000               0.000000000               0.454125000               0.000000000               0.000000000               0.477062500               0.000000000               0.000000000               0.500000000               0.000000000 </DataArray>
</Points>
<Cells>
<DataArray type="Int32"                                    Name="connectivity"                                                      NumberOfComponents=" 1" format="ascii">
         0          1         18         17          1          2         19         18          2          3         20         19          3          4         21         20          4          5         22         21          5          6         23         22          6          7         24         23          7          8         25         24          8          9         26         25          9         10         27         26         10         11         28         27         11         12         29         28         12         13         30         29         13         14         31         30         14         15         32         31         15         16         33         32         17         18         35         34         18         19         36         35         19         20         37         36         20         21         38         37         21         22         39         38         22         23         40         39         23         24         41         40         24         25         42         41         25         26         43         42         26         27         44         43         27         28         45         44         28         29         46         45         29         30         47         46         30         31         48         47         31         32         49         48         32         33         50         49         34         35         52         51         35         36         53         52         36         37         54         53         37         38         55         54         38         39         56         55         39         40         57         56         40         41         58         57         41         42         59         58         42         43         60         59         43         44         61         60         44         45         62         61         45         46         63         62         46         47         64         63         47         48         65         64         48         49         66         65         49         50         67         66         51         52         69         68         52         53         70         69         53         54         71         70         54         55         72         71         55         56         73         72         56         57         74         73         57         58         75         74         58         59         76         75         59         60         77         76         60         61         78         77         61         62         79         78         62         63         80         79         63         64         81         80         64         65         82         81         65         66         83         82         66         67         84         83         68         69         86         85         69         70         87         86         70         71         88         87         71         72         89         88         72         73         90         89         73         74         91         90         74         75         92         91         75         76         93         92         76         77         94         93         77         78         95         94         78         79         96         95         79         80         97         96         80         81         98         97         81         82         99         98         82         83        100         99         83         84        101        100         85         86        103        102         86         87        104        103         87         88        105        104         88         89        106        105         89         90        107        106         90         91        108        107         91         92        109        108         92         93        110        109         93         94        111        110         94         95        112        111         95         96        113        112         96         97        114        113         97         98        115        114         98         99        116        115         99        100        117        116        100        101        118        117        102        103        120        119        103        104        121        120        104        105        122        121        105        106        123        122        106        107        124        123        107        108        125        124        108        109        126        125        109        110        127        126        110        111        128        127        111        112        129        128        112        113        130        129        113        114        131        130        114        115        132        131        115        116        133        132        116        117        134        133        117        118        135        134        119        120        137        136        120        121        138        137        121        122        139        138        122        123        140        139        123        124        141        140        124        125        142        141        125        126        143        142        126        127        144        143        127        128        145        144        128        129        146        145        129        130        147        146        130        131        148        147        131        132        149        148        132        133        150        149        133        134        151        150        134        135        152        151        136        137        154        153        137        138        155        154        138        139        156        155        139        140        157        156        140        141        158        157        141        142        159        158        142        143        160        159        143        144        161        160        144        145        162        161        145        146        163        162        146        147        164        163        147        148        165        164        148        149        166        165        149        150        167        166        150        151        168        167        151        152        169        168        153        154        171        170        154        155        172        171        155        156        173        172        156        157        174        173        157        158        175        174        158        159        176        175        159        160        177        176        160        161        178        177        161        162        179        178        162        163        180        179        163        164        181        180        164        165        182        181        165        166        183        182        166        167        184        183        167        168        185        184        168        169        186        185        170        171        188        187        171        172        189        188        172        173        190        189        173        174        191        190        174        175        192        191        175        176        193        192        176        177        194        193        177        178        195        194        178        179        196        195        179        180        197        196        180        181        198        197        181        182        199        198        182        183        200        199        183        184        201        200        184        185        202        201        185        186        203        202        187        188        205        204        188        189        206        205        189        190        207        206        190        191        208        207        191        192        209        208        192        193        210        209        193        194        211        210        194        195        212        211        195        196        213        212        196        197        214        213        197        198        215        214        198        199        216        215        199        200        217        216        200        201        218        217        201        202        219        218        202        203        220        219        204        205        222        221        205        206        223        222        206        207        224        223        207        208        225        224        208        209        226        225        209        210        227        226        210        211        228        227        211        212        229        228        212        213        230        229        213        214        231        230        214        215        232        231        215        216        233        232        216        217        234        233        217        218        235        234        218        219        236        235        219        220        237        236        221        222        239        238        222        223        240        239        223        224        241        240        224        225        242        241        225        226        243        242        226        227        244        243        227        228        245        244        228        229        246        245        229        230        247        246        230        231        248        247        231        232        249        248        232        233        250        249        233        234        251        250        234        235        252        251        235        236        253        252        236        237        254        253        238        239        256        255        239        240        257        256        240        241        258        257        241        242        259        258        242        243        260        259        243        244        261        260        244        245        262        261        245        246        263        262        246        247        264        263        247        248        265        264        248        249        266        265        249        250        267        266        250        251        268        267        251        252        269        268        252        253        270        269        253        254        271        270        255        256        273        272        256        257        274        273        257        258        275        274        258        259        276        275        259        260        277        276        260        261        278        277        261        262        279        278        262        263        280        279        263        264        281        280        264        265        282        281        265        266        283        282        266        267        284        283        267        268        285        284        268        269        286        285        269        270        287        286        270        271        288        287        306        307          1          0        307        308          2          1        308        309          3          2        309        310          4          3        310        311          5          4        311        312          6          5        312        313          7          6        313        314          8          7        314        315          9          8        315        316         10          9        316        317         11         10        317        318         12         11        318        319         13         12        319        320         14         13        320        321         15         14        321        322         16         15        323        324        307        306        324        325        308        307        325        326        309        308        326        327        310        309        327        328        311        310        328        329        312        311        329        330        313        312        330        331        314        313        331        332        315        314        332        333        316        315        333        334        317        316        334        335        318        317        335        336        319        318        336        337        320        319        337        338        321        320        338        339        322        321        340        341        324        323        341        342        325        324        342        343        326        325        343        344        327        326        344        345        328        327        345        346        329        328        346        347        330        329        347        348        331        330        348        349        332        331        349        350        333        332        350        351        334        333        351        352        335        334        352        353        336        335        353        354        337        336        354        355        338        337        355        356        339        338        357        358        341        340        358        359        342        341        359        360        343        342        360        361        344        343        361        362        345        344        362        363        346        345        363        364        347        346        364        365        348        347        365        366        349        348        366        367        350        349        367        368        351        350        368        369        352        351        369        370        353        352        370        371        354        353        371        372        355        354        372        373        356        355        374        375        358        357        375        376        359        358        376        377        360        359        377        378        361        360        378        379        362        361        379        380        363        362        380        381        364        363        381        382        365        364        382        383        366        365        383        384        367        366        384        385        368        367        385        386        369        368        386        387        370        369        387        388        371        370        388        389        372        371        389        390        373        372        391        392        375        374        392        393        376        375        393        394        377        376        394        395        378        377        395        396        379        378        396        397        380        379        397        398        381        380        398        399        382        381        399        400        383        382        400        401        384        383        401        402        385        384        402        403        386        385        403        404        387        386        404        405        388        387        405        406        389        388        406        407        390        389        408        409        392        391        409        410        393        392        410        411        394        393        411        412        395        394        412        413        396        395        413        414        397        396        414        415        398        397        415        416        399        398        416        417        400        399        417        418        401        400        418        419        402        401        419        420        403        402        420        421        404        403        421        422        405        404        422        423        406        405        423        424        407        406        425        426        409        408        426        427        410        409        427        428        411        410        428        429        412        411        429        430        413        412        430        431        414        413        431        432        415        414        432        433        416        415        433        434        417        416        434        435        418        417        435        436        419        418        436        437        420        419        437        438        421        420        438        439        422        421        439        440        423        422        440        441        424        423        442        443        426        425        443        444        427        426        444        445        428        427        445        446        429        428        446        447        430        429        447        448        431        430        448        449        432        431        449        450        433        432        450        451        434        433        451        452        435        434        452        453        436        435        453        454        437        436        454        455        438        437        455        456        439        438        456        457        440        439        457        458        441        440        459        460        443        442        460        461        444        443        461        462        445        444        462        463        446        445        463        464        447        446        464        465        448        447        465        466        449        448        466        467        450        449        467        468        451        450        468        469        452        451        469        470        453        452        470        471        454        453        471        472        455        454        472        473        456        455        473        474        457        456        474        475        458        457        476        477        460        459        477        478        461        460        478        479        462        461        479        480        463        462        480        481        464        463        481        482        465        464        482        483        466        465        483        484        467        466        484        485        468        467        485        486        469        468        486        487        470        469        487        488        471        470        488        489        472        471        489        490        473        472        490        491        474        473        491        492        475        474        493        494        477        476        494        495        478        477        495        496        479        478        496        497        480        479        497        498        481        480        498        499        482        481        499        500        483        482        500        501        484        483        501        502        485        484        502        503        486        485        503        504        487        486        504        505        488        487        505        506        489        488        506        507        490        489        507        508        491        490        508        509        492        491        510        511        494        493        511        512        495        494        512        513        496        495        513        514        497        496        514        515        498        497        515        516        499        498        516        517        500        499        517        518        501        500        518        519        502        501        519        520        503        502        520        521        504        503        521        522        505        504        522        523        506        505        523        524        507        506        524        525        508        507        525        526        509        508        527        528        511        510        528        529        512        511        529        530        513        512        530        531        514        513        531        532        515        514        532        533        516        515        533        534        517        516        534        535        518        517        535        536        519        518        536        537        520        519        537        538        521        520        538        539        522        521        539        540        523        522        540        541        524        523        541        542        525        524        542        543        526        525        544        545        528        527        545        546        529        528        546        547        530        529        547        548        531        530        548        549        532        531        549        550        533        532        550        551        534        533        551        552        535        534        552        553        536        535        553        554        537        536        554        555        538        537        555        556        539        538        556        557        540        539        557        558        541        540        558        559        542        541        559        560        543        542        561        562        545        544        562        563        546        545        563        564        547        546        564        565        548        547        565        566        549        548        566        567        550        549        567        568        551        550        568        569        552        551        569        570        553        552        570        571        554        553        571        572        555        554        572        573        556        555        573        574        557        556        574        575        558        557        575        576        559        558        576        577        560        559        578        579        596        595        579        580        597        596        580        581        598        597        581        582        599        598        582        583        600        599        583        584        601        600        584        585        602        601        585        586        603        602        586        587        604        603        587        588        605        604        588        589        606        605        589        590        607        606        590        591        608        607        591        592        609        608        592        593        610        609        593        594        611        610        595        596        613        612        596        597        614        613        597        598        615        614        598        599        616        615        599        600        617        616        600        601        618        617        601        602        619        618        602        603        620        619        603        604        621        620        604        605        622        621        605        606        623        622        606        607        624        623        607        608        625        624        608        609        626        625        609        610        627        626        610        611        628        627        612        613        630        629        613        614        631        630        614        615        632        631        615        616        633        632        616        617        634        633        617        618        635        634        618        619        636        635        619        620        637        636        620        621        638        637        621        622        639        638        622        623        640        639        623        624        641        640        624        625        642        641        625        626        643        642        626        627        644        643        627        628        645        644        629        630        647        646        630        631        648        647        631        632        649        648        632        633        650        649        633        634        651        650        634        635        652        651        635        636        653        652        636        637        654        653        637        638        655        654        638        639        656        655        639        640        657        656        640        641        658        657        641        642        659        658        642        643        660        659        643        644        661        660        644        645        662        661        646        647        664        663        647        648        665        664        648        649        666        665        649        650        667        666        650        651        668        667        651        652        669        668        652        653        670        669        653        654        671        670        654        655        672        671        655        656        673        672        656        657        674        673        657        658        675        674        658        659        676        675        659        660        677        676        660        661        678        677        661        662        679        678        663        664        681        680        664        665        682        681        665        666        683        682        666        667        684        683        667        668        685        684        668        669        686        685        669        670        687        686        670        671        688        687        671        672        689        688        672        673        690        689        673        674        691        690        674        675        692        691        675        676        693        692        676        677        694        693        677        678        695        694        678        679        696        695        680        681        698        697        681        682        699        698        682        683        700        699        683        684        701        700        684        685        702        701        685        686        703        702        686        687        704        703        687        688        705        704        688        689        706        705        689        690        707        706        690        691        708        707        691        692        709        708        692        693        710        709        693        694        711        710        694        695        712        711        695        696        713        712        697        698        715        714        698        699        716        715        699        700        717        716        700        701        718        717        701        702        719        718        702        703        720        719        703        704        721        720        704        705        722        721        705        706        723        722        706        707        724        723        707        708        725        724        708        709        726        725        709        710        727        726        710        711        728        727        711        712        729        728        712        713        730        729        714        715        732        731        715        716        733        732        716        717        734        733        717        718        735        734        718        719        736        735        719        720        737        736        720        721        738        737        721        722        739        738        722        723        740        739        723        724        741        740        724        725        742        741        725        726        743        742        726        727        744        743        727        728        745        744        728        729        746        745        729        730        747        746        731        732        749        748        732        733        750        749        733        734        751        750        734        735        752        751        735        736        753        752        736        737        754        753        737        738        755        754        738        739        756        755        739        740        757        756        740        741        758        757        741        742        759        758        742        743        760        759        743        744        761        760        744        745        762        761        745        746        763        762        746        747        764        763        748        749        766        765        749        750        767        766        750        751        768        767        751        752        769        768        752        753        770        769        753        754        771        770        754        755        772        771        755        756        773        772        756        757        774        773        757        758        775        774        758        759        776        775        759        760        777        776        760        761        778        777        761        762        779        778        762        763        780        779        763        764        781        780        765        766        783        782        766        767        784        783        767        768        785        784        768        769        786        785        769        770        787        786        770        771        788        787        771        772        789        788        772        773        790        789        773        774        791        790        774        775        792        791        775        776        793        792        776        777        794        793        777        778        795        794        778        779        796        795        779        780        797        796        780        781        798        797        782        783        800        799        783        784        801        800        784        785        802        801        785        786        803        802        786        787        804        803        787        788        805        804        788        789        806        805        789        790        807        806        790        791        808        807        791        792        809        808        792        793        810        809        793        794        811        810        794        795        812        811        795        796        813        812        796        797        814        813        797        798        815        814        799        800        817        816        800        801        818        817        801        802        819        818        802        803        820        819        803        804        821        820        804        805        822        821        805        806        823        822        806        807        824        823        807        808        825        824        808        809        826        825        809        810        827        826        810        811        828        827        811        812        829        828        812        813        830        829        813        814        831        830        814        815        832        831        816        817        834        833        817        818        835        834        818        819        836        835        819        820        837        836        820        821        838        837        821        822        839        838        822        823        840        839        823        824        841        840        824        825        842        841        825        826        843        842        826        827        844        843        827        828        845        844        828        829        846        845        829        830        847        846        830        831        848        847        831        832        849        848        833        834        562        561        834        835        563        562        835        836        564        563        836        837        565        564        837        838        566        565        838        839        567        566        839        840        568        567        840        841        569        568        841        842        570        569        842        843        571        570        843        844        572        571        844        845        573        572        845        846        574        573        846        847        575        574        847        848        576        575        848        849        577        576        884        885        579        578        885        886        580        579        886        887        581        580        887        888        582        581        888        889        583        582        889        890        584        583        890        891        585        584        891        892        586        585        892        893        587        586        893        894        588        587        894        895        589        588        895        896        590        589        896        897        591        590        897        898        592        591        898        899        593        592        899        900        594        593        901        902        885        884        902        903        886        885        903        904        887        886        904        905        888        887        905        906        889        888        906        907        890        889        907        908        891        890        908        909        892        891        909        910        893        892        910        911        894        893        911        912        895        894        912        913        896        895        913        914        897        896        914        915        898        897        915        916        899        898        916        917        900        899        918        919        902        901        919        920        903        902        920        921        904        903        921        922        905        904        922        923        906        905        923        924        907        906        924        925        908        907        925        926        909        908        926        927        910        909        927        928        911        910        928        929        912        911        929        930        913        912        930        931        914        913        931        932        915        914        932        933        916        915        933        934        917        916        935        936        919        918        936        937        920        919        937        938        921        920        938        939        922        921        939        940        923        922        940        941        924        923        941        942        925        924        942        943        926        925        943        944        927        926        944        945        928        927        945        946        929        928        946        947        930        929        947        948        931        930        948        949        932        931        949        950        933        932        950        951        934        933        952        953        936        935        953        954        937        936        954        955        938        937        955        956        939        938        956        957        940        939        957        958        941        940        958        959        942        941        959        960        943        942        960        961        944        943        961        962        945        944        962        963        946        945        963        964        947        946        964        965        948        947        965        966        949        948        966        967        950        949        967        968        951        950        969        970        953        952        970        971        954        953        971        972        955        954        972        973        956        955        973        974        957        956        974        975        958        957        975        976        959        958        976        977        960        959        977        978        961        960        978        979        962        961        979        980        963        962        980        981        964        963        981        982        965        964        982        983        966        965        983        984        967        966        984        985        968        967        986        987        970        969        987        988        971        970        988        989        972        971        989        990        973        972        990        991        974        973        991        992        975        974        992        993        976        975        993        994        977        976        994        995        978        977        995        996        979        978        996        997        980        979        997        998        981        980        998        999        982        981        999       1000        983        982       1000       1001        984        983       1001       1002        985        984       1003       1004        987        986       1004       1005        988        987       1005       1006        989        988       1006       1007        990        989       1007       1008        991        990       1008       1009        992        991       1009       1010        993        992       1010       1011        994        993       1011       1012        995        994       1012       1013        996        995       1013       1014        997        996       1014       1015        998        997       1015       1016        999        998       1016       1017       1000        999       1017       1018       1001       1000       1018       1019       1002       1001       1020       1021       1004       1003       1021       1022       1005       1004       1022       1023       1006       1005       1023       1024       1007       1006       1024       1025       1008       1007       1025       1026       1009       1008       1026       1027       1010       1009       1027       1028       1011       1010       1028       1029       1012       1011       1029       1030       1013       1012       1030       1031       1014       1013       1031       1032       1015       1014       1032       1033       1016       1015       1033       1034       1017       1016       1034       1035       1018       1017       1035       1036       1019       1018       1037       1038       1021       1020       1038       1039       1022       1021       1039       1040       1023       1022       1040       1041       1024       1023       1041       1042       1025       1024       1042       1043       1026       1025       1043       1044       1027       1026       1044       1045       1028       1027       1045       1046       1029       1028       1046       1047       1030       1029       1047       1048       1031       1030       1048       1049       1032       1031       1049       1050       1033       1032       1050       1051       1034       1033       1051       1052       1035       1034       1052       1053       1036       1035       1054       1055       1038       1037       1055       1056       1039       1038       1056       1057       1040       1039       1057       1058       1041       1040       1058       1059       1042       1041       1059       1060       1043       1042       1060       1061       1044       1043       1061       1062       1045       1044       1062       1063       1046       1045       1063       1064       1047       1046       1064       1065       1048       1047       1065       1066       1049       1048       1066       1067       1050       1049       1067       1068       1051       1050       1068       1069       1052       1051       1069       1070       1053       1052       1071       1072       1055       1054       1072       1073       1056       1055       1073       1074       1057       1056       1074       1075       1058       1057       1075       1076       1059       1058       1076       1077       1060       1059       1077       1078       1061       1060       1078       1079       1062       1061       1079       1080       1063       1062       1080       1081       1064       1063       1081       1082       1065       1064       1082       1083       1066       1065       1083       1084       1067       1066       1084       1085       1068       1067       1085       1086       1069       1068       1086       1087       1070       1069       1088       1089       1072       1071       1089       1090       1073       1072       1090       1091       1074       1073       1091       1092       1075       1074       1092       1093       1076       1075       1093       1094       1077       1076       1094       1095       1078       1077       1095       1096       1079       1078       1096       1097       1080       1079       1097       1098       1081       1080       1098       1099       1082       1081       1099       1100       1083       1082       1100       1101       1084       1083       1101       1102       1085       1084       1102       1103       1086       1085       1103       1104       1087       1086       1105       1106       1089       1088       1106       1107       1090       1089       1107       1108       1091       1090       1108       1109       1092       1091       1109       1110       1093       1092       1110       1111       1094       1093       1111       1112       1095       1094       1112       1113       1096       1095       1113       1114       1097       1096       1114       1115       1098       1097       1115       1116       1099       1098       1116       1117       1100       1099       1117       1118       1101       1100       1118       1119       1102       1101       1119       1120       1103       1102       1120       1121       1104       1103       1122       1123       1106       1105       1123       1124       1107       1106       1124       1125       1108       1107       1125       1126       1109       1108       1126       1127       1110       1109       1127       1128       1111       1110       1128       1129       1112       1111       1129       1130       1113       1112       1130       1131       1114       1113       1131       1132       1115       1114       1132       1133       1116       1115       1133       1134       1117       1116       1134       1135       1118       1117       1135       1136       1119       1118       1136       1137       1120       1119       1137       1138       1121       1120        272        273       1123       1122        273        274       1124       1123        274        275       1125       1124        275        276       1126       1125        276        277       1127       1126        277        278       1128       1127        278        279       1129       1128        279        280       1130       1129        280        281       1131       1130        281        282       1132       1131        282        283       1133       1132        283        284       1134       1133        284        285       1135       1134        285        286       1136       1135        286        287       1137       1136        287        288       1138       1137 </DataArray>
<DataArray type="Int32"                                    Name="offsets"                                                      NumberOfComponents=" 1" format="ascii">
         4          8         12         16         20         24         28         32         36         40         44         48         52         56         60         64         68         72         76         80         84         88         92         96        100        104        108        112        116        120        124        128        132        136        140        144        148        152        156        160        164        168        172        176        180        184        188        192        196        200        204        208        212        216        220        224        228        232        236        240        244        248        252        256        260        264        268        272        276        280        284        288        292        296        300        304        308        312        316        320        324        328        332        336        340        344        348        352        356        360        364        368        372        376        380        384        388        392        396        400        404        408        412        416        420        424        428        432        436        440        444        448        452        456        460        464        468        472        476        480        484        488        492        496        500        504        508        512        516        520        524        528        532        536        540        544        548        552        556        560        564        568        572        576        580        584        588        592        596        600        604        608        612        616        620        624        628        632        636        640        644        648        652        656        660        664        668        672        676        680        684        688        692        696        700        704        708        712        716        720        724        728        732        736        740        744        748        752        756        760        764        768        772        776        780        784        788        792        796        800        804        808        812        816        820        824        828        832        836        840        844        848        852        856        860        864        868        872        876        880        884        888        892        896        900        904        908        912        916        920        924        928        932        936        940        944        948        952        956        960        964        968        972        976        980        984        988        992        996       1000       1004       1008       1012       1016       1020       1024       1028       1032       1036       1040       1044       1048       1052       1056       1060       1064       1068       1072       1076       1080       1084       1088       1092       1096       1100       1104       1108       1112       1116       1120       1124       1128       1132       1136       1140       1144       1148       1152       1156       1160       1164       1168       1172       1176       1180       1184       1188       1192       1196       1200       1204       1208       1212       1216       1220       1224       1228       1232       1236       1240       1244       1248       1252       1256       1260       1264       1268       1272       1276       1280       1284       1288       1292       1296       1300       1304       1308       1312       1316       1320       1324       1328       1332       1336       1340       1344       1348       1352       1356       1360       1364       1368       1372       1376       1380       1384       1388       1392       1396       1400       1404       1408       1412       1416       1420       1424       1428       1432       1436       1440       1444       1448       1452       1456       1460       1464       1468       1472       1476       1480       1484       1488       1492       1496       1500       1504       1508       1512       1516       1520       1524       1528       1532       1536       1540       1544       1548       1552       1556       1560       1564       1568       1572       1576       1580       1584       1588       1592       1596       1600       1604       1608       1612       1616       1620       1624       1628       1632       1636       1640       1644       1648       1652       1656       1660       1664       1668       1672       1676       1680       1684       1688       1692       1696       1700       1704       1708       1712       1716       1720       1724       1728       1732       1736       1740       1744       1748       1752       1756       1760       1764       1768       1772       1776       1780       1784       1788       1792       1796       1800       1804       1808       1812       1816       1820       1824       1828       1832       1836       1840       1844       1848       1852       1856       1860       1864       1868       1872       1876       1880       1884       1888       1892       1896       1900       1904       1908       1912       1916       1920       1924       1928       1932       1936       1940       1944       1948       1952       1956       1960       1964       1968       1972       1976       1980       1984       1988       1992       1996       2000       2004       2008       2012       2016       2020       2024       2028       2032       2036       2040       2044       2048       2052       2056       2060       2064       2068       2072       2076       2080       2084       2088       2092       2096       2100       2104       2108       2112       2116       2120       2124       2128       2132       2136       2140       2144       2148       2152       2156       2160       2164       2168       2172       2176       2180       2184       2188       2192       2196       2200       2204       2208       2212       2216       2220       2224       2228       2232       2236       2240       2244       2248       2252       2256       2260       2264       2268       2272       2276       2280       2284       2288       2292       2296       2300       2304       2308       2312       2316       2320       2324       2328       2332       2336       2340       2344       2348       2352       2356       2360       2364       2368       2372       2376       2380       2384       2388       2392       2396       2400       2404       2408       2412       2416       2420       2424       2428       2432       2436       2440       2444       2448       2452       2456       2460       2464       2468       2472       2476       2480       2484       2488       2492       2496       2500       2504       2508       2512       2516       2520       2524       2528       2532       2536       2540       2544       2548       2552       2556       2560       2564       2568       2572       2576       2580       2584       2588       2592       2596       2600       2604       2608       2612       2616       2620       2624       2628       2632       2636       2640       2644       2648       2652       2656       2660       2664       2668       2672       2676       2680       2684       2688       2692       2696       2700       2704       2708       2712       2716       2720       2724       2728       2732       2736       2740       2744       2748       2752       2756       2760       2764       2768       2772       2776       2780       2784       2788       2792       2796       2800       2804       2808       2812       2816       2820       2824       2828       2832       2836       2840       2844       2848       2852       2856       2860       2864       2868       2872       2876       2880       2884       2888       2892       2896       2900       2904       2908       2912       2916       2920       2924       2928       2932       2936       2940       2944       2948       2952       2956       2960       2964       2968       2972       2976       2980       2984       2988       2992       2996       3000       3004       3008       3012       3016       3020       3024       3028       3032       3036       3040       3044       3048       3052       3056       3060       3064       3068       3072       3076       3080       3084       3088       3092       3096       3100       3104       3108       3112       3116       3120       3124       3128       3132       3136       3140       3144       3148       3152       3156       3160       3164       3168       3172       3176       3180       3184       3188       3192       3196       3200       3204       3208       3212       3216       3220       3224       3228       3232       3236       3240       3244       3248       3252       3256       3260       3264       3268       3272       3276       3280       3284       3288       3292       3296       3300       3304       3308       3312       3316       3320       3324       3328       3332       3336       3340       3344       3348       3352       3356       3360       3364       3368       3372       3376       3380       3384       3388       3392       3396       3400       3404       3408       3412       3416       3420       3424       3428       3432       3436       3440       3444       3448       3452       3456       3460       3464       3468       3472       3476       3480       3484       3488       3492       3496       3500       3504       3508       3512       3516       3520       3524       3528       3532       3536       3540       3544       3548       3552       3556       3560       3564       3568       3572       3576       3580       3584       3588       3592       3596       3600       3604       3608       3612       3616       3620       3624       3628       3632       3636       3640       3644       3648       3652       3656       3660       3664       3668       3672       3676       3680       3684       3688       3692       3696       3700       3704       3708       3712       3716       3720       3724       3728       3732       3736       3740       3744       3748       3752       3756       3760       3764       3768       3772       3776       3780       3784       3788       3792       3796       3800       3804       3808       3812       3816       3820       3824       3828       3832       3836       3840       3844       3848       3852       3856       3860       3864       3868       3872       3876       3880       3884       3888       3892       3896       3900       3904       3908       3912       3916       3920       3924       3928       3932       3936       3940       3944       3948       3952       3956       3960       3964       3968       3972       3976       3980       3984       3988       3992       3996       4000       4004       4008       4012       4016       4020       4024       4028       4032       4036       4040       4044       4048       4052       4056       4060       4064       4068       4072       4076       4080       4084       4088       4092       4096 </DataArray>
<DataArray type="UInt8"                                    Name="types"                                                      NumberOfComponents=" 1" format="ascii">
         9          9          9          9          9          9          9          9          9          9          9          9          9          9          9          9          9          9          9          9          9          9          9          9          9          9          9          9          9          9          9          9          9          9          9          9          9          9          9          9          9          9          9          9          9          9          9          9          9          9          9          9          9          9          9          9          9          9          9          9          9          9          9          9          9          9          9          9          9          9          9          9          9          9          9          9          9          9          9          9          9          9          9          9          9          9          9          9          9          9          9          9          9          9          9          9          9          9          9          9          9          9          9          9          9          9          9          9          9          9          9          9          9          9          9          9          9          9          9          9          9          9          9          9          9          9          9          9          9          9          9          9          9          9          9          9          9          9          9          9          9          9          9          9          9          9          9          9          9          9          9          9          9          9          9          9          9          9          9          9          9          9          9          9          9          9          9          9          9          9          9          9          9          9          9          9          9          9          9          9          9          9          9          9          9          9          9          9          9          9          9          9          9          9          9          9          9          9          9          9          9          9          9          9          9          9          9          9          9          9          9          9          9          9          9          9          9          9          9          9          9          9          9          9          9          9          9          9          9          9          9          9          9          9          9          9          9          9          9          9          9          9          9          9          9          9          9          9          9          9          9          9          9          9          9          9          9          9          9          9          9          9          9          9          9          9          9          9          9          9          9          9          9          9          9          9          9          9          9          9          9          9          9          9          9          9          9          9          9          9          9          9          9          9          9          9          9          9          9          9          9          9          9          9          9          9          9          9          9          9          9          9          9          9          9          9          9          9          9          9          9          9          9          9          9          9          9          9          9          9          9          9          9          9          9          9          9          9          9          9          9          9          9          9          9          9          9          9          9          9          9          9          9          9          9          9          9          9          9          9          9          9          9          9          9          9          9          9          9          9          9          9          9          9          9          9          9          9          9          9          9          9          9          9          9          9          9          9          9          9          9          9          9          9          9          9          9          9          9          9          9          9          9          9          9          9          9          9          9          9          9          9          9          9          9          9          9          9          9          9          9          9          9          9          9          9          9          9          9          9          9          9          9          9          9          9          9          9          9          9          9          9          9          9          9          9          9          9          9          9          9          9          9          9          9          9          9          9          9          9          9          9          9          9          9          9          9          9          9          9          9          9          9          9          9          9          9          9          9          9          9          9          9          9          9          9          9          9          9          9          9          9          9          9          9          9          9          9          9          9          9          9          9          9          9          9          9          9          9          9          9          9          9          9          9          9          9          9          9          9          9          9          9          9          9          9          9          9          9          9          9          9          9          9          9          9          9          9          9          9          9          9          9          9          9          9          9          9          9          9          9          9          9          9          9          9          9          9          9          9          9          9          9          9          9          9          9          9          9          9          9          9          9          9          9          9          9          9          9          9          9          9          9          9          9          9          9          9          9          9          9          9          9          9          9          9          9          9          9          9          9          9          9          9          9          9          9          9          9          9          9          9          9          9          9          9          9          9          9          9          9          9          9          9          9          9          9          9          9          9          9          9          9          9          9          9          9          9          9          9          9          9          9          9          9          9          9          9          9          9          9          9          9          9          9          9          9          9          9          9          9          9          9          9          9          9          9          9          9          9          9          9          9          9          9          9          9          9          9          9          9          9          9          9          9          9          9          9          9          9          9          9          9          9          9          9          9          9          9          9          9          9          9          9          9          9          9          9          9          9          9          9          9          9          9          9          9          9          9          9          9          9          9          9          9          9          9          9          9          9          9          9          9          9          9          9          9          9          9          9          9          9          9          9          9          9          9          9          9          9          9          9          9          9          9          9          9          9          9          9          9          9          9          9          9          9          9          9          9          9          9          9          9          9          9          9          9          9          9          9          9          9          9          9          9          9          9          9          9          9          9          9          9          9          9          9          9          9          9          9          9          9          9          9          9          9          9          9          9          9          9          9          9          9          9          9          9          9          9          9          9          9          9          9          9          9          9          9          9          9          9          9          9          9          9          9          9          9          9          9          9          9          9          9          9          9          9          9          9          9          9          9          9          9          9          9          9          9          9          9          9          9          9          9          9          9          9          9          9          9          9          9          9          9          9          9          9          9          9          9          9          9          9          9          9          9          9          9          9          9          9          9          9          9          9          9          9          9          9          9          9          9          9          9          9          9          9          9          9          9          9          9          9          9          9          9          9          9          9          9          9          9          9          9          9          9          9          9          9          9          9          9          9          9          9          9          9          9          9          9          9          9          9          9          9          9          9          9          9          9          9          9          9          9          9          9          9          9          9          9          9          9          9          9          9          9          9          9          9          9          9          9          9          9          9          9          9          9          9          9          9          9          9          9          9          9          9          9          9          9          9          9          9          9          9          9          9          9          9          9          9          9          9          9          9          9          9          9          9          9          9          9          9          9          9          9          9          9          9          9          9          9          9          9 </DataArray>
</Cells>
<CellData>
<DataArray type="Int32"                                    Name="material"                                                      NumberOfComponents=" 1" format="ascii">
         1          1          1          1          1          1          1          1          1          1          1          1          1          1          1          1          1          1          1          1          1          1          1          1          1          1          1          1          1          1          1          1          1          1          1          1          1          1          1          1          1          1          1          1          1          1          1          1          1          1          1          1          1          1          1          1          1          1          1          1          1          1          1          1          1          1          1          1          1          1          1          1          1          1          1          1          1          1          1          1          1          1          1          1          1          1          1          1          1          1          1          1          1          1          1          1          1          1          1          1          1          1          1          1          1          1          1          1          1          1          1          1          1          1          1          1          1          1          1          1          1          1          1          1          1          1          1          1          1          1          1          1          1          1          1          1          1          1          1          1          1          1          1          1          1          1          1          1          1          1          1          1          1          1          1          1          1          1          1          1          1          1          1          1          1          1          1          1          1          1          1          1          1          1          1          1          1          1          1          1          1          1          1          1          1          1          1          1          1          1          1          1          1          1          1          1          1          1          1          1          1          1          1          1          1          1          1          1          1          1          1          1          1          1          1          1          1          1          1          1          1          1          1          1          1          1          1          1          1          1          1          1          1          1          1          1          1          1          1          1          1          1          1          1          1          1          1          1          1          1          1          1          1          1          1          1          1          1          1          1          1          1          1          1          1          1          1          1          1          1          1          1          1          1          1          1          1          1          1          1          1          1          1          1          1          1          1          1          1          1          1          1          1          1          1          1          1          1          1          1          1          1          1          1          1          1          1          1          1          1          1          1          1          1          1          1          1          1          1          1          1          1          1          1          1          1          1          1          1          1          1          1          1          1          1          1          1          1          1          1          1          1          1          1          1          1          1          1          1          1          1          1          1          1          1          1          1          1          1          1          1          1          1          1          1          1          1          1          1          1          1          1          1          1          1          1          1          1          1          1          1          1          1          1          1          1          1          1          1          1          1          1          1          1          1          1          1          1          1          1          1          1          1          1          1          1          1          1          1          1          1          1          1          1          1          1          1          1          1          1          1          1          1          1          1          1          1          1          1          1          1          1          1          1          1          1          1          1          1          1          1          1          1          1          1          1          1          1          1          1          1          1          1          1          1          1          1          1          1          1          1          1          1          1          1          1          1          1          1          1          1          1          1          1          1          1          1          1          1          1          1          1          1          1          1          1          1          1          1          1          1          1          1          1          1          1          1          1          1          1          1          1          1          1          1          1          1          1          1          1          1          1          1          1          1          1          1          1          1          1          1          1          1          1          1          1          1          1          1          1          1          1          1          1          1          1          1          1          1          1          1          1          1          1          1          1          1          1          1          1          1          1          1          1          1          1          1          1          1          1          1          1          1          1          1          1          1          1          1          1          1          1          1          1          1          1          1          1          1          1          1          1          1          1          1          1          1          1          1          1          1          1          1          1          1          1          1          1          1          1          1          1          1          1          1          1          1          1          1          1          1          1          1          1          1          1          1          1          1          1          1          1          1          1          1          1          1          1          1          1          1          1          1          1          1          1          1          1          1          1          1          1          1          1          1          1          1          1          1          1          1          1          1          1          1          1          1          1          1          1          1          1          1          1          1          1          1          1          1          1          1          1          1          1          1          1          1          1          1          1          1          1          1          1          1          1          1          1          1          1          1          1          1          1          1          1          1          1          1          1          1          1          1          1          1          1          1          1          1          1          1          1          1          1          1          1          1          1          1          1          1          1          1          1          1          1          1          1          1          1          1          1          1          1          1          1          1          1          1          1          1          1          1          1          1          1          1          1          1          1          1          1          1          1          1          1          1          1          1          1          1          1          1          1          1          1          1          1          1          1          1          1          1          1          1          1          1          1          1          1          1          1          1          1          1          1          1          1          1          1          1          1          1          1          1          1          1          1          1          1          1          1          1          1          1          1          1          1          1          1          1          1          1          1          1          1          1          1          1          1          1          1          1          1          1          1          1          1          1          1          1          1          1          1          1          1          1          1          1          1          1          1          1          1          1          1          1          1          1          1          1          1          1          1          1          1          1          1          1          1          1          1          1          1          1          1          1          1          1          1          1          1          1          1          1          1          1          1          1          1          1          1          1          1          1          1          1          1          1          1          1          1          1          1          1          1          1          1          1          1          1          1          1          1          1          1          1          1          1          1          1          1          1          1          1          1          1          1          1          1          1          1          1          1          1          1          1          1          1          1          1          1          1          1          1          1          1          1          1          1          1          1          1          1          1          1          1          1          1          1          1          1          1          1          1          1          1          1          1          1          1          1          1          1          1          1          1          1          1          1          1          1          1          1          1          1          1          1          1          1          1          1          1          1          1          1          1          1          1          1          1          1          1          1          1          1          1          1          1          1          1          1          1          1          1          1          1          1          1          1          1          1          1          1          1          1          1          1          1          1          1          1          1          1 </DataArray>
</CellData>
<PointData>
<DataArray type="Float64"                                    Name="u"                                                      NumberOfComponents=" 3" format="ascii">
              0.000009108               0.000000000               0.999999999               0.000002147              -0.000000000               0.999999999              -0.000001032              -0.000000000               0.999999999              -0.000002578              -0.000000000               0.999999999              -0.000003491              -0.000000000               0.999999999              -0.000004258               0.000000000               0.999999999              -0.000005149               0.000000000               0.999999999              -0.000006341               0.000000000               0.999999999              -0.000007963              -0.000000000               0.999999999              -0.000009975              -0.000000000               0.999999999              -0.000012449               0.000000000               0.999999999              -0.000015453               0.000000000               0.999999999              -0.000018932              -0.000000000               0.999999999              -0.000022944              -0.000000000               0.999999999              -0.000027479              -0.000000000               0.999999999              -0.000032440              -0.000000000               0.999999999              -0.000037825              -0.000000000               0.999999999               0.000009033               0.000017379               0.999999999               0.000002285               0.000015657               0.999999999              -0.000000789               0.000015226               0.999999999              -0.000002301               0.000015535               0.999999999              -0.000003256               0.000016371               0.999999999              -0.000004128               0.000017581               0.999999999              -0.000005165               0.000019131               0.999999999              -0.000006533               0.000020910               0.999999999              -0.000008277               0.000022951               0.999999999              -0.000010470               0.000025160               0.999999999              -0.000013141               0.000027669               0.999999999              -0.000016332               0.000030413               0.999999999              -0.000020073               0.000033309               0.999999999              -0.000024309               0.000036281               0.999999999              -0.000028966               0.000039271               0.999999999              -0.000034026               0.000042512               0.999999999              -0.000039545               0.000046000               0.999999999               0.000008781               0.000034586               0.999999999               0.000002723               0.000031157               0.999999999              -0.000000025               0.000030332               0.999999999              -0.000001509               0.000031050               0.999999999              -0.000002641               0.000032785               0.999999999              -0.000003826               0.000035303               0.999999999              -0.000005265               0.000038381               0.999999999              -0.000007082               0.000042008               0.999999999              -0.000009334               0.000045982               0.999999999              -0.000012027               0.000050501               0.999999999              -0.000015258               0.000055427               0.999999999              -0.000019035               0.000060900               0.999999999              -0.000023287               0.000066593               0.999999999              -0.000028004               0.000072381               0.999999999              -0.000033130               0.000078217               0.999999999              -0.000038701               0.000084510               0.999999999              -0.000044690               0.000091291               0.999999999               0.000008419               0.000051484               0.999999999               0.000003460               0.000046330               0.999999999               0.000001155               0.000045284               0.999999999              -0.000000345               0.000046552               0.999999999              -0.000001808               0.000049320               0.999999999              -0.000003540               0.000053153               0.999999999              -0.000005614               0.000057883               0.999999999              -0.000008148               0.000063224               0.999999999              -0.000011144               0.000069298               0.999999999              -0.000014657               0.000075973               0.999999999              -0.000018722               0.000083434               0.999999999              -0.000023303               0.000091455               0.999999999              -0.000028340               0.000099780               0.999999999              -0.000033773               0.000108181               0.999999999              -0.000039583               0.000116764               0.999999999              -0.000045756               0.000125921               0.999999999              -0.000052248               0.000135469               0.999999999               0.000007990               0.000067922               0.999999999               0.000004463               0.000061050               0.999999999               0.000002642               0.000060005               0.999999999               0.000000987               0.000061995               0.999999999              -0.000000978               0.000065925               0.999999999              -0.000003391               0.000071206               0.999999999              -0.000006316               0.000077539               0.999999999              -0.000009751               0.000084768               0.999999999              -0.000013729               0.000092848               0.999999999              -0.000018233               0.000101808               0.999999999              -0.000023282               0.000111680               0.999999999              -0.000028779               0.000122128               0.999999999              -0.000034610               0.000132844               0.999999999              -0.000040791               0.000143684               0.999999999              -0.000047294               0.000154861               0.999999999              -0.000054137               0.000166503               0.999999999              -0.000061301               0.000178443               0.999999999               0.000007471               0.000083674               0.999999999               0.000005686               0.000075248               0.999999999               0.000004226               0.000074389               0.999999999               0.000002280               0.000077295               0.999999999              -0.000000310               0.000082532               0.999999999              -0.000003589               0.000089351               0.999999999              -0.000007445               0.000097416               0.999999999              -0.000011852               0.000106516               0.999999999              -0.000016837               0.000116684               0.999999999              -0.000022385               0.000127953               0.999999999              -0.000028401               0.000140197               0.999999999              -0.000034774               0.000152947               0.999999999              -0.000041382               0.000165958               0.999999999              -0.000048248               0.000179112               0.999999999              -0.000055467               0.000192913               0.999999999              -0.000063072               0.000207225               0.999999999              -0.000071043               0.000221840               0.999999999               0.000006885               0.000098545               0.999999999               0.000006992               0.000088851               0.999999999               0.000005727               0.000088378               0.999999999               0.000003327               0.000092346               0.999999999              -0.000000049               0.000098955               0.999999999              -0.000004182               0.000107418               0.999999999              -0.000008932               0.000117268               0.999999999              -0.000014278               0.000128422               0.999999999              -0.000020281               0.000140880               0.999999999              -0.000026825               0.000154547               0.999999999              -0.000033751               0.000169089               0.999999999              -0.000040957               0.000184054               0.999999999              -0.000048356               0.000199264               0.999999999              -0.000056041               0.000215016               0.999999999              -0.000064145               0.000231645               0.999999999              -0.000072666               0.000248889               0.999999999              -0.000081655               0.000266626               0.999999999               0.000006274               0.000112411               0.999999999               0.000008234               0.000101793               0.999999999               0.000006977               0.000101857               0.999999999               0.000003951               0.000106934               0.999999999              -0.000000198               0.000114988               0.999999999              -0.000005159               0.000125182               0.999999999              -0.000010771               0.000137043               0.999999999              -0.000017019               0.000150438               0.999999999              -0.000023882               0.000165255               0.999999999              -0.000031286               0.000181392               0.999999999              -0.000039058               0.000198279               0.999999999              -0.000046982               0.000215607               0.999999999              -0.000055133               0.000233564               0.999999999              -0.000063696               0.000252469               0.999999999              -0.000072722               0.000272423               0.999999999              -0.000082211               0.000293131               0.999999999              -0.000092187               0.000314332               0.999999999               0.000005520               0.000125004               0.999999999               0.000009357               0.000114045               0.999999999               0.000007835               0.000114688               0.999999999               0.000004107               0.000120868               0.999999999              -0.000000820               0.000130471               0.999999999              -0.000006517               0.000142533               0.999999999              -0.000012859               0.000156526               0.999999999              -0.000019876               0.000172331               0.999999999              -0.000027567               0.000189711               0.999999999              -0.000035798               0.000208377               0.999999999              -0.000044169               0.000227873               0.999999999              -0.000052588               0.000248263               0.999999999              -0.000061419               0.000269703               0.999999999              -0.000070759               0.000292410               0.999999999              -0.000080565               0.000316383               0.999999999              -0.000090736               0.000341231               0.999999999              -0.000101211               0.000366725               0.999999999               0.000004509               0.000136745               0.999999999               0.000009895               0.000126608               0.999999999               0.000009100               0.000126113               0.999999999               0.000005916               0.000130972               0.999999999               0.000001488               0.000139195               0.999999999              -0.000003517               0.000149822               0.999999999              -0.000009029               0.000162344               0.999999999              -0.000015036               0.000176577               0.999999999              -0.000021717               0.000192311               0.999999999              -0.000028886               0.000209377               0.999999999              -0.000036253               0.000227535               0.999999999              -0.000043597               0.000246563               0.999999999              -0.000050965               0.000266563               0.999999999              -0.000058536               0.000287730               0.999999999              -0.000066568               0.000310184               0.999999999              -0.000075082               0.000333810               0.999999999              -0.000084023               0.000358407               0.999999999               0.000003612               0.000147371               0.999999999               0.000009861               0.000138546               0.999999999               0.000009832               0.000137527               0.999999999               0.000007265               0.000141312               0.999999999               0.000003469               0.000148338               0.999999999              -0.000000898               0.000157608               0.999999999              -0.000005568               0.000168801               0.999999999              -0.000010653               0.000181614               0.999999999              -0.000016259               0.000195840               0.999999999              -0.000022399               0.000211414               0.999999999              -0.000028665               0.000228125               0.999999999              -0.000034957               0.000245823               0.999999999              -0.000041067               0.000264481               0.999999999              -0.000047262               0.000284145               0.999999999              -0.000053740               0.000304974               0.999999999              -0.000060695               0.000327009               0.999999999              -0.000068103               0.000350235               0.999999999               0.000002774               0.000156650               0.999999999               0.000009265               0.000149567               0.999999999               0.000009892               0.000148514               0.999999999               0.000008006               0.000151613               0.999999999               0.000004861               0.000157619               0.999999999               0.000001257               0.000165817               0.999999999              -0.000002645               0.000175812               0.999999999              -0.000006800               0.000187407               0.999999999              -0.000011372               0.000200383               0.999999999              -0.000016303               0.000214580               0.999999999              -0.000021493               0.000229923               0.999999999              -0.000026743               0.000246282               0.999999999              -0.000031885               0.000263619               0.999999999              -0.000036932               0.000282015               0.999999999              -0.000042109               0.000301452               0.999999999              -0.000047554               0.000321972               0.999999999              -0.000053157               0.000343657               0.999999999               0.000002034               0.000164441               0.999999999               0.000008164               0.000159351               0.999999999               0.000009203               0.000158615               0.999999999               0.000007958               0.000161342               0.999999999               0.000005556               0.000166670               0.999999999               0.000002675               0.000174021               0.999999999              -0.000000387               0.000183110               0.999999999              -0.000003671               0.000193674               0.999999999              -0.000007230               0.000205622               0.999999999              -0.000011012               0.000218682               0.999999999              -0.000015083               0.000232759               0.999999999              -0.000019362               0.000247868               0.999999999              -0.000023492               0.000264014               0.999999999              -0.000027517               0.000281289               0.999999999              -0.000031594               0.000299665               0.999999999              -0.000035591               0.000319186               0.999999999              -0.000039321               0.000339737               0.999999999               0.000001394               0.000170576               0.999999999               0.000006575               0.000167460               0.999999999               0.000007759               0.000167303               0.999999999               0.000007043               0.000169925               0.999999999               0.000005349               0.000174844               0.999999999               0.000003210               0.000181639               0.999999999               0.000000961               0.000190044               0.999999999              -0.000001453               0.000199856               0.999999999              -0.000004042               0.000210917               0.999999999              -0.000006900               0.000223035               0.999999999              -0.000009889               0.000236193               0.999999999              -0.000012956               0.000250376               0.999999999              -0.000016098               0.000265670               0.999999999              -0.000019150               0.000282101               0.999999999              -0.000022089               0.000299683               0.999999999              -0.000024786               0.000318437               0.999999999              -0.000026965               0.000338202               0.999999999               0.000000867               0.000175020               0.999999999               0.000004612               0.000173573               0.999999999               0.000005615               0.000174018               0.999999999               0.000005287               0.000176697               0.999999999               0.000004203               0.000181436               0.999999999               0.000002843               0.000187891               0.999999999               0.000001340               0.000195876               0.999999999              -0.000000231               0.000205174               0.999999999              -0.000001987               0.000215579               0.999999999              -0.000003852               0.000227070               0.999999999              -0.000005768               0.000239657               0.999999999              -0.000007653               0.000253301               0.999999999              -0.000009787               0.000268092               0.999999999              -0.000011936               0.000284028               0.999999999              -0.000013825               0.000301127               0.999999999              -0.000015299               0.000319353               0.999999999              -0.000016273               0.000338581               0.999999999               0.000000426               0.000177747               0.999999999               0.000002383               0.000177371               0.999999999               0.000002929               0.000178274               0.999999999               0.000002845               0.000181059               0.999999999               0.000002316               0.000185726               0.999999999               0.000001659               0.000192029               0.999999999               0.000000905               0.000199791               0.999999999               0.000000123               0.000208787               0.999999999              -0.000000767               0.000218853               0.999999999              -0.000001665               0.000230030               0.999999999              -0.000002522               0.000242303               0.999999999              -0.000003543               0.000255675               0.999999999              -0.000004568               0.000270235               0.999999999              -0.000005665               0.000286025               0.999999999              -0.000006662               0.000302943               0.999999999              -0.000007204               0.000320827               0.999999999              -0.000007317               0.000339712               0.999999999               0.000000000               0.000178670               0.999999999              -0.000000000               0.000178632               0.999999999              -0.000000000               0.000179711               0.999999999              -0.000000000               0.000182587               0.999999999              -0.000000000               0.000187211               0.999999999              -0.000000000               0.000193481               0.999999999               0.000000000               0.000201181               0.999999999               0.000000000               0.000210062               0.999999999               0.000000000               0.000220068               0.999999999               0.000000000               0.000231103               0.999999999               0.000000000               0.000243194               0.999999999               0.000000000               0.000256594               0.999999999               0.000000000               0.000271188               0.999999999              -0.000000000               0.000286903               0.999999999              -0.000000000               0.000303724               0.999999999              -0.000000000               0.000321511               0.999999999               0.000000000               0.000340293               0.999999999               0.000009108               0.000000000               0.999999999               0.000002147              -0.000000000               0.999999999              -0.000001032              -0.000000000               0.999999999              -0.000002578              -0.000000000               0.999999999              -0.000003491              -0.000000000               0.999999999              -0.000004258               0.000000000               0.999999999              -0.000005149               0.000000000               0.999999999              -0.000006341               0.000000000               0.999999999              -0.000007963              -0.000000000               0.999999999              -0.000009975              -0.000000000               0.999999999              -0.000012449               0.000000000               0.999999999              -0.000015453               0.000000000               0.999999999              -0.000018932              -0.000000000               0.999999999              -0.000022944              -0.000000000               0.999999999              -0.000027479              -0.000000000               0.999999999              -0.000032440              -0.000000000               0.999999999              -0.000037825              -0.000000000               0.999999999               0.000009033              -0.000017379               0.999999999               0.000002285              -0.000015657               0.999999999              -0.000000789              -0.000015226               0.999999999              -0.000002301              -0.000015535               0.999999999              -0.000003256              -0.000016371               0.999999999              -0.000004128              -0.000017581               0.999999999              -0.000005165              -0.000019131               0.999999999              -0.000006533              -0.000020910               0.999999999              -0.000008277              -0.000022951               0.999999999              -0.000010470              -0.000025160               0.999999999              -0.000013141              -0.000027669               0.999999999              -0.000016332              -0.000030413               0.999999999              -0.000020073              -0.000033309               0.999999999              -0.000024309              -0.000036281               0.999999999              -0.000028966              -0.000039271               0.999999999              -0.000034026              -0.000042512               0.999999999              -0.000039545              -0.000046000               0.999999999               0.000008781              -0.000034586               0.999999999               0.000002723              -0.000031157               0.999999999              -0.000000025              -0.000030332               0.999999999              -0.000001509              -0.000031050               0.999999999              -0.000002641              -0.000032785               0.999999999              -0.000003826              -0.000035303               0.999999999              -0.000005265              -0.000038381               0.999999999              -0.000007082              -0.000042008               0.999999999              -0.000009334              -0.000045982               0.999999999              -0.000012027              -0.000050501               0.999999999              -0.000015258              -0.000055427               0.999999999              -0.000019035              -0.000060900               0.999999999              -0.000023287              -0.000066593               0.999999999              -0.000028004              -0.000072381               0.999999999              -0.000033130              -0.000078217               0.999999999              -0.000038701              -0.000084510               0.999999999              -0.000044690              -0.000091291               0.999999999               0.000008419              -0.000051484               0.999999999               0.000003460              -0.000046330               0.999999999               0.000001155              -0.000045284               0.999999999              -0.000000345              -0.000046552               0.999999999              -0.000001808              -0.000049320               0.999999999              -0.000003540              -0.000053153               0.999999999              -0.000005614              -0.000057883               0.999999999              -0.000008148              -0.000063224               0.999999999              -0.000011144              -0.000069298               0.999999999              -0.000014657              -0.000075973               0.999999999              -0.000018722              -0.000083434               0.999999999              -0.000023303              -0.000091455               0.999999999              -0.000028340              -0.000099780               0.999999999              -0.000033773              -0.000108181               0.999999999              -0.000039583              -0.000116764               0.999999999              -0.000045756              -0.000125921               0.999999999              -0.000052248              -0.000135469               0.999999999               0.000007990              -0.000067922               0.999999999               0.000004463              -0.000061050               0.999999999               0.000002642              -0.000060005               0.999999999               0.000000987              -0.000061995               0.999999999              -0.000000978              -0.000065925               0.999999999              -0.000003391              -0.000071206               0.999999999              -0.000006316              -0.000077539               0.999999999              -0.000009751              -0.000084768               0.999999999              -0.000013729              -0.000092848               0.999999999              -0.000018233              -0.000101808               0.999999999              -0.000023282              -0.000111680               0.999999999              -0.000028779              -0.000122128               0.999999999              -0.000034610              -0.000132844               0.999999999              -0.000040791              -0.000143684               0.999999999              -0.000047294              -0.000154861               0.999999999              -0.000054137              -0.000166503               0.999999999              -0.000061301              -0.000178443               0.999999999               0.000007471              -0.000083674               0.999999999               0.000005686              -0.000075248               0.999999999               0.000004226              -0.000074389               0.999999999               0.000002280              -0.000077295               0.999999999              -0.000000310              -0.000082532               0.999999999              -0.000003589              -0.000089351               0.999999999              -0.000007445              -0.000097416               0.999999999              -0.000011852              -0.000106516               0.999999999              -0.000016837              -0.000116684               0.999999999              -0.000022385              -0.000127953               0.999999999              -0.000028401              -0.000140197               0.999999999              -0.000034774              -0.000152947               0.999999999              -0.000041382              -0.000165958               0.999999999              -0.000048248              -0.000179112               0.999999999              -0.000055467              -0.000192913               0.999999999              -0.000063072              -0.000207225               0.999999999              -0.000071043              -0.000221840               0.999999999               0.000006885              -0.000098545               0.999999999               0.000006992              -0.000088851               0.999999999               0.000005727              -0.000088378               0.999999999               0.000003327              -0.000092346               0.999999999              -0.000000049              -0.000098955               0.999999999              -0.000004182              -0.000107418               0.999999999              -0.000008932              -0.000117268               0.999999999              -0.000014278              -0.000128422               0.999999999              -0.000020281              -0.000140880               0.999999999              -0.000026825              -0.000154547               0.999999999              -0.000033751              -0.000169089               0.999999999              -0.000040957              -0.000184054               0.999999999              -0.000048356              -0.000199264               0.999999999              -0.000056041              -0.000215016               0.999999999              -0.000064145              -0.000231645               0.999999999              -0.000072666              -0.000248889               0.999999999              -0.000081655              -0.000266626               0.999999999               0.000006274              -0.000112411               0.999999999               0.000008234              -0.000101793               0.999999999               0.000006977              -0.000101857               0.999999999               0.000003951              -0.000106934               0.999999999              -0.000000198              -0.000114988               0.999999999              -0.000005159              -0.000125182               0.999999999              -0.000010771              -0.000137043               0.999999999              -0.000017019              -0.000150438               0.999999999              -0.000023882              -0.000165255               0.999999999              -0.000031286              -0.000181392               0.999999999              -0.000039058              -0.000198279               0.999999999              -0.000046982              -0.000215607               0.999999999              -0.000055133              -0.000233564               0.999999999              -0.000063696              -0.000252469               0.999999999              -0.000072722              -0.000272423               0.999999999              -0.000082211              -0.000293131               0.999999999              -0.000092187              -0.000314332               0.999999999               0.000005520              -0.000125004               0.999999999               0.000009357              -0.000114045               0.999999999               0.000007835              -0.000114688               0.999999999               0.000004107              -0.000120868               0.999999999              -0.000000820              -0.000130471               0.999999999              -0.000006517              -0.000142533               0.999999999              -0.000012859              -0.000156526               0.999999999              -0.000019876              -0.000172331               0.999999999              -0.000027567              -0.000189711               0.999999999              -0.000035798              -0.000208377               0.999999999              -0.000044169              -0.000227873               0.999999999              -0.000052588              -0.000248263               0.999999999              -0.000061419              -0.000269703               0.999999999              -0.000070759              -0.000292410               0.999999999              -0.000080565              -0.000316383               0.999999999              -0.000090736              -0.000341231               0.999999999              -0.000101211              -0.000366725               0.999999999               0.000004509              -0.000136745               0.999999999               0.000009895              -0.000126608               0.999999999               0.000009100              -0.000126113               0.999999999               0.000005916              -0.000130972               0.999999999               0.000001488              -0.000139195               0.999999999              -0.000003517              -0.000149822               0.999999999              -0.000009029              -0.000162344               0.999999999              -0.000015036              -0.000176577               0.999999999              -0.000021717              -0.000192311               0.999999999              -0.000028886              -0.000209377               0.999999999              -0.000036253              -0.000227535               0.999999999              -0.000043597              -0.000246563               0.999999999              -0.000050965              -0.000266563               0.999999999              -0.000058536              -0.000287730               0.999999999              -0.000066568              -0.000310184               0.999999999              -0.000075082              -0.000333810               0.999999999              -0.000084023              -0.000358407               0.999999999               0.000003612              -0.000147371               0.999999999               0.000009861              -0.000138546               0.999999999               0.000009832              -0.000137527               0.999999999               0.000007265              -0.000141312               0.999999999               0.000003469              -0.000148338               0.999999999              -0.000000898              -0.000157608               0.999999999              -0.000005568              -0.000168801               0.999999999              -0.000010653              -0.000181614               0.999999999              -0.000016259              -0.000195840               0.999999999              -0.000022399              -0.000211414               0.999999999              -0.000028665              -0.000228125               0.999999999              -0.000034957              -0.000245823               0.999999999              -0.000041067              -0.000264481               0.999999999              -0.000047262              -0.000284145               0.999999999              -0.000053740              -0.000304974               0.999999999              -0.000060695              -0.000327009               0.999999999              -0.000068103              -0.000350235               0.999999999               0.000002774              -0.000156650               0.999999999               0.000009265              -0.000149567               0.999999999               0.000009892              -0.000148514               0.999999999               0.000008006              -0.000151613               0.999999999               0.000004861              -0.000157619               0.999999999               0.000001257              -0.000165817               0.999999999              -0.000002645              -0.000175812               0.999999999              -0.000006800              -0.000187407               0.999999999              -0.000011372              -0.000200383               0.999999999              -0.000016303              -0.000214580               0.999999999              -0.000021493              -0.000229923               0.999999999              -0.000026743              -0.000246282               0.999999999              -0.000031885              -0.000263619               0.999999999              -0.000036932              -0.000282015               0.999999999              -0.000042109              -0.000301452               0.999999999              -0.000047554              -0.000321972               0.999999999              -0.000053157              -0.000343657               0.999999999               0.000002034              -0.000164441               0.999999999               0.000008164              -0.000159351               0.999999999               0.000009203              -0.000158615               0.999999999               0.000007958              -0.000161342               0.999999999               0.000005556              -0.000166670               0.999999999               0.000002675              -0.000174021               0.999999999              -0.000000387              -0.000183110               0.999999999              -0.000003671              -0.000193674               0.999999999              -0.000007230              -0.000205622               0.999999999              -0.000011012              -0.000218682               0.999999999              -0.000015083              -0.000232759               0.999999999              -0.000019362              -0.000247868               0.999999999              -0.000023492              -0.000264014               0.999999999              -0.000027517              -0.000281289               0.999999999              -0.000031594              -0.000299665               0.999999999              -0.000035591              -0.000319186               0.999999999              -0.000039321              -0.000339737               0.999999999               0.000001394              -0.000170576               0.999999999               0.000006575              -0.000167460               0.999999999               0.000007759              -0.000167303               0.999999999               0.000007043              -0.000169925               0.999999999               0.000005349              -0.000174844               0.999999999               0.000003210              -0.000181639               0.999999999               0.000000961              -0.000190044               0.999999999              -0.000001453              -0.000199856               0.999999999              -0.000004042              -0.000210917               0.999999999              -0.000006900              -0.000223035               0.999999999              -0.000009889              -0.000236193               0.999999999              -0.000012956              -0.000250376               0.999999999              -0.000016098              -0.000265670               0.999999999              -0.000019150              -0.000282101               0.999999999              -0.000022089              -0.000299683               0.999999999              -0.000024786              -0.000318437               0.999999999              -0.000026965              -0.000338202               0.999999999               0.000000867              -0.000175020               0.999999999               0.000004612              -0.000173573               0.999999999               0.000005615              -0.000174018               0.999999999               0.000005287              -0.000176697               0.999999999               0.000004203              -0.000181436               0.999999999               0.000002843              -0.000187891               0.999999999               0.000001340              -0.000195876               0.999999999              -0.000000231              -0.000205174               0.999999999              -0.000001987              -0.000215579               0.999999999              -0.000003852              -0.000227070               0.999999999              -0.000005768              -0.000239657               0.999999999              -0.000007653              -0.000253301               0.999999999              -0.000009787              -0.000268092               0.999999999              -0.000011936              -0.000284028               0.999999999              -0.000013825              -0.000301127               0.999999999              -0.000015299              -0.000319353               0.999999999              -0.000016273              -0.000338581               0.999999999               0.000000426              -0.000177747               0.999999999               0.000002383              -0.000177371               0.999999999               0.000002929              -0.000178274               0.999999999               0.000002845              -0.000181059               0.999999999               0.000002316              -0.000185726               0.999999999               0.000001659              -0.000192029               0.999999999               0.000000905              -0.000199791               0.999999999               0.000000123              -0.000208787               0.999999999              -0.000000767              -0.000218853               0.999999999              -0.000001665              -0.000230030               0.999999999              -0.000002522              -0.000242303               0.999999999              -0.000003543              -0.000255675               0.999999999              -0.000004568              -0.000270235               0.999999999              -0.000005665              -0.000286025               0.999999999              -0.000006662              -0.000302943               0.999999999              -0.000007204              -0.000320827               0.999999999              -0.000007317              -0.000339712               0.999999999              -0.000000000              -0.000178670               0.999999999               0.000000000              -0.000178632               0.999999999              -0.000000000              -0.000179711               0.999999999              -0.000000000              -0.000182587               0.999999999              -0.000000000              -0.000187211               0.999999999              -0.000000000              -0.000193481               0.999999999              -0.000000000              -0.000201181               0.999999999              -0.000000000              -0.000210062               0.999999999              -0.000000000              -0.000220068               0.999999999               0.000000000              -0.000231103               0.999999999               0.000000000              -0.000243194               0.999999999               0.000000000              -0.000256594               0.999999999               0.000000000              -0.000271188               0.999999999               0.000000000              -0.000286903               0.999999999              -0.000000000              -0.000303724               0.999999999               0.000000000              -0.000321511               0.999999999               0.000000000              -0.000340293               0.999999999              -0.000009108              -0.000000000               0.999999999              -0.000002147               0.000000000               0.999999999               0.000001032               0.000000000               0.999999999               0.000002578               0.000000000               0.999999999               0.000003491               0.000000000               0.999999999               0.000004258               0.000000000               0.999999999               0.000005149               0.000000000               0.999999999               0.000006341               0.000000000               0.999999999               0.000007963               0.000000000               0.999999999               0.000009975               0.000000000               0.999999999               0.000012449               0.000000000               0.999999999               0.000015453               0.000000000               0.999999999               0.000018932               0.000000000               0.999999999               0.000022944               0.000000000               0.999999999               0.000027479               0.000000000               0.999999999               0.000032440              -0.000000000               0.999999999               0.000037825              -0.000000000               0.999999999              -0.000009033              -0.000017379               0.999999999              -0.000002285              -0.000015657               0.999999999               0.000000789              -0.000015226               0.999999999               0.000002301              -0.000015535               0.999999999               0.000003256              -0.000016371               0.999999999               0.000004128              -0.000017581               0.999999999               0.000005165              -0.000019131               0.999999999               0.000006533              -0.000020910               0.999999999               0.000008277              -0.000022951               0.999999999               0.000010470              -0.000025160               0.999999999               0.000013141              -0.000027669               0.999999999               0.000016332              -0.000030413               0.999999999               0.000020073              -0.000033309               0.999999999               0.000024309              -0.000036281               0.999999999               0.000028966              -0.000039271               0.999999999               0.000034026              -0.000042512               0.999999999               0.000039545              -0.000046000               0.999999999              -0.000008781              -0.000034586               0.999999999              -0.000002723              -0.000031157               0.999999999               0.000000025              -0.000030332               0.999999999               0.000001509              -0.000031050               0.999999999               0.000002641              -0.000032785               0.999999999               0.000003826              -0.000035303               0.999999999               0.000005265              -0.000038381               0.999999999               0.000007082              -0.000042008               0.999999999               0.000009334              -0.000045982               0.999999999               0.000012027              -0.000050501               0.999999999               0.000015258              -0.000055427               0.999999999               0.000019035              -0.000060900               0.999999999               0.000023287              -0.000066593               0.999999999               0.000028004              -0.000072381               0.999999999               0.000033130              -0.000078217               0.999999999               0.000038701              -0.000084510               0.999999999               0.000044690              -0.000091291               0.999999999              -0.000008419              -0.000051484               0.999999999              -0.000003460              -0.000046330               0.999999999              -0.000001155              -0.000045284               0.999999999               0.000000345              -0.000046552               0.999999999               0.000001808              -0.000049320               0.999999999               0.000003540              -0.000053153               0.999999999               0.000005614              -0.000057883               0.999999999               0.000008148              -0.000063224               0.999999999               0.000011144              -0.000069298               0.999999999               0.000014657              -0.000075973               0.999999999               0.000018722              -0.000083434               0.999999999               0.000023303              -0.000091455               0.999999999               0.000028340              -0.000099780               0.999999999               0.000033773              -0.000108181               0.999999999               0.000039583              -0.000116764               0.999999999               0.000045756              -0.000125921               0.999999999               0.000052248              -0.000135469               0.999999999              -0.000007990              -0.000067922               0.999999999              -0.000004463              -0.000061050               0.999999999              -0.000002642              -0.000060005               0.999999999              -0.000000987              -0.000061995               0.999999999               0.000000978              -0.000065925               0.999999999               0.000003391              -0.000071206               0.999999999               0.000006316              -0.000077539               0.999999999               0.000009751              -0.000084768               0.999999999               0.000013729              -0.000092848               0.999999999               0.000018233              -0.000101808               0.999999999               0.000023282              -0.000111680               0.999999999               0.000028779              -0.000122128               0.999999999               0.000034610              -0.000132844               0.999999999               0.000040791              -0.000143684               0.999999999               0.000047294              -0.000154861               0.999999999               0.000054137              -0.000166503               0.999999999               0.000061301              -0.000178443               0.999999999              -0.000007471              -0.000083674               0.999999999              -0.000005686              -0.000075248               0.999999999              -0.000004226              -0.000074389               0.999999999              -0.000002280              -0.000077295               0.999999999               0.000000310              -0.000082532               0.999999999               0.000003589              -0.000089351               0.999999999               0.000007445              -0.000097416               0.999999999               0.000011852              -0.000106516               0.999999999               0.000016837              -0.000116684               0.999999999               0.000022385              -0.000127953               0.999999999               0.000028401              -0.000140197               0.999999999               0.000034774              -0.000152947               0.999999999               0.000041382              -0.000165958               0.999999999               0.000048248              -0.000179112               0.999999999               0.000055467              -0.000192913               0.999999999               0.000063072              -0.000207225               0.999999999               0.000071043              -0.000221840               0.999999999              -0.000006885              -0.000098545               0.999999999              -0.000006992              -0.000088851               0.999999999              -0.000005727              -0.000088378               0.999999999              -0.000003327              -0.000092346               0.999999999               0.000000049              -0.000098955               0.999999999               0.000004182              -0.000107418               0.999999999               0.000008932              -0.000117268               0.999999999               0.000014278              -0.000128422               0.999999999               0.000020281              -0.000140880               0.999999999               0.000026825              -0.000154547               0.999999999               0.000033751              -0.000169089               0.999999999               0.000040957              -0.000184054               0.999999999               0.000048356              -0.000199264               0.999999999               0.000056041              -0.000215016               0.999999999               0.000064145              -0.000231645               0.999999999               0.000072666              -0.000248889               0.999999999               0.000081655              -0.000266626               0.999999999              -0.000006274              -0.000112411               0.999999999              -0.000008234              -0.000101793               0.999999999              -0.000006977              -0.000101857               0.999999999              -0.000003951              -0.000106934               0.999999999               0.000000198              -0.000114988               0.999999999               0.000005159              -0.000125182               0.999999999               0.000010771              -0.000137043               0.999999999               0.000017019              -0.000150438               0.999999999               0.000023882              -0.000165255               0.999999999               0.000031286              -0.000181392               0.999999999               0.000039058              -0.000198279               0.999999999               0.000046982              -0.000215607               0.999999999               0.000055133              -0.000233564               0.999999999               0.000063696              -0.000252469               0.999999999               0.000072722              -0.000272423               0.999999999               0.000082211              -0.000293131               0.999999999               0.000092187              -0.000314332               0.999999999              -0.000005520              -0.000125004               0.999999999              -0.000009357              -0.000114045               0.999999999              -0.000007835              -0.000114688               0.999999999              -0.000004107              -0.000120868               0.999999999               0.000000820              -0.000130471               0.999999999               0.000006517              -0.000142533               0.999999999               0.000012859              -0.000156526               0.999999999               0.000019876              -0.000172331               0.999999999               0.000027567              -0.000189711               0.999999999               0.000035798              -0.000208377               0.999999999               0.000044169              -0.000227873               0.999999999               0.000052588              -0.000248263               0.999999999               0.000061419              -0.000269703               0.999999999               0.000070759              -0.000292410               0.999999999               0.000080565              -0.000316383               0.999999999               0.000090736              -0.000341231               0.999999999               0.000101211              -0.000366725               0.999999999              -0.000004509              -0.000136745               0.999999999              -0.000009895              -0.000126608               0.999999999              -0.000009100              -0.000126113               0.999999999              -0.000005916              -0.000130972               0.999999999              -0.000001488              -0.000139195               0.999999999               0.000003517              -0.000149822               0.999999999               0.000009029              -0.000162344               0.999999999               0.000015036              -0.000176577               0.999999999               0.000021717              -0.000192311               0.999999999               0.000028886              -0.000209377               0.999999999               0.000036253              -0.000227535               0.999999999               0.000043597              -0.000246563               0.999999999               0.000050965              -0.000266563               0.999999999               0.000058536              -0.000287730               0.999999999               0.000066568              -0.000310184               0.999999999               0.000075082              -0.000333810               0.999999999               0.000084023              -0.000358407               0.999999999              -0.000003612              -0.000147371               0.999999999              -0.000009861              -0.000138546               0.999999999              -0.000009832              -0.000137527               0.999999999              -0.000007265              -0.000141312               0.999999999              -0.000003469              -0.000148338               0.999999999               0.000000898              -0.000157608               0.999999999               0.000005568              -0.000168801               0.999999999               0.000010653              -0.000181614               0.999999999               0.000016259              -0.000195840               0.999999999               0.000022399              -0.000211414               0.999999999               0.000028665              -0.000228125               0.999999999               0.000034957              -0.000245823               0.999999999               0.000041067              -0.000264481               0.999999999               0.000047262              -0.000284145               0.999999999               0.000053740              -0.000304974               0.999999999               0.000060695              -0.000327009               0.999999999               0.000068103              -0.000350235               0.999999999              -0.000002774              -0.000156650               0.999999999              -0.000009265              -0.000149567               0.999999999              -0.000009892              -0.000148514               0.999999999              -0.000008006              -0.000151613               0.999999999              -0.000004861              -0.000157619               0.999999999              -0.000001257              -0.000165817               0.999999999               0.000002645              -0.000175812               0.999999999               0.000006800              -0.000187407               0.999999999               0.000011372              -0.000200383               0.999999999               0.000016303              -0.000214580               0.999999999               0.000021493              -0.000229923               0.999999999               0.000026743              -0.000246282               0.999999999               0.000031885              -0.000263619               0.999999999               0.000036932              -0.000282015               0.999999999               0.000042109              -0.000301452               0.999999999               0.000047554              -0.000321972               0.999999999               0.000053157              -0.000343657               0.999999999              -0.000002034              -0.000164441               0.999999999              -0.000008164              -0.000159351               0.999999999              -0.000009203              -0.000158615               0.999999999              -0.000007958              -0.000161342               0.999999999              -0.000005556              -0.000166670               0.999999999              -0.000002675              -0.000174021               0.999999999               0.000000387              -0.000183110               0.999999999               0.000003671              -0.000193674               0.999999999               0.000007230              -0.000205622               0.999999999               0.000011012              -0.000218682               0.999999999               0.000015083              -0.000232759               0.999999999               0.000019362              -0.000247868               0.999999999               0.000023492              -0.000264014               0.999999999               0.000027517              -0.000281289               0.999999999               0.000031594              -0.000299665               0.999999999               0.000035591              -0.000319186               0.999999999               0.000039321              -0.000339737               0.999999999              -0.000001394              -0.000170576               0.999999999              -0.000006575              -0.000167460               0.999999999              -0.000007759              -0.000167303               0.999999999              -0.000007043              -0.000169925               0.999999999              -0.000005349              -0.000174844               0.999999999              -0.000003210              -0.000181639               0.999999999              -0.000000961              -0.000190044               0.999999999               0.000001453              -0.000199856               0.999999999               0.000004042              -0.000210917               0.999999999               0.000006900              -0.000223035               0.999999999               0.000009889              -0.000236193               0.999999999               0.000012956              -0.000250376               0.999999999               0.000016098              -0.000265670               0.999999999               0.000019150              -0.000282101               0.999999999               0.000022089              -0.000299683               0.999999999               0.000024786              -0.000318437               0.999999999               0.000026965              -0.000338202               0.999999999              -0.000000867              -0.000175020               0.999999999              -0.000004612              -0.000173573               0.999999999              -0.000005615              -0.000174018               0.999999999              -0.000005287              -0.000176697               0.999999999              -0.000004203              -0.000181436               0.999999999              -0.000002843              -0.000187891               0.999999999              -0.000001340              -0.000195876               0.999999999               0.000000231              -0.000205174               0.999999999               0.000001987              -0.000215579               0.999999999               0.000003852              -0.000227070               0.999999999               0.000005768              -0.000239657               0.999999999               0.000007653              -0.000253301               0.999999999               0.000009787              -0.000268092               0.999999999               0.000011936              -0.000284028               0.999999999               0.000013825              -0.000301127               0.999999999               0.000015299              -0.000319353               0.999999999               0.000016273              -0.000338581               0.999999999              -0.000000426              -0.000177747               0.999999999              -0.000002383              -0.000177371               0.999999999              -0.000002929              -0.000178274               0.999999999              -0.000002845              -0.000181059               0.999999999              -0.000002316              -0.000185726               0.999999999              -0.000001659              -0.000192029               0.999999999              -0.000000905              -0.000199791               0.999999999              -0.000000123              -0.000208787               0.999999999               0.000000767              -0.000218853               0.999999999               0.000001665              -0.000230030               0.999999999               0.000002522              -0.000242303               0.999999999               0.000003543              -0.000255675               0.999999999               0.000004568              -0.000270235               0.999999999               0.000005665              -0.000286025               0.999999999               0.000006662              -0.000302943               0.999999999               0.000007204              -0.000320827               0.999999999               0.000007317              -0.000339712               0.999999999              -0.000000000              -0.000178670               0.999999999               0.000000000              -0.000178632               0.999999999              -0.000000000              -0.000179711               0.999999999              -0.000000000              -0.000182587               0.999999999              -0.000000000              -0.000187211               0.999999999              -0.000000000              -0.000193481               0.999999999              -0.000000000              -0.000201181               0.999999999              -0.000000000              -0.000210062               0.999999999              -0.000000000              -0.000220068               0.999999999               0.000000000              -0.000231103               0.999999999               0.000000000              -0.000243194               0.999999999               0.000000000              -0.000256594               0.999999999               0.000000000              -0.000271188               0.999999999               0.000000000              -0.000286903               0.999999999              -0.000000000              -0.000303724               0.999999999               0.000000000              -0.000321511               0.999999999               0.000000000              -0.000340293               0.999999999              -0.000009108              -0.000000000               0.999999999              -0.000002147               0.000000000               0.999999999               0.000001032               0.000000000               0.999999999               0.000002578               0.000000000               0.999999999               0.000003491               0.000000000               0.999999999               0.000004258               0.000000000               0.999999999               0.000005149               0.000000000               0.999999999               0.000006341               0.000000000               0.999999999               0.000007963               0.000000000               0.999999999               0.000009975               0.000000000               0.999999999               0.000012449               0.000000000               0.999999999               0.000015453               0.000000000               0.999999999               0.000018932               0.000000000               0.999999999               0.000022944               0.000000000               0.999999999               0.000027479               0.000000000               0.999999999               0.000032440              -0.000000000               0.999999999               0.000037825              -0.000000000               0.999999999              -0.000009033               0.000017379               0.999999999              -0.000002285               0.000015657               0.999999999               0.000000789               0.000015226               0.999999999               0.000002301               0.000015535               0.999999999               0.000003256               0.000016371               0.999999999               0.000004128               0.000017581               0.999999999               0.000005165               0.000019131               0.999999999               0.000006533               0.000020910               0.999999999               0.000008277               0.000022951               0.999999999               0.000010470               0.000025160               0.999999999               0.000013141               0.000027669               0.999999999               0.000016332               0.000030413               0.999999999               0.000020073               0.000033309               0.999999999               0.000024309               0.000036281               0.999999999               0.000028966               0.000039271               0.999999999               0.000034026               0.000042512               0.999999999               0.000039545               0.000046000               0.999999999              -0.000008781               0.000034586               0.999999999              -0.000002723               0.000031157               0.999999999               0.000000025               0.000030332               0.999999999               0.000001509               0.000031050               0.999999999               0.000002641               0.000032785               0.999999999               0.000003826               0.000035303               0.999999999               0.000005265               0.000038381               0.999999999               0.000007082               0.000042008               0.999999999               0.000009334               0.000045982               0.999999999               0.000012027               0.000050501               0.999999999               0.000015258               0.000055427               0.999999999               0.000019035               0.000060900               0.999999999               0.000023287               0.000066593               0.999999999               0.000028004               0.000072381               0.999999999               0.000033130               0.000078217               0.999999999               0.000038701               0.000084510               0.999999999               0.000044690               0.000091291               0.999999999              -0.000008419               0.000051484               0.999999999              -0.000003460               0.000046330               0.999999999              -0.000001155               0.000045284               0.999999999               0.000000345               0.000046552               0.999999999               0.000001808               0.000049320               0.999999999               0.000003540               0.000053153               0.999999999               0.000005614               0.000057883               0.999999999               0.000008148               0.000063224               0.999999999               0.000011144               0.000069298               0.999999999               0.000014657               0.000075973               0.999999999               0.000018722               0.000083434               0.999999999               0.000023303               0.000091455               0.999999999               0.000028340               0.000099780               0.999999999               0.000033773               0.000108181               0.999999999               0.000039583               0.000116764               0.999999999               0.000045756               0.000125921               0.999999999               0.000052248               0.000135469               0.999999999              -0.000007990               0.000067922               0.999999999              -0.000004463               0.000061050               0.999999999              -0.000002642               0.000060005               0.999999999              -0.000000987               0.000061995               0.999999999               0.000000978               0.000065925               0.999999999               0.000003391               0.000071206               0.999999999               0.000006316               0.000077539               0.999999999               0.000009751               0.000084768               0.999999999               0.000013729               0.000092848               0.999999999               0.000018233               0.000101808               0.999999999               0.000023282               0.000111680               0.999999999               0.000028779               0.000122128               0.999999999               0.000034610               0.000132844               0.999999999               0.000040791               0.000143684               0.999999999               0.000047294               0.000154861               0.999999999               0.000054137               0.000166503               0.999999999               0.000061301               0.000178443               0.999999999              -0.000007471               0.000083674               0.999999999              -0.000005686               0.000075248               0.999999999              -0.000004226               0.000074389               0.999999999              -0.000002280               0.000077295               0.999999999               0.000000310               0.000082532               0.999999999               0.000003589               0.000089351               0.999999999               0.000007445               0.000097416               0.999999999               0.000011852               0.000106516               0.999999999               0.000016837               0.000116684               0.999999999               0.000022385               0.000127953               0.999999999               0.000028401               0.000140197               0.999999999               0.000034774               0.000152947               0.999999999               0.000041382               0.000165958               0.999999999               0.000048248               0.000179112               0.999999999               0.000055467               0.000192913               0.999999999               0.000063072               0.000207225               0.999999999               0.000071043               0.000221840               0.999999999              -0.000006885               0.000098545               0.999999999              -0.000006992               0.000088851               0.999999999              -0.000005727               0.000088378               0.999999999              -0.000003327               0.000092346               0.999999999               0.000000049               0.000098955               0.999999999               0.000004182               0.000107418               0.999999999               0.000008932               0.000117268               0.999999999               0.000014278               0.000128422               0.999999999               0.000020281               0.000140880               0.999999999               0.000026825               0.000154547               0.999999999               0.000033751               0.000169089               0.999999999               0.000040957               0.000184054               0.999999999               0.000048356               0.000199264               0.999999999               0.000056041               0.000215016               0.999999999               0.000064145               0.000231645               0.999999999               0.000072666               0.000248889               0.999999999               0.000081655               0.000266626               0.999999999              -0.000006274               0.000112411               0.999999999              -0.000008234               0.000101793               0.999999999              -0.000006977               0.000101857               0.999999999              -0.000003951               0.000106934               0.999999999               0.000000198               0.000114988               0.999999999               0.000005159               0.000125182               0.999999999               0.000010771               0.000137043               0.999999999               0.000017019               0.000150438               0.999999999               0.000023882               0.000165255               0.999999999               0.000031286               0.000181392               0.999999999               0.000039058               0.000198279               0.999999999               0.000046982               0.000215607               0.999999999               0.000055133               0.000233564               0.999999999               0.000063696               0.000252469               0.999999999               0.000072722               0.000272423               0.999999999               0.000082211               0.000293131               0.999999999               0.000092187               0.000314332               0.999999999              -0.000005520               0.000125004               0.999999999              -0.000009357               0.000114045               0.999999999              -0.000007835               0.000114688               0.999999999              -0.000004107               0.000120868               0.999999999               0.000000820               0.000130471               0.999999999               0.000006517               0.000142533               0.999999999               0.000012859               0.000156526               0.999999999               0.000019876               0.000172331               0.999999999               0.000027567               0.000189711               0.999999999               0.000035798               0.000208377               0.999999999               0.000044169               0.000227873               0.999999999               0.000052588               0.000248263               0.999999999               0.000061419               0.000269703               0.999999999               0.000070759               0.000292410               0.999999999               0.000080565               0.000316383               0.999999999               0.000090736               0.000341231               0.999999999               0.000101211               0.000366725               0.999999999              -0.000004509               0.000136745               0.999999999              -0.000009895               0.000126608               0.999999999              -0.000009100               0.000126113               0.999999999              -0.000005916               0.000130972               0.999999999              -0.000001488               0.000139195               0.999999999               0.000003517               0.000149822               0.999999999               0.000009029               0.000162344               0.999999999               0.000015036               0.000176577               0.999999999               0.000021717               0.000192311               0.999999999               0.000028886               0.000209377               0.999999999               0.000036253               0.000227535               0.999999999               0.000043597               0.000246563               0.999999999               0.000050965               0.000266563               0.999999999               0.000058536               0.000287730               0.999999999               0.000066568               0.000310184               0.999999999               0.000075082               0.000333810               0.999999999               0.000084023               0.000358407               0.999999999              -0.000003612               0.000147371               0.999999999              -0.000009861               0.000138546               0.999999999              -0.000009832               0.000137527               0.999999999              -0.000007265               0.000141312               0.999999999              -0.000003469               0.000148338               0.999999999               0.000000898               0.000157608               0.999999999               0.000005568               0.000168801               0.999999999               0.000010653               0.000181614               0.999999999               0.000016259               0.000195840               0.999999999               0.000022399               0.000211414               0.999999999               0.000028665               0.000228125               0.999999999               0.000034957               0.000245823               0.999999999               0.000041067               0.000264481               0.999999999               0.000047262               0.000284145               0.999999999               0.000053740               0.000304974               0.999999999               0.000060695               0.000327009               0.999999999               0.000068103               0.000350235               0.999999999              -0.000002774               0.000156650               0.999999999              -0.000009265               0.000149567               0.999999999              -0.000009892               0.000148514               0.999999999              -0.000008006               0.000151613               0.999999999              -0.000004861               0.000157619               0.999999999              -0.000001257               0.000165817               0.999999999               0.000002645               0.000175812               0.999999999               0.000006800               0.000187407               0.999999999               0.000011372               0.000200383               0.999999999               0.000016303               0.000214580               0.999999999               0.000021493               0.000229923               0.999999999               0.000026743               0.000246282               0.999999999               0.000031885               0.000263619               0.999999999               0.000036932               0.000282015               0.999999999               0.000042109               0.000301452               0.999999999               0.000047554               0.000321972               0.999999999               0.000053157               0.000343657               0.999999999              -0.000002034               0.000164441               0.999999999              -0.000008164               0.000159351               0.999999999              -0.000009203               0.000158615               0.999999999              -0.000007958               0.000161342               0.999999999              -0.000005556               0.000166670               0.999999999              -0.000002675               0.000174021               0.999999999               0.000000387               0.000183110               0.999999999               0.000003671               0.000193674               0.999999999               0.000007230               0.000205622               0.999999999               0.000011012               0.000218682               0.999999999               0.000015083               0.000232759               0.999999999               0.000019362               0.000247868               0.999999999               0.000023492               0.000264014               0.999999999               0.000027517               0.000281289               0.999999999               0.000031594               0.000299665               0.999999999               0.000035591               0.000319186               0.999999999               0.000039321               0.000339737               0.999999999              -0.000001394               0.000170576               0.999999999              -0.000006575               0.000167460               0.999999999              -0.000007759               0.000167303               0.999999999              -0.000007043               0.000169925               0.999999999              -0.000005349               0.000174844               0.999999999              -0.000003210               0.000181639               0.999999999              -0.000000961               0.000190044               0.999999999               0.000001453               0.000199856               0.999999999               0.000004042               0.000210917               0.999999999               0.000006900               0.000223035               0.999999999               0.000009889               0.000236193               0.999999999               0.000012956               0.000250376               0.999999999               0.000016098               0.000265670               0.999999999               0.000019150               0.000282101               0.999999999               0.000022089               0.000299683               0.999999999               0.000024786               0.000318437               0.999999999               0.000026965               0.000338202               0.999999999              -0.000000867               0.000175020               0.999999999              -0.000004612               0.000173573               0.999999999              -0.000005615               0.000174018               0.999999999              -0.000005287               0.000176697               0.999999999              -0.000004203               0.000181436               0.999999999              -0.000002843               0.000187891               0.999999999              -0.000001340               0.000195876               0.999999999               0.000000231               0.000205174               0.999999999               0.000001987               0.000215579               0.999999999               0.000003852               0.000227070               0.999999999               0.000005768               0.000239657               0.999999999               0.000007653               0.000253301               0.999999999               0.000009787               0.000268092               0.999999999               0.000011936               0.000284028               0.999999999               0.000013825               0.000301127               0.999999999               0.000015299               0.000319353               0.999999999               0.000016273               0.000338581               0.999999999              -0.000000426               0.000177747               0.999999999              -0.000002383               0.000177371               0.999999999              -0.000002929               0.000178274               0.999999999              -0.000002845               0.000181059               0.999999999              -0.000002316               0.000185726               0.999999999              -0.000001659               0.000192029               0.999999999              -0.000000905               0.000199791               0.999999999              -0.000000123               0.000208787               0.999999999               0.000000767               0.000218853               0.999999999               0.000001665               0.000230030               0.999999999               0.000002522               0.000242303               0.999999999               0.000003543               0.000255675               0.999999999               0.000004568               0.000270235               0.999999999               0.000005665               0.000286025               0.999999999               0.000006662               0.000302943               0.999999999               0.000007204               0.000320827               0.999999999               0.000007317               0.000339712               0.999999999               0.000000000               0.000178670               0.999999999              -0.000000000               0.000178632               0.999999999              -0.000000000               0.000179711               0.999999999              -0.000000000               0.000182587               0.999999999              -0.000000000               0.000187211               0.999999999              -0.000000000               0.000193481               0.999999999               0.000000000               0.000201181               0.999999999               0.000000000               0.000210062               0.999999999               0.000000000               0.000220068               0.999999999               0.000000000               0.000231103               0.999999999               0.000000000               0.000243194               0.999999999               0.000000000               0.000256594               0.999999999               0.000000000               0.000271188               0.999999999              -0.000000000               0.000286903               0.999999999              -0.000000000               0.000303724               0.999999999              -0.000000000               0.000321511               0.999999999               0.000000000               0.000340293               0.999999999 </DataArray>
<DataArray type="Float64"                                    Name="defo"                                                      NumberOfComponents=" 3" format="ascii">
              0.000009108               0.000000000               0.999999999               0.000002147              -0.000000000               0.999999999              -0.000001032              -0.000000000               0.999999999              -0.000002578              -0.000000000               0.999999999              -0.000003491              -0.000000000               0.999999999              -0.000004258               0.000000000               0.999999999              -0.000005149               0.000000000               0.999999999              -0.000006341               0.000000000               0.999999999              -0.000007963              -0.000000000               0.999999999              -0.000009975              -0.000000000               0.999999999              -0.000012449               0.000000000               0.999999999              -0.000015453               0.000000000               0.999999999              -0.000018932              -0.000000000               0.999999999              -0.000022944              -0.000000000               0.999999999              -0.000027479              -0.000000000               0.999999999              -0.000032440              -0.000000000               0.999999999              -0.000037825              -0.000000000               0.999999999               0.000009033               0.000017379               0.999999999               0.000002285               0.000015657               0.999999999              -0.000000789               0.000015226               0.999999999              -0.000002301               0.000015535               0.999999999              -0.000003256               0.000016371               0.999999999              -0.000004128               0.000017581               0.999999999              -0.000005165               0.000019131               0.999999999              -0.000006533               0.000020910               0.999999999              -0.000008277               0.000022951               0.999999999              -0.000010470               0.000025160               0.999999999              -0.000013141               0.000027669               0.999999999              -0.000016332               0.000030413               0.999999999              -0.000020073               0.000033309               0.999999999              -0.000024309               0.000036281               0.999999999              -0.000028966               0.000039271               0.999999999              -0.000034026               0.000042512               0.999999999              -0.000039545               0.000046000               0.999999999               0.000008781               0.000034586               0.999999999               0.000002723               0.000031157               0.999999999              -0.000000025               0.000030332               0.999999999              -0.000001509               0.000031050               0.999999999              -0.000002641               0.000032785               0.999999999              -0.000003826               0.000035303               0.999999999              -0.000005265               0.000038381               0.999999999              -0.000007082               0.000042008               0.999999999              -0.000009334               0.000045982               0.999999999              -0.000012027               0.000050501               0.999999999              -0.000015258               0.000055427               0.999999999              -0.000019035               0.000060900               0.999999999              -0.000023287               0.000066593               0.999999999              -0.000028004               0.000072381               0.999999999              -0.000033130               0.000078217               0.999999999              -0.000038701               0.000084510               0.999999999              -0.000044690               0.000091291               0.999999999               0.000008419               0.000051484               0.999999999               0.000003460               0.000046330               0.999999999               0.000001155               0.000045284               0.999999999              -0.000000345               0.000046552               0.999999999              -0.000001808               0.000049320               0.999999999              -0.000003540               0.000053153               0.999999999              -0.000005614               0.000057883               0.999999999              -0.000008148               0.000063224               0.999999999              -0.000011144               0.000069298               0.999999999              -0.000014657               0.000075973               0.999999999              -0.000018722               0.000083434               0.999999999              -0.000023303               0.000091455               0.999999999              -0.000028340               0.000099780               0.999999999              -0.000033773               0.000108181               0.999999999              -0.000039583               0.000116764               0.999999999              -0.000045756               0.000125921               0.999999999              -0.000052248               0.000135469               0.999999999               0.000007990               0.000067922               0.999999999               0.000004463               0.000061050               0.999999999               0.000002642               0.000060005               0.999999999               0.000000987               0.000061995               0.999999999              -0.000000978               0.000065925               0.999999999              -0.000003391               0.000071206               0.999999999              -0.000006316               0.000077539               0.999999999              -0.000009751               0.000084768               0.999999999              -0.000013729               0.000092848               0.999999999              -0.000018233               0.000101808               0.999999999              -0.000023282               0.000111680               0.999999999              -0.000028779               0.000122128               0.999999999              -0.000034610               0.000132844               0.999999999              -0.000040791               0.000143684               0.999999999              -0.000047294               0.000154861               0.999999999              -0.000054137               0.000166503               0.999999999              -0.000061301               0.000178443               0.999999999               0.000007471               0.000083674               0.999999999               0.000005686               0.000075248               0.999999999               0.000004226               0.000074389               0.999999999               0.000002280               0.000077295               0.999999999              -0.000000310               0.000082532               0.999999999              -0.000003589               0.000089351               0.999999999              -0.000007445               0.000097416               0.999999999              -0.000011852               0.000106516               0.999999999              -0.000016837               0.000116684               0.999999999              -0.000022385               0.000127953               0.999999999              -0.000028401               0.000140197               0.999999999              -0.000034774               0.000152947               0.999999999              -0.000041382               0.000165958               0.999999999              -0.000048248               0.000179112               0.999999999              -0.000055467               0.000192913               0.999999999              -0.000063072               0.000207225               0.999999999              -0.000071043               0.000221840               0.999999999               0.000006885               0.000098545               0.999999999               0.000006992               0.000088851               0.999999999               0.000005727               0.000088378               0.999999999               0.000003327               0.000092346               0.999999999              -0.000000049               0.000098955               0.999999999              -0.000004182               0.000107418               0.999999999              -0.000008932               0.000117268               0.999999999              -0.000014278               0.000128422               0.999999999              -0.000020281               0.000140880               0.999999999              -0.000026825               0.000154547               0.999999999              -0.000033751               0.000169089               0.999999999              -0.000040957               0.000184054               0.999999999              -0.000048356               0.000199264               0.999999999              -0.000056041               0.000215016               0.999999999              -0.000064145               0.000231645               0.999999999              -0.000072666               0.000248889               0.999999999              -0.000081655               0.000266626               0.999999999               0.000006274               0.000112411               0.999999999               0.000008234               0.000101793               0.999999999               0.000006977               0.000101857               0.999999999               0.000003951               0.000106934               0.999999999              -0.000000198               0.000114988               0.999999999              -0.000005159               0.000125182               0.999999999              -0.000010771               0.000137043               0.999999999              -0.000017019               0.000150438               0.999999999              -0.000023882               0.000165255               0.999999999              -0.000031286               0.000181392               0.999999999              -0.000039058               0.000198279               0.999999999              -0.000046982               0.000215607               0.999999999              -0.000055133               0.000233564               0.999999999              -0.000063696               0.000252469               0.999999999              -0.000072722               0.000272423               0.999999999              -0.000082211               0.000293131               0.999999999              -0.000092187               0.000314332               0.999999999               0.000005520               0.000125004               0.999999999               0.000009357               0.000114045               0.999999999               0.000007835               0.000114688               0.999999999               0.000004107               0.000120868               0.999999999              -0.000000820               0.000130471               0.999999999              -0.000006517               0.000142533               0.999999999              -0.000012859               0.000156526               0.999999999              -0.000019876               0.000172331               0.999999999              -0.000027567               0.000189711               0.999999999              -0.000035798               0.000208377               0.999999999              -0.000044169               0.000227873               0.999999999              -0.000052588               0.000248263               0.999999999              -0.000061419               0.000269703               0.999999999              -0.000070759               0.000292410               0.999999999              -0.000080565               0.000316383               0.999999999              -0.000090736               0.000341231               0.999999999              -0.000101211               0.000366725               0.999999999               0.000004509               0.000136745               0.999999999               0.000009895               0.000126608               0.999999999               0.000009100               0.000126113               0.999999999               0.000005916               0.000130972               0.999999999               0.000001488               0.000139195               0.999999999              -0.000003517               0.000149822               0.999999999              -0.000009029               0.000162344               0.999999999              -0.000015036               0.000176577               0.999999999              -0.000021717               0.000192311               0.999999999              -0.000028886               0.000209377               0.999999999              -0.000036253               0.000227535               0.999999999              -0.000043597               0.000246563               0.999999999              -0.000050965               0.000266563               0.999999999              -0.000058536               0.000287730               0.999999999              -0.000066568               0.000310184               0.999999999              -0.000075082               0.000333810               0.999999999              -0.000084023               0.000358407               0.999999999               0.000003612               0.000147371               0.999999999               0.000009861               0.000138546               0.999999999               0.000009832               0.000137527               0.999999999               0.000007265               0.000141312               0.999999999               0.000003469               0.000148338               0.999999999              -0.000000898               0.000157608               0.999999999              -0.000005568               0.000168801               0.999999999              -0.000010653               0.000181614               0.999999999              -0.000016259               0.000195840               0.999999999              -0.000022399               0.000211414               0.999999999              -0.000028665               0.000228125               0.999999999              -0.000034957               0.000245823               0.999999999              -0.000041067               0.000264481               0.999999999              -0.000047262               0.000284145               0.999999999              -0.000053740               0.000304974               0.999999999              -0.000060695               0.000327009               0.999999999              -0.000068103               0.000350235               0.999999999               0.000002774               0.000156650               0.999999999               0.000009265               0.000149567               0.999999999               0.000009892               0.000148514               0.999999999               0.000008006               0.000151613               0.999999999               0.000004861               0.000157619               0.999999999               0.000001257               0.000165817               0.999999999              -0.000002645               0.000175812               0.999999999              -0.000006800               0.000187407               0.999999999              -0.000011372               0.000200383               0.999999999              -0.000016303               0.000214580               0.999999999              -0.000021493               0.000229923               0.999999999              -0.000026743               0.000246282               0.999999999              -0.000031885               0.000263619               0.999999999              -0.000036932               0.000282015               0.999999999              -0.000042109               0.000301452               0.999999999              -0.000047554               0.000321972               0.999999999              -0.000053157               0.000343657               0.999999999               0.000002034               0.000164441               0.999999999               0.000008164               0.000159351               0.999999999               0.000009203               0.000158615               0.999999999               0.000007958               0.000161342               0.999999999               0.000005556               0.000166670               0.999999999               0.000002675               0.000174021               0.999999999              -0.000000387               0.000183110               0.999999999              -0.000003671               0.000193674               0.999999999              -0.000007230               0.000205622               0.999999999              -0.000011012               0.000218682               0.999999999              -0.000015083               0.000232759               0.999999999              -0.000019362               0.000247868               0.999999999              -0.000023492               0.000264014               0.999999999              -0.000027517               0.000281289               0.999999999              -0.000031594               0.000299665               0.999999999              -0.000035591               0.000319186               0.999999999              -0.000039321               0.000339737               0.999999999               0.000001394               0.000170576               0.999999999               0.000006575               0.000167460               0.999999999               0.000007759               0.000167303               0.999999999               0.000007043               0.000169925               0.999999999               0.000005349               0.000174844               0.999999999               0.000003210               0.000181639               0.999999999               0.000000961               0.000190044               0.999999999              -0.000001453               0.000199856               0.999999999              -0.000004042               0.000210917               0.999999999              -0.000006900               0.000223035               0.999999999              -0.000009889               0.000236193               0.999999999              -0.000012956               0.000250376               0.999999999              -0.000016098               0.000265670               0.999999999              -0.000019150               0.000282101               0.999999999              -0.000022089               0.000299683               0.999999999              -0.000024786               0.000318437               0.999999999              -0.000026965               0.000338202               0.999999999               0.000000867               0.000175020               0.999999999               0.000004612               0.000173573               0.999999999               0.000005615               0.000174018               0.999999999               0.000005287               0.000176697               0.999999999               0.000004203               0.000181436               0.999999999               0.000002843               0.000187891               0.999999999               0.000001340               0.000195876               0.999999999              -0.000000231               0.000205174               0.999999999              -0.000001987               0.000215579               0.999999999              -0.000003852               0.000227070               0.999999999              -0.000005768               0.000239657               0.999999999              -0.000007653               0.000253301               0.999999999              -0.000009787               0.000268092               0.999999999              -0.000011936               0.000284028               0.999999999              -0.000013825               0.000301127               0.999999999              -0.000015299               0.000319353               0.999999999              -0.000016273               0.000338581               0.999999999               0.000000426               0.000177747               0.999999999               0.000002383               0.000177371               0.999999999               0.000002929               0.000178274               0.999999999               0.000002845               0.000181059               0.999999999               0.000002316               0.000185726               0.999999999               0.000001659               0.000192029               0.999999999               0.000000905               0.000199791               0.999999999               0.000000123               0.000208787               0.999999999              -0.000000767               0.000218853               0.999999999              -0.000001665               0.000230030               0.999999999              -0.000002522               0.000242303               0.999999999              -0.000003543               0.000255675               0.999999999              -0.000004568               0.000270235               0.999999999              -0.000005665               0.000286025               0.999999999              -0.000006662               0.000302943               0.999999999              -0.000007204               0.000320827               0.999999999              -0.000007317               0.000339712               0.999999999               0.000000000               0.000178670               0.999999999              -0.000000000               0.000178632               0.999999999              -0.000000000               0.000179711               0.999999999              -0.000000000               0.000182587               0.999999999              -0.000000000               0.000187211               0.999999999              -0.000000000               0.000193481               0.999999999               0.000000000               0.000201181               0.999999999               0.000000000               0.000210062               0.999999999               0.000000000               0.000220068               0.999999999               0.000000000               0.000231103               0.999999999               0.000000000               0.000243194               0.999999999               0.000000000               0.000256594               0.999999999               0.000000000               0.000271188               0.999999999              -0.000000000               0.000286903               0.999999999              -0.000000000               0.000303724               0.999999999              -0.000000000               0.000321511               0.999999999               0.000000000               0.000340293               0.999999999               0.000009108               0.000000000               0.999999999               0.000002147              -0.000000000               0.999999999              -0.000001032              -0.000000000               0.999999999              -0.000002578              -0.000000000               0.999999999              -0.000003491              -0.000000000               0.999999999              -0.000004258               0.000000000               0.999999999              -0.000005149               0.000000000               0.999999999              -0.000006341               0.000000000               0.999999999              -0.000007963              -0.000000000               0.999999999              -0.000009975              -0.000000000               0.999999999              -0.000012449               0.000000000               0.999999999              -0.000015453               0.000000000               0.999999999              -0.000018932              -0.000000000               0.999999999              -0.000022944              -0.000000000               0.999999999              -0.000027479              -0.000000000               0.999999999              -0.000032440              -0.000000000               0.999999999              -0.000037825              -0.000000000               0.999999999               0.000009033              -0.000017379               0.999999999               0.000002285              -0.000015657               0.999999999              -0.000000789              -0.000015226               0.999999999              -0.000002301              -0.000015535               0.999999999              -0.000003256              -0.000016371               0.999999999              -0.000004128              -0.000017581               0.999999999              -0.000005165              -0.000019131               0.999999999              -0.000006533              -0.000020910               0.999999999              -0.000008277              -0.000022951               0.999999999              -0.000010470              -0.000025160               0.999999999              -0.000013141              -0.000027669               0.999999999              -0.000016332              -0.000030413               0.999999999              -0.000020073              -0.000033309               0.999999999              -0.000024309              -0.000036281               0.999999999              -0.000028966              -0.000039271               0.999999999              -0.000034026              -0.000042512               0.999999999              -0.000039545              -0.000046000               0.999999999               0.000008781              -0.000034586               0.999999999               0.000002723              -0.000031157               0.999999999              -0.000000025              -0.000030332               0.999999999              -0.000001509              -0.000031050               0.999999999              -0.000002641              -0.000032785               0.999999999              -0.000003826              -0.000035303               0.999999999              -0.000005265              -0.000038381               0.999999999              -0.000007082              -0.000042008               0.999999999              -0.000009334              -0.000045982               0.999999999              -0.000012027              -0.000050501               0.999999999              -0.000015258              -0.000055427               0.999999999              -0.000019035              -0.000060900               0.999999999              -0.000023287              -0.000066593               0.999999999              -0.000028004              -0.000072381               0.999999999              -0.000033130              -0.000078217               0.999999999              -0.000038701              -0.000084510               0.999999999              -0.000044690              -0.000091291               0.999999999               0.000008419              -0.000051484               0.999999999               0.000003460              -0.000046330               0.999999999               0.000001155              -0.000045284               0.999999999              -0.000000345              -0.000046552               0.999999999              -0.000001808              -0.000049320               0.999999999              -0.000003540              -0.000053153               0.999999999              -0.000005614              -0.000057883               0.999999999              -0.000008148              -0.000063224               0.999999999              -0.000011144              -0.000069298               0.999999999              -0.000014657              -0.000075973               0.999999999              -0.000018722              -0.000083434               0.999999999              -0.000023303              -0.000091455               0.999999999              -0.000028340              -0.000099780               0.999999999              -0.000033773              -0.000108181               0.999999999              -0.000039583              -0.000116764               0.999999999              -0.000045756              -0.000125921               0.999999999              -0.000052248              -0.000135469               0.999999999               0.000007990              -0.000067922               0.999999999               0.000004463              -0.000061050               0.999999999               0.000002642              -0.000060005               0.999999999               0.000000987              -0.000061995               0.999999999              -0.000000978              -0.000065925               0.999999999              -0.000003391              -0.000071206               0.999999999              -0.000006316              -0.000077539               0.999999999              -0.000009751              -0.000084768               0.999999999              -0.000013729              -0.000092848               0.999999999              -0.000018233              -0.000101808               0.999999999              -0.000023282              -0.000111680               0.999999999              -0.000028779              -0.000122128               0.999999999              -0.000034610              -0.000132844               0.999999999              -0.000040791              -0.000143684               0.999999999              -0.000047294              -0.000154861               0.999999999              -0.000054137              -0.000166503               0.999999999              -0.000061301              -0.000178443               0.999999999               0.000007471              -0.000083674               0.999999999               0.000005686              -0.000075248               0.999999999               0.000004226              -0.000074389               0.999999999               0.000002280              -0.000077295               0.999999999              -0.000000310              -0.000082532               0.999999999              -0.000003589              -0.000089351               0.999999999              -0.000007445              -0.000097416               0.999999999              -0.000011852              -0.000106516               0.999999999              -0.000016837              -0.000116684               0.999999999              -0.000022385              -0.000127953               0.999999999              -0.000028401              -0.000140197               0.999999999              -0.000034774              -0.000152947               0.999999999              -0.000041382              -0.000165958               0.999999999              -0.000048248              -0.000179112               0.999999999              -0.000055467              -0.000192913               0.999999999              -0.000063072              -0.000207225               0.999999999              -0.000071043              -0.000221840               0.999999999               0.000006885              -0.000098545               0.999999999               0.000006992              -0.000088851               0.999999999               0.000005727              -0.000088378               0.999999999               0.000003327              -0.000092346               0.999999999              -0.000000049              -0.000098955               0.999999999              -0.000004182              -0.000107418               0.999999999              -0.000008932              -0.000117268               0.999999999              -0.000014278              -0.000128422               0.999999999              -0.000020281              -0.000140880               0.999999999              -0.000026825              -0.000154547               0.999999999              -0.000033751              -0.000169089               0.999999999              -0.000040957              -0.000184054               0.999999999              -0.000048356              -0.000199264               0.999999999              -0.000056041              -0.000215016               0.999999999              -0.000064145              -0.000231645               0.999999999              -0.000072666              -0.000248889               0.999999999              -0.000081655              -0.000266626               0.999999999               0.000006274              -0.000112411               0.999999999               0.000008234              -0.000101793               0.999999999               0.000006977              -0.000101857               0.999999999               0.000003951              -0.000106934               0.999999999              -0.000000198              -0.000114988               0.999999999              -0.000005159              -0.000125182               0.999999999              -0.000010771              -0.000137043               0.999999999              -0.000017019              -0.000150438               0.999999999              -0.000023882              -0.000165255               0.999999999              -0.000031286              -0.000181392               0.999999999              -0.000039058              -0.000198279               0.999999999              -0.000046982              -0.000215607               0.999999999              -0.000055133              -0.000233564               0.999999999              -0.000063696              -0.000252469               0.999999999              -0.000072722              -0.000272423               0.999999999              -0.000082211              -0.000293131               0.999999999              -0.000092187              -0.000314332               0.999999999               0.000005520              -0.000125004               0.999999999               0.000009357              -0.000114045               0.999999999               0.000007835              -0.000114688               0.999999999               0.000004107              -0.000120868               0.999999999              -0.000000820              -0.000130471               0.999999999              -0.000006517              -0.000142533               0.999999999              -0.000012859              -0.000156526               0.999999999              -0.000019876              -0.000172331               0.999999999              -0.000027567              -0.000189711               0.999999999              -0.000035798              -0.000208377               0.999999999              -0.000044169              -0.000227873               0.999999999              -0.000052588              -0.000248263               0.999999999              -0.000061419              -0.000269703               0.999999999              -0.000070759              -0.000292410               0.999999999              -0.000080565              -0.000316383               0.999999999              -0.000090736              -0.000341231               0.999999999              -0.000101211              -0.000366725               0.999999999               0.000004509              -0.000136745               0.999999999               0.000009895              -0.000126608               0.999999999               0.000009100              -0.000126113               0.999999999               0.000005916              -0.000130972               0.999999999               0.000001488              -0.000139195               0.999999999              -0.000003517              -0.000149822               0.999999999              -0.000009029              -0.000162344               0.999999999              -0.000015036              -0.000176577               0.999999999              -0.000021717              -0.000192311               0.999999999              -0.000028886              -0.000209377               0.999999999              -0.000036253              -0.000227535               0.999999999              -0.000043597              -0.000246563               0.999999999              -0.000050965              -0.000266563               0.999999999              -0.000058536              -0.000287730               0.999999999              -0.000066568              -0.000310184               0.999999999              -0.000075082              -0.000333810               0.999999999              -0.000084023              -0.000358407               0.999999999               0.000003612              -0.000147371               0.999999999               0.000009861              -0.000138546               0.999999999               0.000009832              -0.000137527               0.999999999               0.000007265              -0.000141312               0.999999999               0.000003469              -0.000148338               0.999999999              -0.000000898              -0.000157608               0.999999999              -0.000005568              -0.000168801               0.999999999              -0.000010653              -0.000181614               0.999999999              -0.000016259              -0.000195840               0.999999999              -0.000022399              -0.000211414               0.999999999              -0.000028665              -0.000228125               0.999999999              -0.000034957              -0.000245823               0.999999999              -0.000041067              -0.000264481               0.999999999              -0.000047262              -0.000284145               0.999999999              -0.000053740              -0.000304974               0.999999999              -0.000060695              -0.000327009               0.999999999              -0.000068103              -0.000350235               0.999999999               0.000002774              -0.000156650               0.999999999               0.000009265              -0.000149567               0.999999999               0.000009892              -0.000148514               0.999999999               0.000008006              -0.000151613               0.999999999               0.000004861              -0.000157619               0.999999999               0.000001257              -0.000165817               0.999999999              -0.000002645              -0.000175812               0.999999999              -0.000006800              -0.000187407               0.999999999              -0.000011372              -0.000200383               0.999999999              -0.000016303              -0.000214580               0.999999999              -0.000021493              -0.000229923               0.999999999              -0.000026743              -0.000246282               0.999999999              -0.000031885              -0.000263619               0.999999999              -0.000036932              -0.000282015               0.999999999              -0.000042109              -0.000301452               0.999999999              -0.000047554              -0.000321972               0.999999999              -0.000053157              -0.000343657               0.999999999               0.000002034              -0.000164441               0.999999999               0.000008164              -0.000159351               0.999999999               0.000009203              -0.000158615               0.999999999               0.000007958              -0.000161342               0.999999999               0.000005556              -0.000166670               0.999999999               0.000002675              -0.000174021               0.999999999              -0.000000387              -0.000183110               0.999999999              -0.000003671              -0.000193674               0.999999999              -0.000007230              -0.000205622               0.999999999              -0.000011012              -0.000218682               0.999999999              -0.000015083              -0.000232759               0.999999999              -0.000019362              -0.000247868               0.999999999              -0.000023492              -0.000264014               0.999999999              -0.000027517              -0.000281289               0.999999999              -0.000031594              -0.000299665               0.999999999              -0.000035591              -0.000319186               0.999999999              -0.000039321              -0.000339737               0.999999999               0.000001394              -0.000170576               0.999999999               0.000006575              -0.000167460               0.999999999               0.000007759              -0.000167303               0.999999999               0.000007043              -0.000169925               0.999999999               0.000005349              -0.000174844               0.999999999               0.000003210              -0.000181639               0.999999999               0.000000961              -0.000190044               0.999999999              -0.000001453              -0.000199856               0.999999999              -0.000004042              -0.000210917               0.999999999              -0.000006900              -0.000223035               0.999999999              -0.000009889              -0.000236193               0.999999999              -0.000012956              -0.000250376               0.999999999              -0.000016098              -0.000265670               0.999999999              -0.000019150              -0.000282101               0.999999999              -0.000022089              -0.000299683               0.999999999              -0.000024786              -0.000318437               0.999999999              -0.000026965              -0.000338202               0.999999999               0.000000867              -0.000175020               0.999999999               0.000004612              -0.000173573               0.999999999               0.000005615              -0.000174018               0.999999999               0.000005287              -0.000176697               0.999999999               0.000004203              -0.000181436               0.999999999               0.000002843              -0.000187891               0.999999999               0.000001340              -0.000195876               0.999999999              -0.000000231              -0.000205174               0.999999999              -0.000001987              -0.000215579               0.999999999              -0.000003852              -0.000227070               0.999999999              -0.000005768              -0.000239657               0.999999999              -0.000007653              -0.000253301               0.999999999              -0.000009787              -0.000268092               0.999999999              -0.000011936              -0.000284028               0.999999999              -0.000013825              -0.000301127               0.999999999              -0.000015299              -0.000319353               0.999999999              -0.000016273              -0.000338581               0.999999999               0.000000426              -0.000177747               0.999999999               0.000002383              -0.000177371               0.999999999               0.000002929              -0.000178274               0.999999999               0.000002845              -0.000181059               0.999999999               0.000002316              -0.000185726               0.999999999               0.000001659              -0.000192029               0.999999999               0.000000905              -0.000199791               0.999999999               0.000000123              -0.000208787               0.999999999              -0.000000767              -0.000218853               0.999999999              -0.000001665              -0.000230030               0.999999999              -0.000002522              -0.000242303               0.999999999              -0.000003543              -0.000255675               0.999999999              -0.000004568              -0.000270235               0.999999999              -0.000005665              -0.000286025               0.999999999              -0.000006662              -0.000302943               0.999999999              -0.000007204              -0.000320827               0.999999999              -0.000007317              -0.000339712               0.999999999              -0.000000000              -0.000178670               0.999999999               0.000000000              -0.000178632               0.999999999              -0.000000000              -0.000179711               0.999999999              -0.000000000              -0.000182587               0.999999999              -0.000000000              -0.000187211               0.999999999              -0.000000000              -0.000193481               0.999999999              -0.000000000              -0.000201181               0.999999999              -0.000000000              -0.000210062               0.999999999              -0.000000000              -0.000220068               0.999999999               0.000000000              -0.000231103               0.999999999               0.000000000              -0.000243194               0.999999999               0.000000000              -0.000256594               0.999999999               0.000000000              -0.000271188               0.999999999               0.000000000              -0.000286903               0.999999999              -0.000000000              -0.000303724               0.999999999               0.000000000              -0.000321511               0.999999999               0.000000000              -0.000340293               0.999999999              -0.000009108              -0.000000000               0.999999999              -0.000002147               0.000000000               0.999999999               0.000001032               0.000000000               0.999999999               0.000002578               0.000000000               0.999999999               0.000003491               0.000000000               0.999999999               0.000004258               0.000000000               0.999999999               0.000005149               0.000000000               0.999999999               0.000006341               0.000000000               0.999999999               0.000007963               0.000000000               0.999999999               0.000009975               0.000000000               0.999999999               0.000012449               0.000000000               0.999999999               0.000015453               0.000000000               0.999999999               0.000018932               0.000000000               0.999999999               0.000022944               0.000000000               0.999999999               0.000027479               0.000000000               0.999999999               0.000032440              -0.000000000               0.999999999               0.000037825              -0.000000000               0.999999999              -0.000009033              -0.000017379               0.999999999              -0.000002285              -0.000015657               0.999999999               0.000000789              -0.000015226               0.999999999               0.000002301              -0.000015535               0.999999999               0.000003256              -0.000016371               0.999999999               0.000004128              -0.000017581               0.999999999               0.000005165              -0.000019131               0.999999999               0.000006533              -0.000020910               0.999999999               0.000008277              -0.000022951               0.999999999               0.000010470              -0.000025160               0.999999999               0.000013141              -0.000027669               0.999999999               0.000016332              -0.000030413               0.999999999               0.000020073              -0.000033309               0.999999999               0.000024309              -0.000036281               0.999999999               0.000028966              -0.000039271               0.999999999               0.000034026              -0.000042512               0.999999999               0.000039545              -0.000046000               0.999999999              -0.000008781              -0.000034586               0.999999999              -0.000002723              -0.000031157               0.999999999               0.000000025              -0.000030332               0.999999999               0.000001509              -0.000031050               0.999999999               0.000002641              -0.000032785               0.999999999               0.000003826              -0.000035303               0.999999999               0.000005265              -0.000038381               0.999999999               0.000007082              -0.000042008               0.999999999               0.000009334              -0.000045982               0.999999999               0.000012027              -0.000050501               0.999999999               0.000015258              -0.000055427               0.999999999               0.000019035              -0.000060900               0.999999999               0.000023287              -0.000066593               0.999999999               0.000028004              -0.000072381               0.999999999               0.000033130              -0.000078217               0.999999999               0.000038701              -0.000084510               0.999999999               0.000044690              -0.000091291               0.999999999              -0.000008419              -0.000051484               0.999999999              -0.000003460              -0.000046330               0.999999999              -0.000001155              -0.000045284               0.999999999               0.000000345              -0.000046552               0.999999999               0.000001808              -0.000049320               0.999999999               0.000003540              -0.000053153               0.999999999               0.000005614              -0.000057883               0.999999999               0.000008148              -0.000063224               0.999999999               0.000011144              -0.000069298               0.999999999               0.000014657              -0.000075973               0.999999999               0.000018722              -0.000083434               0.999999999               0.000023303              -0.000091455               0.999999999               0.000028340              -0.000099780               0.999999999               0.000033773              -0.000108181               0.999999999               0.000039583              -0.000116764               0.999999999               0.000045756              -0.000125921               0.999999999               0.000052248              -0.000135469               0.999999999              -0.000007990              -0.000067922               0.999999999              -0.000004463              -0.000061050               0.999999999              -0.000002642              -0.000060005               0.999999999              -0.000000987              -0.000061995               0.999999999               0.000000978              -0.000065925               0.999999999               0.000003391              -0.000071206               0.999999999               0.000006316              -0.000077539               0.999999999               0.000009751              -0.000084768               0.999999999               0.000013729              -0.000092848               0.999999999               0.000018233              -0.000101808               0.999999999               0.000023282              -0.000111680               0.999999999               0.000028779              -0.000122128               0.999999999               0.000034610              -0.000132844               0.999999999               0.000040791              -0.000143684               0.999999999               0.000047294              -0.000154861               0.999999999               0.000054137              -0.000166503               0.999999999               0.000061301              -0.000178443               0.999999999              -0.000007471              -0.000083674               0.999999999              -0.000005686              -0.000075248               0.999999999              -0.000004226              -0.000074389               0.999999999              -0.000002280              -0.000077295               0.999999999               0.000000310              -0.000082532               0.999999999               0.000003589              -0.000089351               0.999999999               0.000007445              -0.000097416               0.999999999               0.000011852              -0.000106516               0.999999999               0.000016837              -0.000116684               0.999999999               0.000022385              -0.000127953               0.999999999               0.000028401              -0.000140197               0.999999999               0.000034774              -0.000152947               0.999999999               0.000041382              -0.000165958               0.999999999               0.000048248              -0.000179112               0.999999999               0.000055467              -0.000192913               0.999999999               0.000063072              -0.000207225               0.999999999               0.000071043              -0.000221840               0.999999999              -0.000006885              -0.000098545               0.999999999              -0.000006992              -0.000088851               0.999999999              -0.000005727              -0.000088378               0.999999999              -0.000003327              -0.000092346               0.999999999               0.000000049              -0.000098955               0.999999999               0.000004182              -0.000107418               0.999999999               0.000008932              -0.000117268               0.999999999               0.000014278              -0.000128422               0.999999999               0.000020281              -0.000140880               0.999999999               0.000026825              -0.000154547               0.999999999               0.000033751              -0.000169089               0.999999999               0.000040957              -0.000184054               0.999999999               0.000048356              -0.000199264               0.999999999               0.000056041              -0.000215016               0.999999999               0.000064145              -0.000231645               0.999999999               0.000072666              -0.000248889               0.999999999               0.000081655              -0.000266626               0.999999999              -0.000006274              -0.000112411               0.999999999              -0.000008234              -0.000101793               0.999999999              -0.000006977              -0.000101857               0.999999999              -0.000003951              -0.000106934               0.999999999               0.000000198              -0.000114988               0.999999999               0.000005159              -0.000125182               0.999999999               0.000010771              -0.000137043               0.999999999               0.000017019              -0.000150438               0.999999999               0.000023882              -0.000165255               0.999999999               0.000031286              -0.000181392               0.999999999               0.000039058              -0.000198279               0.999999999               0.000046982              -0.000215607               0.999999999               0.000055133              -0.000233564               0.999999999               0.000063696              -0.000252469               0.999999999               0.000072722              -0.000272423               0.999999999               0.000082211              -0.000293131               0.999999999               0.000092187              -0.000314332               0.999999999              -0.000005520              -0.000125004               0.999999999              -0.000009357              -0.000114045               0.999999999              -0.000007835              -0.000114688               0.999999999              -0.000004107              -0.000120868               0.999999999               0.000000820              -0.000130471               0.999999999               0.000006517              -0.000142533               0.999999999               0.000012859              -0.000156526               0.999999999               0.000019876              -0.000172331               0.999999999               0.000027567              -0.000189711               0.999999999               0.000035798              -0.000208377               0.999999999               0.000044169              -0.000227873               0.999999999               0.000052588              -0.000248263               0.999999999               0.000061419              -0.000269703               0.999999999               0.000070759              -0.000292410               0.999999999               0.000080565              -0.000316383               0.999999999               0.000090736              -0.000341231               0.999999999               0.000101211              -0.000366725               0.999999999              -0.000004509              -0.000136745               0.999999999              -0.000009895              -0.000126608               0.999999999              -0.000009100              -0.000126113               0.999999999              -0.000005916              -0.000130972               0.999999999              -0.000001488              -0.000139195               0.999999999               0.000003517              -0.000149822               0.999999999               0.000009029              -0.000162344               0.999999999               0.000015036              -0.000176577               0.999999999               0.000021717              -0.000192311               0.999999999               0.000028886              -0.000209377               0.999999999               0.000036253              -0.000227535               0.999999999               0.000043597              -0.000246563               0.999999999               0.000050965              -0.000266563               0.999999999               0.000058536              -0.000287730               0.999999999               0.000066568              -0.000310184               0.999999999               0.000075082              -0.000333810               0.999999999               0.000084023              -0.000358407               0.999999999              -0.000003612              -0.000147371               0.999999999              -0.000009861              -0.000138546               0.999999999              -0.000009832              -0.000137527               0.999999999              -0.000007265              -0.000141312               0.999999999              -0.000003469              -0.000148338               0.999999999               0.000000898              -0.000157608               0.999999999               0.000005568              -0.000168801               0.999999999               0.000010653              -0.000181614               0.999999999               0.000016259              -0.000195840               0.999999999               0.000022399              -0.000211414               0.999999999               0.000028665              -0.000228125               0.999999999               0.000034957              -0.000245823               0.999999999               0.000041067              -0.000264481               0.999999999               0.000047262              -0.000284145               0.999999999               0.000053740              -0.000304974               0.999999999               0.000060695              -0.000327009               0.999999999               0.000068103              -0.000350235               0.999999999              -0.000002774              -0.000156650               0.999999999              -0.000009265              -0.000149567               0.999999999              -0.000009892              -0.000148514               0.999999999              -0.000008006              -0.000151613               0.999999999              -0.000004861              -0.000157619               0.999999999              -0.000001257              -0.000165817               0.999999999               0.000002645              -0.000175812               0.999999999               0.000006800              -0.000187407               0.999999999               0.000011372              -0.000200383               0.999999999               0.000016303              -0.000214580               0.999999999               0.000021493              -0.000229923               0.999999999               0.000026743              -0.000246282               0.999999999               0.000031885              -0.000263619               0.999999999               0.000036932              -0.000282015               0.999999999               0.000042109              -0.000301452               0.999999999               0.000047554              -0.000321972               0.999999999               0.000053157              -0.000343657               0.999999999              -0.000002034              -0.000164441               0.999999999              -0.000008164              -0.000159351               0.999999999              -0.000009203              -0.000158615               0.999999999              -0.000007958              -0.000161342               0.999999999              -0.000005556              -0.000166670               0.999999999              -0.000002675              -0.000174021               0.999999999               0.000000387              -0.000183110               0.999999999               0.000003671              -0.000193674               0.999999999               0.000007230              -0.000205622               0.999999999               0.000011012              -0.000218682               0.999999999               0.000015083              -0.000232759               0.999999999               0.000019362              -0.000247868               0.999999999               0.000023492              -0.000264014               0.999999999               0.000027517              -0.000281289               0.999999999               0.000031594              -0.000299665               0.999999999               0.000035591              -0.000319186               0.999999999               0.000039321              -0.000339737               0.999999999              -0.000001394              -0.000170576               0.999999999              -0.000006575              -0.000167460               0.999999999              -0.000007759              -0.000167303               0.999999999              -0.000007043              -0.000169925               0.999999999              -0.000005349              -0.000174844               0.999999999              -0.000003210              -0.000181639               0.999999999              -0.000000961              -0.000190044               0.999999999               0.000001453              -0.000199856               0.999999999               0.000004042              -0.000210917               0.999999999               0.000006900              -0.000223035               0.999999999               0.000009889              -0.000236193               0.999999999               0.000012956              -0.000250376               0.999999999               0.000016098              -0.000265670               0.999999999               0.000019150              -0.000282101               0.999999999               0.000022089              -0.000299683               0.999999999               0.000024786              -0.000318437               0.999999999               0.000026965              -0.000338202               0.999999999              -0.000000867              -0.000175020               0.999999999              -0.000004612              -0.000173573               0.999999999              -0.000005615              -0.000174018               0.999999999              -0.000005287              -0.000176697               0.999999999              -0.000004203              -0.000181436               0.999999999              -0.000002843              -0.000187891               0.999999999              -0.000001340              -0.000195876               0.999999999               0.000000231              -0.000205174               0.999999999               0.000001987              -0.000215579               0.999999999               0.000003852              -0.000227070               0.999999999               0.000005768              -0.000239657               0.999999999               0.000007653              -0.000253301               0.999999999               0.000009787              -0.000268092               0.999999999               0.000011936              -0.000284028               0.999999999               0.000013825              -0.000301127               0.999999999               0.000015299              -0.000319353               0.999999999               0.000016273              -0.000338581               0.999999999              -0.000000426              -0.000177747               0.999999999              -0.000002383              -0.000177371               0.999999999              -0.000002929              -0.000178274               0.999999999              -0.000002845              -0.000181059               0.999999999              -0.000002316              -0.000185726               0.999999999              -0.000001659              -0.000192029               0.999999999              -0.000000905              -0.000199791               0.999999999              -0.000000123              -0.000208787               0.999999999               0.000000767              -0.000218853               0.999999999               0.000001665              -0.000230030               0.999999999               0.000002522              -0.000242303               0.999999999               0.000003543              -0.000255675               0.999999999               0.000004568              -0.000270235               0.999999999               0.000005665              -0.000286025               0.999999999               0.000006662              -0.000302943               0.999999999               0.000007204              -0.000320827               0.999999999               0.000007317              -0.000339712               0.999999999              -0.000000000              -0.000178670               0.999999999               0.000000000              -0.000178632               0.999999999              -0.000000000              -0.000179711               0.999999999              -0.000000000              -0.000182587               0.999999999              -0.000000000              -0.000187211               0.999999999              -0.000000000              -0.000193481               0.999999999              -0.000000000              -0.000201181               0.999999999              -0.000000000              -0.000210062               0.999999999              -0.000000000              -0.000220068               0.999999999               0.000000000              -0.000231103               0.999999999               0.000000000              -0.000243194               0.999999999               0.000000000              -0.000256594               0.999999999               0.000000000              -0.000271188               0.999999999               0.000000000              -0.000286903               0.999999999              -0.000000000              -0.000303724               0.999999999               0.000000000              -0.000321511               0.999999999               0.000000000              -0.000340293               0.999999999              -0.000009108              -0.000000000               0.999999999              -0.000002147               0.000000000               0.999999999               0.000001032               0.000000000               0.999999999               0.000002578               0.000000000               0.999999999               0.000003491               0.000000000               0.999999999               0.000004258               0.000000000               0.999999999               0.000005149               0.000000000               0.999999999               0.000006341               0.000000000               0.999999999               0.000007963               0.000000000               0.999999999               0.000009975               0.000000000               0.999999999               0.000012449               0.000000000               0.999999999               0.000015453               0.000000000               0.999999999               0.000018932               0.000000000               0.999999999               0.000022944               0.000000000               0.999999999               0.000027479               0.000000000               0.999999999               0.000032440              -0.000000000               0.999999999               0.000037825              -0.000000000               0.999999999              -0.000009033               0.000017379               0.999999999              -0.000002285               0.000015657               0.999999999               0.000000789               0.000015226               0.999999999               0.000002301               0.000015535               0.999999999               0.000003256               0.000016371               0.999999999               0.000004128               0.000017581               0.999999999               0.000005165               0.000019131               0.999999999               0.000006533               0.000020910               0.999999999               0.000008277               0.000022951               0.999999999               0.000010470               0.000025160               0.999999999               0.000013141               0.000027669               0.999999999               0.000016332               0.000030413               0.999999999               0.000020073               0.000033309               0.999999999               0.000024309               0.000036281               0.999999999               0.000028966               0.000039271               0.999999999               0.000034026               0.000042512               0.999999999               0.000039545               0.000046000               0.999999999              -0.000008781               0.000034586               0.999999999              -0.000002723               0.000031157               0.999999999               0.000000025               0.000030332               0.999999999               0.000001509               0.000031050               0.999999999               0.000002641               0.000032785               0.999999999               0.000003826               0.000035303               0.999999999               0.000005265               0.000038381               0.999999999               0.000007082               0.000042008               0.999999999               0.000009334               0.000045982               0.999999999               0.000012027               0.000050501               0.999999999               0.000015258               0.000055427               0.999999999               0.000019035               0.000060900               0.999999999               0.000023287               0.000066593               0.999999999               0.000028004               0.000072381               0.999999999               0.000033130               0.000078217               0.999999999               0.000038701               0.000084510               0.999999999               0.000044690               0.000091291               0.999999999              -0.000008419               0.000051484               0.999999999              -0.000003460               0.000046330               0.999999999              -0.000001155               0.000045284               0.999999999               0.000000345               0.000046552               0.999999999               0.000001808               0.000049320               0.999999999               0.000003540               0.000053153               0.999999999               0.000005614               0.000057883               0.999999999               0.000008148               0.000063224               0.999999999               0.000011144               0.000069298               0.999999999               0.000014657               0.000075973               0.999999999               0.000018722               0.000083434               0.999999999               0.000023303               0.000091455               0.999999999               0.000028340               0.000099780               0.999999999               0.000033773               0.000108181               0.999999999               0.000039583               0.000116764               0.999999999               0.000045756               0.000125921               0.999999999               0.000052248               0.000135469               0.999999999              -0.000007990               0.000067922               0.999999999              -0.000004463               0.000061050               0.999999999              -0.000002642               0.000060005               0.999999999              -0.000000987               0.000061995               0.999999999               0.000000978               0.000065925               0.999999999               0.000003391               0.000071206               0.999999999               0.000006316               0.000077539               0.999999999               0.000009751               0.000084768               0.999999999               0.000013729               0.000092848               0.999999999               0.000018233               0.000101808               0.999999999               0.000023282               0.000111680               0.999999999               0.000028779               0.000122128               0.999999999               0.000034610               0.000132844               0.999999999               0.000040791               0.000143684               0.999999999               0.000047294               0.000154861               0.999999999               0.000054137               0.000166503               0.999999999               0.000061301               0.000178443               0.999999999              -0.000007471               0.000083674               0.999999999              -0.000005686               0.000075248               0.999999999              -0.000004226               0.000074389               0.999999999              -0.000002280               0.000077295               0.999999999               0.000000310               0.000082532               0.999999999               0.000003589               0.000089351               0.999999999               0.000007445               0.000097416               0.999999999               0.000011852               0.000106516               0.999999999               0.000016837               0.000116684               0.999999999               0.000022385               0.000127953               0.999999999               0.000028401               0.000140197               0.999999999               0.000034774               0.000152947               0.999999999               0.000041382               0.000165958               0.999999999               0.000048248               0.000179112               0.999999999               0.000055467               0.000192913               0.999999999               0.000063072               0.000207225               0.999999999               0.000071043               0.000221840               0.999999999              -0.000006885               0.000098545               0.999999999              -0.000006992               0.000088851               0.999999999              -0.000005727               0.000088378               0.999999999              -0.000003327               0.000092346               0.999999999               0.000000049               0.000098955               0.999999999               0.000004182               0.000107418               0.999999999               0.000008932               0.000117268               0.999999999               0.000014278               0.000128422               0.999999999               0.000020281               0.000140880               0.999999999               0.000026825               0.000154547               0.999999999               0.000033751               0.000169089               0.999999999               0.000040957               0.000184054               0.999999999               0.000048356               0.000199264               0.999999999               0.000056041               0.000215016               0.999999999               0.000064145               0.000231645               0.999999999               0.000072666               0.000248889               0.999999999               0.000081655               0.000266626               0.999999999              -0.000006274               0.000112411               0.999999999              -0.000008234               0.000101793               0.999999999              -0.000006977               0.000101857               0.999999999              -0.000003951               0.000106934               0.999999999               0.000000198               0.000114988               0.999999999               0.000005159               0.000125182               0.999999999               0.000010771               0.000137043               0.999999999               0.000017019               0.000150438               0.999999999               0.000023882               0.000165255               0.999999999               0.000031286               0.000181392               0.999999999               0.000039058               0.000198279               0.999999999               0.000046982               0.000215607               0.999999999               0.000055133               0.000233564               0.999999999               0.000063696               0.000252469               0.999999999               0.000072722               0.000272423               0.999999999               0.000082211               0.000293131               0.999999999               0.000092187               0.000314332               0.999999999              -0.000005520               0.000125004               0.999999999              -0.000009357               0.000114045               0.999999999              -0.000007835               0.000114688               0.999999999              -0.000004107               0.000120868               0.999999999               0.000000820               0.000130471               0.999999999               0.000006517               0.000142533               0.999999999               0.000012859               0.000156526               0.999999999               0.000019876               0.000172331               0.999999999               0.000027567               0.000189711               0.999999999               0.000035798               0.000208377               0.999999999               0.000044169               0.000227873               0.999999999               0.000052588               0.000248263               0.999999999               0.000061419               0.000269703               0.999999999               0.000070759               0.000292410               0.999999999               0.000080565               0.000316383               0.999999999               0.000090736               0.000341231               0.999999999               0.000101211               0.000366725               0.999999999              -0.000004509               0.000136745               0.999999999              -0.000009895               0.000126608               0.999999999              -0.000009100               0.000126113               0.999999999              -0.000005916               0.000130972               0.999999999              -0.000001488               0.000139195               0.999999999               0.000003517               0.000149822               0.999999999               0.000009029               0.000162344               0.999999999               0.000015036               0.000176577               0.999999999               0.000021717               0.000192311               0.999999999               0.000028886               0.000209377               0.999999999               0.000036253               0.000227535               0.999999999               0.000043597               0.000246563               0.999999999               0.000050965               0.000266563               0.999999999               0.000058536               0.000287730               0.999999999               0.000066568               0.000310184               0.999999999               0.000075082               0.000333810               0.999999999               0.000084023               0.000358407               0.999999999              -0.000003612               0.000147371               0.999999999              -0.000009861               0.000138546               0.999999999              -0.000009832               0.000137527               0.999999999              -0.000007265               0.000141312               0.999999999              -0.000003469               0.000148338               0.999999999               0.000000898               0.000157608               0.999999999               0.000005568               0.000168801               0.999999999               0.000010653               0.000181614               0.999999999               0.000016259               0.000195840               0.999999999               0.000022399               0.000211414               0.999999999               0.000028665               0.000228125               0.999999999               0.000034957               0.000245823               0.999999999               0.000041067               0.000264481               0.999999999               0.000047262               0.000284145               0.999999999               0.000053740               0.000304974               0.999999999               0.000060695               0.000327009               0.999999999               0.000068103               0.000350235               0.999999999              -0.000002774               0.000156650               0.999999999              -0.000009265               0.000149567               0.999999999              -0.000009892               0.000148514               0.999999999              -0.000008006               0.000151613               0.999999999              -0.000004861               0.000157619               0.999999999              -0.000001257               0.000165817               0.999999999               0.000002645               0.000175812               0.999999999               0.000006800               0.000187407               0.999999999               0.000011372               0.000200383               0.999999999               0.000016303               0.000214580               0.999999999               0.000021493               0.000229923               0.999999999               0.000026743               0.000246282               0.999999999               0.000031885               0.000263619               0.999999999               0.000036932               0.000282015               0.999999999               0.000042109               0.000301452               0.999999999               0.000047554               0.000321972               0.999999999               0.000053157               0.000343657               0.999999999              -0.000002034               0.000164441               0.999999999              -0.000008164               0.000159351               0.999999999              -0.000009203               0.000158615               0.999999999              -0.000007958               0.000161342               0.999999999              -0.000005556               0.000166670               0.999999999              -0.000002675               0.000174021               0.999999999               0.000000387               0.000183110               0.999999999               0.000003671               0.000193674               0.999999999               0.000007230               0.000205622               0.999999999               0.000011012               0.000218682               0.999999999               0.000015083               0.000232759               0.999999999               0.000019362               0.000247868               0.999999999               0.000023492               0.000264014               0.999999999               0.000027517               0.000281289               0.999999999               0.000031594               0.000299665               0.999999999               0.000035591               0.000319186               0.999999999               0.000039321               0.000339737               0.999999999              -0.000001394               0.000170576               0.999999999              -0.000006575               0.000167460               0.999999999              -0.000007759               0.000167303               0.999999999              -0.000007043               0.000169925               0.999999999              -0.000005349               0.000174844               0.999999999              -0.000003210               0.000181639               0.999999999              -0.000000961               0.000190044               0.999999999               0.000001453               0.000199856               0.999999999               0.000004042               0.000210917               0.999999999               0.000006900               0.000223035               0.999999999               0.000009889               0.000236193               0.999999999               0.000012956               0.000250376               0.999999999               0.000016098               0.000265670               0.999999999               0.000019150               0.000282101               0.999999999               0.000022089               0.000299683               0.999999999               0.000024786               0.000318437               0.999999999               0.000026965               0.000338202               0.999999999              -0.000000867               0.000175020               0.999999999              -0.000004612               0.000173573               0.999999999              -0.000005615               0.000174018               0.999999999              -0.000005287               0.000176697               0.999999999              -0.000004203               0.000181436               0.999999999              -0.000002843               0.000187891               0.999999999              -0.000001340               0.000195876               0.999999999               0.000000231               0.000205174               0.999999999               0.000001987               0.000215579               0.999999999               0.000003852               0.000227070               0.999999999               0.000005768               0.000239657               0.999999999               0.000007653               0.000253301               0.999999999               0.000009787               0.000268092               0.999999999               0.000011936               0.000284028               0.999999999               0.000013825               0.000301127               0.999999999               0.000015299               0.000319353               0.999999999               0.000016273               0.000338581               0.999999999              -0.000000426               0.000177747               0.999999999              -0.000002383               0.000177371               0.999999999              -0.000002929               0.000178274               0.999999999              -0.000002845               0.000181059               0.999999999              -0.000002316               0.000185726               0.999999999              -0.000001659               0.000192029               0.999999999              -0.000000905               0.000199791               0.999999999              -0.000000123               0.000208787               0.999999999               0.000000767               0.000218853               0.999999999               0.000001665               0.000230030               0.999999999               0.000002522               0.000242303               0.999999999               0.000003543               0.000255675               0.999999999               0.000004568               0.000270235               0.999999999               0.000005665               0.000286025               0.999999999               0.000006662               0.000302943               0.999999999               0.000007204               0.000320827               0.999999999               0.000007317               0.000339712               0.999999999               0.000000000               0.000178670               0.999999999              -0.000000000               0.000178632               0.999999999              -0.000000000               0.000179711               0.999999999              -0.000000000               0.000182587               0.999999999              -0.000000000               0.000187211               0.999999999              -0.000000000               0.000193481               0.999999999               0.000000000               0.000201181               0.999999999               0.000000000               0.000210062               0.999999999               0.000000000               0.000220068               0.999999999               0.000000000               0.000231103               0.999999999               0.000000000               0.000243194               0.999999999               0.000000000               0.000256594               0.999999999               0.000000000               0.000271188               0.999999999              -0.000000000               0.000286903               0.999999999              -0.000000000               0.000303724               0.999999999              -0.000000000               0.000321511               0.999999999               0.000000000               0.000340293               0.999999999 </DataArray>
<DataArray type="Float64"                                    Name="stress"                                                      NumberOfComponents="10" format="ascii">
              0.000292449               0.003273983              -0.000000000              -0.000299579               0.001191177               0.000891598               0.000000000               0.000000000               0.000000000               0.000000000               0.000341858               0.002732472              -0.000000000              -0.000213362               0.000981936               0.000768574               0.000000000               0.000000000               0.000000000               0.000000000               0.000496222               0.002292271               0.000000000              -0.000100450               0.000797566               0.000697116               0.000000000               0.000000000               0.000000000               0.000000000               0.000539273               0.002045661               0.000000000              -0.000053480               0.000699707               0.000646227               0.000000000               0.000000000               0.000000000               0.000000000               0.000532858               0.001902076              -0.000000000              -0.000037938               0.000646665               0.000608727               0.000000000               0.000000000               0.000000000               0.000000000               0.000504214               0.001818461               0.000000000              -0.000038227               0.000618890               0.000580663               0.000000000               0.000000000               0.000000000               0.000000000               0.000463238               0.001772735               0.000000000              -0.000047877               0.000606865               0.000558987               0.000000000               0.000000000               0.000000000               0.000000000               0.000413865               0.001749340              -0.000000000              -0.000063468               0.000604263               0.000540795               0.000000000               0.000000000               0.000000000               0.000000000               0.000364866               0.001744198              -0.000000000              -0.000081200               0.000608460               0.000527260               0.000000000               0.000000000               0.000000000               0.000000000               0.000316561               0.001750979               0.000000000              -0.000100162               0.000617041               0.000516879               0.000000000               0.000000000               0.000000000               0.000000000               0.000265519               0.001769812               0.000000000              -0.000121657               0.000630484               0.000508827               0.000000000               0.000000000               0.000000000               0.000000000               0.000215516               0.001797434               0.000000000              -0.000143860               0.000647092               0.000503232               0.000000000               0.000000000               0.000000000               0.000000000               0.000166929               0.001828192              -0.000000000              -0.000165925               0.000664700               0.000498774               0.000000000               0.000000000               0.000000000               0.000000000               0.000118480               0.001857474              -0.000000000              -0.000187754               0.000681737               0.000493983               0.000000000               0.000000000               0.000000000               0.000000000               0.000075744               0.001886827              -0.000000000              -0.000207449               0.000698086               0.000490637               0.000000000               0.000000000               0.000000000               0.000000000               0.000038161               0.001922860              -0.000000000              -0.000226047               0.000716296               0.000490249               0.000000000               0.000000000               0.000000000               0.000000000               0.000023360               0.001952948               0.000000000              -0.000235358               0.000729429               0.000494071               0.000000000               0.000000000               0.000000000               0.000000000               0.000312023               0.003223389              -0.000257942              -0.000285914               0.001169757               0.000883843               0.000000000               0.000000000               0.000000000               0.000000000               0.000349413               0.002696674              -0.000174954              -0.000206054               0.000967567               0.000761513               0.000000000               0.000000000               0.000000000               0.000000000               0.000490281               0.002271925              -0.000088782              -0.000100135               0.000790679               0.000690544               0.000000000               0.000000000               0.000000000               0.000000000               0.000527190               0.002035833              -0.000047542              -0.000056783               0.000697532               0.000640749               0.000000000               0.000000000               0.000000000               0.000000000               0.000517754               0.001898558              -0.000027295              -0.000043162               0.000647234               0.000604072               0.000000000               0.000000000               0.000000000               0.000000000               0.000488568               0.001819463              -0.000017346              -0.000044220               0.000621222               0.000577002               0.000000000               0.000000000               0.000000000               0.000000000               0.000447817               0.001774625              -0.000012828              -0.000053897               0.000609501               0.000555605               0.000000000               0.000000000               0.000000000               0.000000000               0.000401957               0.001753185              -0.000010886              -0.000068414               0.000607194               0.000538780               0.000000000               0.000000000               0.000000000               0.000000000               0.000354737               0.001746668              -0.000009475              -0.000085307               0.000610652               0.000525346               0.000000000               0.000000000               0.000000000               0.000000000               0.000306627               0.001754309              -0.000007416              -0.000104303               0.000619532               0.000515228               0.000000000               0.000000000               0.000000000               0.000000000               0.000256504               0.001771624              -0.000004558              -0.000125264               0.000632290               0.000507026               0.000000000               0.000000000               0.000000000               0.000000000               0.000206752               0.001797709              -0.000004313              -0.000147181               0.000648291               0.000501109               0.000000000               0.000000000               0.000000000               0.000000000               0.000158960               0.001825766              -0.000007146              -0.000168610               0.000664786               0.000496176               0.000000000               0.000000000               0.000000000               0.000000000               0.000115541               0.001852828              -0.000011123              -0.000188275               0.000680362               0.000492086               0.000000000               0.000000000               0.000000000               0.000000000               0.000076382               0.001879709              -0.000009830              -0.000206320               0.000695337               0.000489017               0.000000000               0.000000000               0.000000000               0.000000000               0.000038120               0.001911563              -0.000003578              -0.000224650               0.000712064               0.000487415               0.000000000               0.000000000               0.000000000               0.000000000               0.000022307               0.001938716              -0.000001243              -0.000233974               0.000724224               0.000490250               0.000000000               0.000000000               0.000000000               0.000000000               0.000368443               0.003079538              -0.000489481              -0.000246776               0.001108761               0.000861985               0.000000000               0.000000000               0.000000000               0.000000000               0.000370978               0.002594345              -0.000332456              -0.000185176               0.000926498               0.000741322               0.000000000               0.000000000               0.000000000               0.000000000               0.000472861               0.002217507              -0.000170287              -0.000099865               0.000772450               0.000672585               0.000000000               0.000000000               0.000000000               0.000000000               0.000491669               0.002010211              -0.000094589              -0.000066900               0.000692364               0.000625464               0.000000000               0.000000000               0.000000000               0.000000000               0.000475484               0.001889810              -0.000057879              -0.000057920               0.000649237               0.000591317               0.000000000               0.000000000               0.000000000               0.000000000               0.000445966               0.001819753              -0.000040071              -0.000060232               0.000626656               0.000566424               0.000000000               0.000000000               0.000000000               0.000000000               0.000408452               0.001780044              -0.000031092              -0.000069336               0.000616454               0.000547118               0.000000000               0.000000000               0.000000000               0.000000000               0.000366231               0.001758747              -0.000026901              -0.000082507               0.000613746               0.000531239               0.000000000               0.000000000               0.000000000               0.000000000               0.000324332               0.001754005              -0.000023131              -0.000097626               0.000617204               0.000519578               0.000000000               0.000000000               0.000000000               0.000000000               0.000279545               0.001761176              -0.000018066              -0.000115317               0.000625492               0.000510175               0.000000000               0.000000000               0.000000000               0.000000000               0.000232282               0.001777672              -0.000012622              -0.000135103               0.000637586               0.000502483               0.000000000               0.000000000               0.000000000               0.000000000               0.000188141               0.001799505              -0.000010898              -0.000154385               0.000651291               0.000496906               0.000000000               0.000000000               0.000000000               0.000000000               0.000146925               0.001821406              -0.000015631              -0.000172578               0.000664655               0.000492077               0.000000000               0.000000000               0.000000000               0.000000000               0.000108222               0.001841185              -0.000021544              -0.000189565               0.000676910               0.000487346               0.000000000               0.000000000               0.000000000               0.000000000               0.000070686               0.001861702              -0.000018486              -0.000206205               0.000689296               0.000483091               0.000000000               0.000000000               0.000000000               0.000000000               0.000032918               0.001884623              -0.000006810              -0.000223233               0.000702613               0.000479379               0.000000000               0.000000000               0.000000000               0.000000000               0.000017028               0.001902896              -0.000001657              -0.000231476               0.000711451               0.000479975               0.000000000               0.000000000               0.000000000               0.000000000               0.000444894               0.002856928              -0.000675211              -0.000190281               0.001015726               0.000825446               0.000000000               0.000000000               0.000000000               0.000000000               0.000397320               0.002437266              -0.000460220              -0.000155663               0.000864301               0.000708638               0.000000000               0.000000000               0.000000000               0.000000000               0.000444211               0.002137904              -0.000240732              -0.000100659               0.000746180               0.000645522               0.000000000               0.000000000               0.000000000               0.000000000               0.000439153               0.001972601              -0.000141514              -0.000081893               0.000684825               0.000602932               0.000000000               0.000000000               0.000000000               0.000000000               0.000414750               0.001875756              -0.000094074              -0.000078938               0.000651558               0.000572620               0.000000000               0.000000000               0.000000000               0.000000000               0.000385547               0.001818147              -0.000069449              -0.000082688               0.000633606               0.000550918               0.000000000               0.000000000               0.000000000               0.000000000               0.000353199               0.001784933              -0.000057157              -0.000090667               0.000625194               0.000534527               0.000000000               0.000000000               0.000000000               0.000000000               0.000317567               0.001767703              -0.000049106              -0.000101875               0.000623187               0.000521312               0.000000000               0.000000000               0.000000000               0.000000000               0.000281815               0.001765978              -0.000041416              -0.000115066               0.000627009               0.000511943               0.000000000               0.000000000               0.000000000               0.000000000               0.000242401               0.001773416              -0.000031930              -0.000130776               0.000634725               0.000503949               0.000000000               0.000000000               0.000000000               0.000000000               0.000202783               0.001788922              -0.000022882              -0.000147571               0.000645492               0.000497921               0.000000000               0.000000000               0.000000000               0.000000000               0.000165669               0.001803299              -0.000020335              -0.000163286               0.000655522               0.000492236               0.000000000               0.000000000               0.000000000               0.000000000               0.000130829               0.001815358              -0.000024466              -0.000177858               0.000664399               0.000486541               0.000000000               0.000000000               0.000000000               0.000000000               0.000097180               0.001826715              -0.000028240              -0.000191897               0.000672865               0.000480968               0.000000000               0.000000000               0.000000000               0.000000000               0.000064120               0.001840588              -0.000020981              -0.000206028               0.000682199               0.000476171               0.000000000               0.000000000               0.000000000               0.000000000               0.000030890               0.001852109              -0.000007632              -0.000219929               0.000690673               0.000470744               0.000000000               0.000000000               0.000000000               0.000000000               0.000015979               0.001859171              -0.000002603              -0.000226404               0.000695185               0.000468782               0.000000000               0.000000000               0.000000000               0.000000000               0.000523783               0.002572681              -0.000805250              -0.000125167               0.000899274               0.000774107               0.000000000               0.000000000               0.000000000               0.000000000               0.000420706               0.002242782              -0.000552670              -0.000122583               0.000788447               0.000665864               0.000000000               0.000000000               0.000000000               0.000000000               0.000406118               0.002039249              -0.000298747              -0.000102612               0.000713947               0.000611335               0.000000000               0.000000000               0.000000000               0.000000000               0.000377875               0.001924063              -0.000187770              -0.000098805               0.000674283               0.000575478               0.000000000               0.000000000               0.000000000               0.000000000               0.000348847               0.001856079              -0.000133837              -0.000101192               0.000652418               0.000551226               0.000000000               0.000000000               0.000000000               0.000000000               0.000321417               0.001814990              -0.000105343              -0.000106342               0.000640438               0.000534096               0.000000000               0.000000000               0.000000000               0.000000000               0.000294034               0.001790487              -0.000088153              -0.000113548               0.000634672               0.000521124               0.000000000               0.000000000               0.000000000               0.000000000               0.000264566               0.001779902              -0.000074602              -0.000123275               0.000634387               0.000511111               0.000000000               0.000000000               0.000000000               0.000000000               0.000233765               0.001780440              -0.000060727              -0.000134893               0.000638438               0.000503545               0.000000000               0.000000000               0.000000000               0.000000000               0.000202438               0.001791324              -0.000045263              -0.000148001               0.000646436               0.000498435               0.000000000               0.000000000               0.000000000               0.000000000               0.000171330               0.001803279              -0.000033067              -0.000161161               0.000654807               0.000493646               0.000000000               0.000000000               0.000000000               0.000000000               0.000144517               0.001811272              -0.000029210              -0.000172215               0.000661156               0.000488942               0.000000000               0.000000000               0.000000000               0.000000000               0.000117064               0.001815142              -0.000030440              -0.000182993               0.000666039               0.000483046               0.000000000               0.000000000               0.000000000               0.000000000               0.000086721               0.001819240              -0.000027686              -0.000194884               0.000671369               0.000476484               0.000000000               0.000000000               0.000000000               0.000000000               0.000056485               0.001829146              -0.000017320              -0.000207461               0.000678863               0.000471402               0.000000000               0.000000000               0.000000000               0.000000000               0.000025523               0.001836793              -0.000007345              -0.000220028               0.000685601               0.000465573               0.000000000               0.000000000               0.000000000               0.000000000               0.000012265               0.001842237              -0.000004988              -0.000225680               0.000689300               0.000463620               0.000000000               0.000000000               0.000000000               0.000000000               0.000595078               0.002253145              -0.000874404              -0.000058490               0.000770537               0.000712047               0.000000000               0.000000000               0.000000000               0.000000000               0.000438057               0.002030363              -0.000610475              -0.000089524               0.000706622               0.000617098               0.000000000               0.000000000               0.000000000               0.000000000               0.000365522               0.001932668              -0.000346401              -0.000104513               0.000679054               0.000574541               0.000000000               0.000000000               0.000000000               0.000000000               0.000321562               0.001869887              -0.000232461              -0.000113150               0.000661006               0.000547856               0.000000000               0.000000000               0.000000000               0.000000000               0.000289508               0.001829547              -0.000175334              -0.000120128               0.000649885               0.000529758               0.000000000               0.000000000               0.000000000               0.000000000               0.000264398               0.001805584              -0.000142397              -0.000126549               0.000644038               0.000517489               0.000000000               0.000000000               0.000000000               0.000000000               0.000241876               0.001793193              -0.000118961              -0.000133445               0.000642207               0.000508761               0.000000000               0.000000000               0.000000000               0.000000000               0.000216540               0.001791914              -0.000098493              -0.000142787               0.000644894               0.000502108               0.000000000               0.000000000               0.000000000               0.000000000               0.000190329               0.001801554              -0.000077622              -0.000153820               0.000651785               0.000497965               0.000000000               0.000000000               0.000000000               0.000000000               0.000166559               0.001815949              -0.000056996              -0.000164534               0.000660155               0.000495621               0.000000000               0.000000000               0.000000000               0.000000000               0.000144396               0.001824490              -0.000042764              -0.000173912               0.000666128               0.000492216               0.000000000               0.000000000               0.000000000               0.000000000               0.000126036               0.001826358              -0.000037197              -0.000181031               0.000669123               0.000488093               0.000000000               0.000000000               0.000000000               0.000000000               0.000107235               0.001826770              -0.000034949              -0.000188133               0.000671628               0.000483496               0.000000000               0.000000000               0.000000000               0.000000000               0.000082110               0.001833444              -0.000025654              -0.000198389               0.000677271               0.000478883               0.000000000               0.000000000               0.000000000               0.000000000               0.000053715               0.001847853              -0.000012114              -0.000210838               0.000686224               0.000475386               0.000000000               0.000000000               0.000000000               0.000000000               0.000025113               0.001863879              -0.000005379              -0.000223567               0.000695809               0.000472242               0.000000000               0.000000000               0.000000000               0.000000000               0.000015074               0.001877886              -0.000006169              -0.000229082               0.000702317               0.000473234               0.000000000               0.000000000               0.000000000               0.000000000               0.000645804               0.001927627              -0.000886933               0.000001222               0.000642128               0.000643350               0.000000000               0.000000000               0.000000000               0.000000000               0.000449160               0.001817332              -0.000637763              -0.000058732               0.000625348               0.000566617               0.000000000               0.000000000               0.000000000               0.000000000               0.000329484               0.001824758              -0.000385088              -0.000104538               0.000643093               0.000538554               0.000000000               0.000000000               0.000000000               0.000000000               0.000276627               0.001808660              -0.000274080              -0.000122347               0.000643663               0.000521316               0.000000000               0.000000000               0.000000000               0.000000000               0.000245344               0.001794114              -0.000213403              -0.000132260               0.000642119               0.000509859               0.000000000               0.000000000               0.000000000               0.000000000               0.000224040               0.001789104              -0.000174218              -0.000139623               0.000642903               0.000503280               0.000000000               0.000000000               0.000000000               0.000000000               0.000205057               0.001793582              -0.000144263              -0.000147301               0.000646955               0.000499654               0.000000000               0.000000000               0.000000000               0.000000000               0.000181609               0.001807230              -0.000116808              -0.000157800               0.000655004               0.000497204               0.000000000               0.000000000               0.000000000               0.000000000               0.000156259               0.001825386              -0.000089590              -0.000169576               0.000664981               0.000495406               0.000000000               0.000000000               0.000000000               0.000000000               0.000136987               0.001842639              -0.000066738              -0.000178959               0.000673860               0.000494901               0.000000000               0.000000000               0.000000000               0.000000000               0.000122179               0.001849883              -0.000052860              -0.000185418               0.000678427               0.000493010               0.000000000               0.000000000               0.000000000               0.000000000               0.000109730               0.001853134              -0.000045799              -0.000190492               0.000681203               0.000490710               0.000000000               0.000000000               0.000000000               0.000000000               0.000096049               0.001864234              -0.000037999              -0.000197010               0.000687075               0.000490065               0.000000000               0.000000000               0.000000000               0.000000000               0.000076236               0.001888059              -0.000023561              -0.000207418               0.000698486               0.000491068               0.000000000               0.000000000               0.000000000               0.000000000               0.000052213               0.001916707              -0.000009721              -0.000220008               0.000712232               0.000492224               0.000000000               0.000000000               0.000000000               0.000000000               0.000025913               0.001945441              -0.000004348              -0.000233462               0.000726294               0.000492832               0.000000000               0.000000000               0.000000000               0.000000000               0.000016620               0.001967087              -0.000006133              -0.000239653               0.000735573               0.000495921               0.000000000               0.000000000               0.000000000               0.000000000               0.000672812               0.001613715              -0.000853180               0.000050589               0.000521036               0.000571625               0.000000000               0.000000000               0.000000000               0.000000000               0.000452604               0.001614816              -0.000639789              -0.000032126               0.000548975               0.000516849               0.000000000               0.000000000               0.000000000               0.000000000               0.000301683               0.001715994              -0.000415850              -0.000101368               0.000605782               0.000504413               0.000000000               0.000000000               0.000000000               0.000000000               0.000248409               0.001740691              -0.000308776              -0.000124433               0.000621702               0.000497269               0.000000000               0.000000000               0.000000000               0.000000000               0.000221993               0.001754282              -0.000243490              -0.000136038               0.000630101               0.000494063               0.000000000               0.000000000               0.000000000               0.000000000               0.000203259               0.001770755              -0.000197221              -0.000145122               0.000638620               0.000493498               0.000000000               0.000000000               0.000000000               0.000000000               0.000184135               0.001793518              -0.000160398              -0.000155139               0.000649546               0.000494407               0.000000000               0.000000000               0.000000000               0.000000000               0.000161087               0.001821168              -0.000127741              -0.000167238               0.000662796               0.000495558               0.000000000               0.000000000               0.000000000               0.000000000               0.000136388               0.001847074              -0.000096940              -0.000179738               0.000675598               0.000495860               0.000000000               0.000000000               0.000000000               0.000000000               0.000118403               0.001867073              -0.000073341              -0.000188982               0.000685345               0.000496363               0.000000000               0.000000000               0.000000000               0.000000000               0.000109488               0.001883293              -0.000058876              -0.000194353               0.000692542               0.000498189               0.000000000               0.000000000               0.000000000               0.000000000               0.000101379               0.001907784              -0.000047490              -0.000200455               0.000702740               0.000502285               0.000000000               0.000000000               0.000000000               0.000000000               0.000087200               0.001946053              -0.000034048              -0.000210556               0.000718863               0.000508307               0.000000000               0.000000000               0.000000000               0.000000000               0.000068509               0.001994222              -0.000017212              -0.000223586               0.000739263               0.000515676               0.000000000               0.000000000               0.000000000               0.000000000               0.000048133               0.002044293              -0.000004748              -0.000237486               0.000760586               0.000523100               0.000000000               0.000000000               0.000000000               0.000000000               0.000023997               0.002091681              -0.000001386              -0.000252461               0.000781374               0.000528913               0.000000000               0.000000000               0.000000000               0.000000000               0.000013884               0.002123754              -0.000004454              -0.000260262               0.000794665               0.000534403               0.000000000               0.000000000               0.000000000               0.000000000               0.000688385               0.001335299              -0.000786894               0.000091230               0.000414685               0.000505915               0.000000000               0.000000000               0.000000000               0.000000000               0.000460259               0.001430889              -0.000627830              -0.000006265               0.000479046               0.000472781               0.000000000               0.000000000               0.000000000               0.000000000               0.000292126               0.001612491              -0.000447598              -0.000092014               0.000568163               0.000476149               0.000000000               0.000000000               0.000000000               0.000000000               0.000241448               0.001678498              -0.000343529              -0.000119269               0.000599250               0.000479981               0.000000000               0.000000000               0.000000000               0.000000000               0.000222377               0.001720412              -0.000273059              -0.000131660               0.000617352               0.000485692               0.000000000               0.000000000               0.000000000               0.000000000               0.000204968               0.001754089              -0.000218702              -0.000142398               0.000632156               0.000489759               0.000000000               0.000000000               0.000000000               0.000000000               0.000183763               0.001790113              -0.000174759              -0.000154853               0.000648316               0.000493463               0.000000000               0.000000000               0.000000000               0.000000000               0.000159142               0.001829513              -0.000138576              -0.000169010               0.000666168               0.000497158               0.000000000               0.000000000               0.000000000               0.000000000               0.000137242               0.001865705              -0.000109094              -0.000181747               0.000682478               0.000500731               0.000000000               0.000000000               0.000000000               0.000000000               0.000123249               0.001893830              -0.000083697              -0.000190510               0.000694774               0.000504264               0.000000000               0.000000000               0.000000000               0.000000000               0.000118844               0.001925835              -0.000061721              -0.000196162               0.000707326               0.000511164               0.000000000               0.000000000               0.000000000               0.000000000               0.000111514               0.001972459              -0.000043115              -0.000204739               0.000725726               0.000520987               0.000000000               0.000000000               0.000000000               0.000000000               0.000094782               0.002034344              -0.000026080              -0.000218749               0.000751024               0.000532275               0.000000000               0.000000000               0.000000000               0.000000000               0.000075911               0.002107364              -0.000009019              -0.000234953               0.000780766               0.000545812               0.000000000               0.000000000               0.000000000               0.000000000               0.000059697               0.002179135               0.000002574              -0.000250005               0.000809706               0.000559701               0.000000000               0.000000000               0.000000000               0.000000000               0.000045931               0.002245139               0.000006103              -0.000263418               0.000836178               0.000572760               0.000000000               0.000000000               0.000000000               0.000000000               0.000038990               0.002282838               0.000004881              -0.000270733               0.000851183               0.000580450               0.000000000               0.000000000               0.000000000               0.000000000               0.000682629               0.001063339              -0.000703704               0.000123067               0.000313420               0.000436487               0.000000000               0.000000000               0.000000000               0.000000000               0.000475759               0.001214954              -0.000609887               0.000026539               0.000396134               0.000422673               0.000000000               0.000000000               0.000000000               0.000000000               0.000306963               0.001456505              -0.000485927              -0.000066952               0.000507814               0.000440862               0.000000000               0.000000000               0.000000000               0.000000000               0.000254999               0.001568843              -0.000389318              -0.000100481               0.000556436               0.000455955               0.000000000               0.000000000               0.000000000               0.000000000               0.000235599               0.001637295              -0.000314674              -0.000116312               0.000584530               0.000468218               0.000000000               0.000000000               0.000000000               0.000000000               0.000220138               0.001687021              -0.000252619              -0.000128326               0.000605110               0.000476784               0.000000000               0.000000000               0.000000000               0.000000000               0.000200800               0.001737000              -0.000203038              -0.000141825               0.000626269               0.000484444               0.000000000               0.000000000               0.000000000               0.000000000               0.000178345               0.001787177              -0.000165239              -0.000156517               0.000647892               0.000491375               0.000000000               0.000000000               0.000000000               0.000000000               0.000157537               0.001835478              -0.000135574              -0.000170358               0.000668606               0.000498248               0.000000000               0.000000000               0.000000000               0.000000000               0.000143531               0.001881837              -0.000107024              -0.000181405               0.000687741               0.000506336               0.000000000               0.000000000               0.000000000               0.000000000               0.000134897               0.001926527              -0.000078585              -0.000190229               0.000705579               0.000515350               0.000000000               0.000000000               0.000000000               0.000000000               0.000129200               0.001979657              -0.000052517              -0.000199007               0.000726214               0.000527208               0.000000000               0.000000000               0.000000000               0.000000000               0.000119032               0.002049759              -0.000029637              -0.000211582               0.000753774               0.000542191               0.000000000               0.000000000               0.000000000               0.000000000               0.000107163               0.002135696              -0.000012573              -0.000226775               0.000787483               0.000560708               0.000000000               0.000000000               0.000000000               0.000000000               0.000096962               0.002225530              -0.000002284              -0.000241830               0.000822446               0.000580616               0.000000000               0.000000000               0.000000000               0.000000000               0.000091775               0.002311838               0.000001586              -0.000254563               0.000855459               0.000600896               0.000000000               0.000000000               0.000000000               0.000000000               0.000086027               0.002351522               0.000003591              -0.000261679               0.000871059               0.000609380               0.000000000               0.000000000               0.000000000               0.000000000               0.000645639               0.000802960              -0.000605121               0.000141743               0.000220403               0.000362145               0.000000000               0.000000000               0.000000000               0.000000000               0.000491099               0.000996548              -0.000576398               0.000059592               0.000312315               0.000371907               0.000000000               0.000000000               0.000000000               0.000000000               0.000340340               0.001281453              -0.000513108              -0.000032555               0.000437998               0.000405443               0.000000000               0.000000000               0.000000000               0.000000000               0.000285979               0.001435963              -0.000432361              -0.000072253               0.000502734               0.000430480               0.000000000               0.000000000               0.000000000               0.000000000               0.000261489               0.001530386              -0.000358369              -0.000093240               0.000541204               0.000447964               0.000000000               0.000000000               0.000000000               0.000000000               0.000245990               0.001601982              -0.000292589              -0.000108002               0.000569989               0.000461988               0.000000000               0.000000000               0.000000000               0.000000000               0.000230504               0.001669832              -0.000238853              -0.000122290               0.000597368               0.000475078               0.000000000               0.000000000               0.000000000               0.000000000               0.000210239               0.001731891              -0.000198768              -0.000137646               0.000623173               0.000485527               0.000000000               0.000000000               0.000000000               0.000000000               0.000188090               0.001792037              -0.000167636              -0.000153470               0.000648496               0.000495026               0.000000000               0.000000000               0.000000000               0.000000000               0.000170005               0.001850275              -0.000136281              -0.000167532               0.000672596               0.000505064               0.000000000               0.000000000               0.000000000               0.000000000               0.000158621               0.001904429              -0.000103838              -0.000178570               0.000694327               0.000515756               0.000000000               0.000000000               0.000000000               0.000000000               0.000154445               0.001963299              -0.000072345              -0.000187495               0.000716925               0.000529430               0.000000000               0.000000000               0.000000000               0.000000000               0.000153408               0.002033803              -0.000045024              -0.000196697               0.000743493               0.000546796               0.000000000               0.000000000               0.000000000               0.000000000               0.000152212               0.002118337              -0.000026529              -0.000207712               0.000775343               0.000567631               0.000000000               0.000000000               0.000000000               0.000000000               0.000149619               0.002211346              -0.000015089              -0.000220310               0.000810545               0.000590234               0.000000000               0.000000000               0.000000000               0.000000000               0.000146292               0.002307002              -0.000007260              -0.000233515               0.000846831               0.000613316               0.000000000               0.000000000               0.000000000               0.000000000               0.000136119               0.002348631              -0.000000136              -0.000242534               0.000863714               0.000621180               0.000000000               0.000000000               0.000000000               0.000000000               0.000579554               0.000567967              -0.000491701               0.000146335               0.000140542               0.000286877               0.000000000               0.000000000               0.000000000               0.000000000               0.000493205               0.000785552              -0.000518529               0.000086756               0.000232929               0.000319685               0.000000000               0.000000000               0.000000000               0.000000000               0.000381587               0.001089759              -0.000510145               0.000006874               0.000360958               0.000367832               0.000000000               0.000000000               0.000000000               0.000000000               0.000328403               0.001274319              -0.000451695              -0.000036139               0.000436815               0.000400676               0.000000000               0.000000000               0.000000000               0.000000000               0.000298805               0.001396611              -0.000384734              -0.000062525               0.000486374               0.000423849               0.000000000               0.000000000               0.000000000               0.000000000               0.000280342               0.001493580              -0.000320820              -0.000081569               0.000525045               0.000443476               0.000000000               0.000000000               0.000000000               0.000000000               0.000264868               0.001581016              -0.000266794              -0.000098302               0.000559767               0.000461466               0.000000000               0.000000000               0.000000000               0.000000000               0.000247040               0.001660849              -0.000225032              -0.000114966               0.000591933               0.000476967               0.000000000               0.000000000               0.000000000               0.000000000               0.000225111               0.001732740              -0.000192243              -0.000132176               0.000621633               0.000489457               0.000000000               0.000000000               0.000000000               0.000000000               0.000201588               0.001797387              -0.000160574              -0.000149078               0.000648815               0.000499738               0.000000000               0.000000000               0.000000000               0.000000000               0.000187575               0.001860862              -0.000129543              -0.000162267               0.000674370               0.000512103               0.000000000               0.000000000               0.000000000               0.000000000               0.000184704               0.001928656              -0.000097786              -0.000171818               0.000700152               0.000528334               0.000000000               0.000000000               0.000000000               0.000000000               0.000189788               0.002009176              -0.000068244              -0.000179976               0.000729711               0.000549735               0.000000000               0.000000000               0.000000000               0.000000000               0.000196670               0.002101262              -0.000047405              -0.000188906               0.000763382               0.000574476               0.000000000               0.000000000               0.000000000               0.000000000               0.000201106               0.002198839              -0.000033979              -0.000199440               0.000799419               0.000599979               0.000000000               0.000000000               0.000000000               0.000000000               0.000198011               0.002300317              -0.000019595              -0.000213285               0.000837859               0.000624575               0.000000000               0.000000000               0.000000000               0.000000000               0.000182398               0.002343169              -0.000006688              -0.000224496               0.000855881               0.000631384               0.000000000               0.000000000               0.000000000               0.000000000               0.000492320               0.000374788              -0.000371306               0.000137770               0.000079005               0.000216774               0.000000000               0.000000000               0.000000000               0.000000000               0.000483629               0.000592630              -0.000438326               0.000107281               0.000161781               0.000269062               0.000000000               0.000000000               0.000000000               0.000000000               0.000425090               0.000891906              -0.000472647               0.000047919               0.000281326               0.000329245               0.000000000               0.000000000               0.000000000               0.000000000               0.000381135               0.001096408              -0.000436593               0.000005874               0.000363507               0.000369382               0.000000000               0.000000000               0.000000000               0.000000000               0.000347591               0.001243766              -0.000382646              -0.000025124               0.000422959               0.000397835               0.000000000               0.000000000               0.000000000               0.000000000               0.000326321               0.001365014              -0.000325873              -0.000048256               0.000471085               0.000422829               0.000000000               0.000000000               0.000000000               0.000000000               0.000307632               0.001471143              -0.000275587              -0.000068531               0.000513220               0.000444689               0.000000000               0.000000000               0.000000000               0.000000000               0.000289917               0.001567672              -0.000235477              -0.000087240               0.000551632               0.000464392               0.000000000               0.000000000               0.000000000               0.000000000               0.000269296               0.001651153              -0.000202224              -0.000105408               0.000585515               0.000480107               0.000000000               0.000000000               0.000000000               0.000000000               0.000248384               0.001722959              -0.000173504              -0.000122226               0.000615056               0.000492830               0.000000000               0.000000000               0.000000000               0.000000000               0.000231658               0.001796188              -0.000147366              -0.000137652               0.000644607               0.000506956               0.000000000               0.000000000               0.000000000               0.000000000               0.000224651               0.001878263              -0.000118957              -0.000150539               0.000676261               0.000525722               0.000000000               0.000000000               0.000000000               0.000000000               0.000230627               0.001975879              -0.000090778              -0.000160499               0.000712119               0.000551620               0.000000000               0.000000000               0.000000000               0.000000000               0.000242524               0.002083728              -0.000069609              -0.000169519               0.000751075               0.000581556               0.000000000               0.000000000               0.000000000               0.000000000               0.000252692               0.002196452              -0.000051806              -0.000179796               0.000792075               0.000612279               0.000000000               0.000000000               0.000000000               0.000000000               0.000253613               0.002306160              -0.000028591              -0.000193164               0.000833101               0.000639936               0.000000000               0.000000000               0.000000000               0.000000000               0.000239704               0.002350904              -0.000011596              -0.000203973               0.000851618               0.000647645               0.000000000               0.000000000               0.000000000               0.000000000               0.000397256               0.000232408              -0.000256610               0.000119919               0.000037495               0.000157414               0.000000000               0.000000000               0.000000000               0.000000000               0.000466866               0.000431147              -0.000340635               0.000121180               0.000103321               0.000224501               0.000000000               0.000000000               0.000000000               0.000000000               0.000466889               0.000706250              -0.000397839               0.000086801               0.000206481               0.000293282               0.000000000               0.000000000               0.000000000               0.000000000               0.000437803               0.000919931              -0.000381182               0.000049184               0.000290246               0.000339430               0.000000000               0.000000000               0.000000000               0.000000000               0.000405292               0.001087328              -0.000342604               0.000016068               0.000357083               0.000373151               0.000000000               0.000000000               0.000000000               0.000000000               0.000378097               0.001227069              -0.000297002              -0.000011598               0.000412885               0.000401287               0.000000000               0.000000000               0.000000000               0.000000000               0.000357285               0.001349989              -0.000254924              -0.000034767               0.000461581               0.000426814               0.000000000               0.000000000               0.000000000               0.000000000               0.000337486               0.001458212              -0.000220544              -0.000055719               0.000504639               0.000448920               0.000000000               0.000000000               0.000000000               0.000000000               0.000317954               0.001551514              -0.000192119              -0.000074706               0.000542068               0.000467362               0.000000000               0.000000000               0.000000000               0.000000000               0.000300034               0.001638866              -0.000167702              -0.000092345               0.000577065               0.000484720               0.000000000               0.000000000               0.000000000               0.000000000               0.000283572               0.001729351              -0.000144664              -0.000109829               0.000613054               0.000503225               0.000000000               0.000000000               0.000000000               0.000000000               0.000272683               0.001829076              -0.000123957              -0.000126378               0.000651812               0.000525434               0.000000000               0.000000000               0.000000000               0.000000000               0.000278965               0.001944121              -0.000104913              -0.000138403               0.000694168               0.000555765               0.000000000               0.000000000               0.000000000               0.000000000               0.000293951               0.002066932              -0.000085389              -0.000148135               0.000738349               0.000590214               0.000000000               0.000000000               0.000000000               0.000000000               0.000306863               0.002192547              -0.000063763              -0.000158994               0.000783840               0.000624846               0.000000000               0.000000000               0.000000000               0.000000000               0.000312731               0.002309560              -0.000035017              -0.000171420               0.000826986               0.000655565               0.000000000               0.000000000               0.000000000               0.000000000               0.000305987               0.002358852              -0.000016530              -0.000180111               0.000846313               0.000666202               0.000000000               0.000000000               0.000000000               0.000000000               0.000310165               0.000140764              -0.000158062               0.000098715               0.000014016               0.000112731               0.000000000               0.000000000               0.000000000               0.000000000               0.000446483               0.000309767              -0.000232591               0.000128709               0.000060352               0.000189061               0.000000000               0.000000000               0.000000000               0.000000000               0.000502064               0.000552446              -0.000288301               0.000119217               0.000144408               0.000263625               0.000000000               0.000000000               0.000000000               0.000000000               0.000489490               0.000767832              -0.000284219               0.000087579               0.000226749               0.000314327               0.000000000               0.000000000               0.000000000               0.000000000               0.000459298               0.000948167              -0.000259976               0.000053715               0.000298148               0.000351863               0.000000000               0.000000000               0.000000000               0.000000000               0.000428253               0.001101473              -0.000228740               0.000022910               0.000359517               0.000382427               0.000000000               0.000000000               0.000000000               0.000000000               0.000404368               0.001236896              -0.000199139              -0.000002974               0.000413286               0.000410312               0.000000000               0.000000000               0.000000000               0.000000000               0.000381787               0.001351885              -0.000174574              -0.000025816               0.000459229               0.000433413               0.000000000               0.000000000               0.000000000               0.000000000               0.000361753               0.001456660              -0.000154069              -0.000046425               0.000501024               0.000454599               0.000000000               0.000000000               0.000000000               0.000000000               0.000343737               0.001562775              -0.000134825              -0.000066445               0.000543068               0.000476623               0.000000000               0.000000000               0.000000000               0.000000000               0.000329815               0.001671293              -0.000117204              -0.000085231               0.000585502               0.000500272               0.000000000               0.000000000               0.000000000               0.000000000               0.000325830               0.001789000              -0.000106011              -0.000101439               0.000630140               0.000528702               0.000000000               0.000000000               0.000000000               0.000000000               0.000330438               0.001916898              -0.000097440              -0.000115698               0.000677525               0.000561828               0.000000000               0.000000000               0.000000000               0.000000000               0.000343714               0.002049510              -0.000083143              -0.000127296               0.000725595               0.000598299               0.000000000               0.000000000               0.000000000               0.000000000               0.000359948               0.002180780              -0.000061184              -0.000137617               0.000772792               0.000635175               0.000000000               0.000000000               0.000000000               0.000000000               0.000372715               0.002301976              -0.000032813              -0.000147979               0.000816644               0.000668665               0.000000000               0.000000000               0.000000000               0.000000000               0.000374089               0.002356437              -0.000016656              -0.000154271               0.000836895               0.000682624               0.000000000               0.000000000               0.000000000               0.000000000               0.000250649               0.000087375              -0.000074806               0.000083071               0.000001434               0.000084505               0.000000000               0.000000000               0.000000000               0.000000000               0.000430673               0.000232584              -0.000117561               0.000132428               0.000033384               0.000165812               0.000000000               0.000000000               0.000000000               0.000000000               0.000523584               0.000450301              -0.000151124               0.000140055               0.000103414               0.000243469               0.000000000               0.000000000               0.000000000               0.000000000               0.000526167               0.000663850              -0.000152228               0.000114330               0.000183171               0.000297501               0.000000000               0.000000000               0.000000000               0.000000000               0.000497857               0.000850796              -0.000140652               0.000080346               0.000256814               0.000337160               0.000000000               0.000000000               0.000000000               0.000000000               0.000466367               0.001013559              -0.000125111               0.000048192               0.000321785               0.000369978               0.000000000               0.000000000               0.000000000               0.000000000               0.000438086               0.001154411              -0.000109982               0.000019981               0.000378139               0.000398120               0.000000000               0.000000000               0.000000000               0.000000000               0.000412611               0.001275027              -0.000097202              -0.000004649               0.000426554               0.000421905               0.000000000               0.000000000               0.000000000               0.000000000               0.000390420               0.001389464              -0.000086493              -0.000027276               0.000472242               0.000444966               0.000000000               0.000000000               0.000000000               0.000000000               0.000374820               0.001506925              -0.000074636              -0.000047808               0.000518239               0.000470431               0.000000000               0.000000000               0.000000000               0.000000000               0.000367229               0.001629780              -0.000066436              -0.000066011               0.000565258               0.000499247               0.000000000               0.000000000               0.000000000               0.000000000               0.000368233               0.001761898              -0.000062816              -0.000082150               0.000614677               0.000532527               0.000000000               0.000000000               0.000000000               0.000000000               0.000372069               0.001899558              -0.000059487              -0.000097919               0.000665819               0.000567901               0.000000000               0.000000000               0.000000000               0.000000000               0.000380226               0.002035971              -0.000053366              -0.000111911               0.000715954               0.000604043               0.000000000               0.000000000               0.000000000               0.000000000               0.000394939               0.002162570              -0.000038354              -0.000122219               0.000761589               0.000639370               0.000000000               0.000000000               0.000000000               0.000000000               0.000420110               0.002285014              -0.000017725              -0.000128085               0.000804359               0.000676274               0.000000000               0.000000000               0.000000000               0.000000000               0.000436173               0.002346445              -0.000007159              -0.000129741               0.000825388               0.000695647               0.000000000               0.000000000               0.000000000               0.000000000               0.000230026               0.000067970              -0.000000000               0.000077763              -0.000003264               0.000074498               0.000000000               0.000000000               0.000000000               0.000000000               0.000424939               0.000205573               0.000000000               0.000133654               0.000023972               0.000157626               0.000000000               0.000000000               0.000000000               0.000000000               0.000530164               0.000415563               0.000000000               0.000146865               0.000089565               0.000236429               0.000000000               0.000000000               0.000000000               0.000000000               0.000539605               0.000627052              -0.000000000               0.000123969               0.000167692               0.000291661               0.000000000               0.000000000               0.000000000               0.000000000               0.000512077               0.000815393              -0.000000000               0.000090104               0.000241760               0.000331864               0.000000000               0.000000000               0.000000000               0.000000000               0.000480625               0.000982188               0.000000000               0.000057460               0.000308239               0.000365700               0.000000000               0.000000000               0.000000000               0.000000000               0.000450160               0.001123704               0.000000000               0.000028347               0.000365115               0.000393462               0.000000000               0.000000000               0.000000000               0.000000000               0.000423652               0.001247698               0.000000000               0.000002907               0.000414926               0.000417833               0.000000000               0.000000000               0.000000000               0.000000000               0.000400418               0.001364798              -0.000000000              -0.000020443               0.000461743               0.000441299               0.000000000               0.000000000               0.000000000               0.000000000               0.000385814               0.001482658              -0.000000000              -0.000040652               0.000507765               0.000467113               0.000000000               0.000000000               0.000000000               0.000000000               0.000383725               0.001615687               0.000000000              -0.000058064               0.000557912               0.000499848               0.000000000               0.000000000               0.000000000               0.000000000               0.000384633               0.001756885               0.000000000              -0.000075373               0.000610747               0.000535374               0.000000000               0.000000000               0.000000000               0.000000000               0.000387693               0.001894178              -0.000000000              -0.000091387               0.000661849               0.000570462               0.000000000               0.000000000               0.000000000               0.000000000               0.000392791               0.002027525              -0.000000000              -0.000106144               0.000711216               0.000605072               0.000000000               0.000000000               0.000000000               0.000000000               0.000405471               0.002152052               0.000000000              -0.000116954               0.000756328               0.000639374               0.000000000               0.000000000               0.000000000               0.000000000               0.000438842               0.002276953               0.000000000              -0.000120053               0.000798995               0.000678941               0.000000000               0.000000000               0.000000000               0.000000000               0.000465060               0.002342492               0.000000000              -0.000118414               0.000820294               0.000701880               0.000000000               0.000000000               0.000000000               0.000000000               0.000000000               0.000000000               0.000000000               0.000000000               0.000000000               0.000000000               0.000000000               0.000000000               0.000000000               0.000000000               0.000000000               0.000000000               0.000000000               0.000000000               0.000000000               0.000000000               0.000000000               0.000000000               0.000000000               0.000000000               0.000000000               0.000000000               0.000000000               0.000000000               0.000000000               0.000000000               0.000000000               0.000000000               0.000000000               0.000000000               0.000000000               0.000000000               0.000000000               0.000000000               0.000000000               0.000000000               0.000000000               0.000000000               0.000000000               0.000000000               0.000000000               0.000000000               0.000000000               0.000000000               0.000000000               0.000000000               0.000000000               0.000000000               0.000000000               0.000000000               0.000000000               0.000000000               0.000000000               0.000000000               0.000000000               0.000000000               0.000000000               0.000000000               0.000000000               0.000000000               0.000000000               0.000000000               0.000000000               0.000000000               0.000000000               0.000000000               0.000000000               0.000000000               0.000000000               0.000000000               0.000000000               0.000000000               0.000000000               0.000000000               0.000000000               0.000000000               0.000000000               0.000000000               0.000000000               0.000000000               0.000000000               0.000000000               0.000000000               0.000000000               0.000000000               0.000000000               0.000000000               0.000000000               0.000000000               0.000000000               0.000000000               0.000000000               0.000000000               0.000000000               0.000000000               0.000000000               0.000000000               0.000000000               0.000000000               0.000000000               0.000000000               0.000000000               0.000000000               0.000000000               0.000000000               0.000000000               0.000000000               0.000000000               0.000000000               0.000000000               0.000000000               0.000000000               0.000000000               0.000000000               0.000000000               0.000000000               0.000000000               0.000000000               0.000000000               0.000000000               0.000000000               0.000000000               0.000000000               0.000000000               0.000000000               0.000000000               0.000000000               0.000000000               0.000000000               0.000000000               0.000000000               0.000000000               0.000000000               0.000000000               0.000000000               0.000000000               0.000000000               0.000000000               0.000000000               0.000000000               0.000000000               0.000000000               0.000000000               0.000000000               0.000000000               0.000000000               0.000000000               0.000000000               0.000000000               0.000000000               0.000000000               0.000000000               0.000000000               0.000000000               0.000000000               0.000000000               0.000000000               0.000000000               0.000000000               0.000000000               0.000000000               0.000000000               0.000000000               0.000000000               0.000000000               0.000000000               0.000000000               0.000000000               0.000000000               0.000000000               0.000312023               0.003223389               0.000257942              -0.000285914               0.001169757               0.000883843               0.000000000               0.000000000               0.000000000               0.000000000               0.000349413               0.002696674               0.000174954              -0.000206054               0.000967567               0.000761513               0.000000000               0.000000000               0.000000000               0.000000000               0.000490281               0.002271925               0.000088782              -0.000100135               0.000790679               0.000690544               0.000000000               0.000000000               0.000000000               0.000000000               0.000527190               0.002035833               0.000047542              -0.000056783               0.000697532               0.000640749               0.000000000               0.000000000               0.000000000               0.000000000               0.000517754               0.001898558               0.000027295              -0.000043162               0.000647234               0.000604072               0.000000000               0.000000000               0.000000000               0.000000000               0.000488568               0.001819463               0.000017346              -0.000044220               0.000621222               0.000577002               0.000000000               0.000000000               0.000000000               0.000000000               0.000447817               0.001774625               0.000012828              -0.000053897               0.000609501               0.000555605               0.000000000               0.000000000               0.000000000               0.000000000               0.000401957               0.001753185               0.000010886              -0.000068414               0.000607194               0.000538780               0.000000000               0.000000000               0.000000000               0.000000000               0.000354737               0.001746668               0.000009475              -0.000085307               0.000610652               0.000525346               0.000000000               0.000000000               0.000000000               0.000000000               0.000306627               0.001754309               0.000007416              -0.000104303               0.000619532               0.000515228               0.000000000               0.000000000               0.000000000               0.000000000               0.000256504               0.001771624               0.000004558              -0.000125264               0.000632290               0.000507026               0.000000000               0.000000000               0.000000000               0.000000000               0.000206752               0.001797709               0.000004313              -0.000147181               0.000648291               0.000501109               0.000000000               0.000000000               0.000000000               0.000000000               0.000158960               0.001825766               0.000007146              -0.000168610               0.000664786               0.000496176               0.000000000               0.000000000               0.000000000               0.000000000               0.000115541               0.001852828               0.000011123              -0.000188275               0.000680362               0.000492086               0.000000000               0.000000000               0.000000000               0.000000000               0.000076382               0.001879709               0.000009830              -0.000206320               0.000695337               0.000489017               0.000000000               0.000000000               0.000000000               0.000000000               0.000038120               0.001911563               0.000003578              -0.000224650               0.000712064               0.000487415               0.000000000               0.000000000               0.000000000               0.000000000               0.000022307               0.001938716               0.000001243              -0.000233974               0.000724224               0.000490250               0.000000000               0.000000000               0.000000000               0.000000000               0.000368443               0.003079538               0.000489481              -0.000246776               0.001108761               0.000861985               0.000000000               0.000000000               0.000000000               0.000000000               0.000370978               0.002594345               0.000332456              -0.000185176               0.000926498               0.000741322               0.000000000               0.000000000               0.000000000               0.000000000               0.000472861               0.002217507               0.000170287              -0.000099865               0.000772450               0.000672585               0.000000000               0.000000000               0.000000000               0.000000000               0.000491669               0.002010211               0.000094589              -0.000066900               0.000692364               0.000625464               0.000000000               0.000000000               0.000000000               0.000000000               0.000475484               0.001889810               0.000057879              -0.000057920               0.000649237               0.000591317               0.000000000               0.000000000               0.000000000               0.000000000               0.000445966               0.001819753               0.000040071              -0.000060232               0.000626656               0.000566424               0.000000000               0.000000000               0.000000000               0.000000000               0.000408452               0.001780044               0.000031092              -0.000069336               0.000616454               0.000547118               0.000000000               0.000000000               0.000000000               0.000000000               0.000366231               0.001758747               0.000026901              -0.000082507               0.000613746               0.000531239               0.000000000               0.000000000               0.000000000               0.000000000               0.000324332               0.001754005               0.000023131              -0.000097626               0.000617204               0.000519578               0.000000000               0.000000000               0.000000000               0.000000000               0.000279545               0.001761176               0.000018066              -0.000115317               0.000625492               0.000510175               0.000000000               0.000000000               0.000000000               0.000000000               0.000232282               0.001777672               0.000012622              -0.000135103               0.000637586               0.000502483               0.000000000               0.000000000               0.000000000               0.000000000               0.000188141               0.001799505               0.000010898              -0.000154385               0.000651291               0.000496906               0.000000000               0.000000000               0.000000000               0.000000000               0.000146925               0.001821406               0.000015631              -0.000172578               0.000664655               0.000492077               0.000000000               0.000000000               0.000000000               0.000000000               0.000108222               0.001841185               0.000021544              -0.000189565               0.000676910               0.000487346               0.000000000               0.000000000               0.000000000               0.000000000               0.000070686               0.001861702               0.000018486              -0.000206205               0.000689296               0.000483091               0.000000000               0.000000000               0.000000000               0.000000000               0.000032918               0.001884623               0.000006810              -0.000223233               0.000702613               0.000479379               0.000000000               0.000000000               0.000000000               0.000000000               0.000017028               0.001902896               0.000001657              -0.000231476               0.000711451               0.000479975               0.000000000               0.000000000               0.000000000               0.000000000               0.000444894               0.002856928               0.000675211              -0.000190281               0.001015726               0.000825446               0.000000000               0.000000000               0.000000000               0.000000000               0.000397320               0.002437266               0.000460220              -0.000155663               0.000864301               0.000708638               0.000000000               0.000000000               0.000000000               0.000000000               0.000444211               0.002137904               0.000240732              -0.000100659               0.000746180               0.000645522               0.000000000               0.000000000               0.000000000               0.000000000               0.000439153               0.001972601               0.000141514              -0.000081893               0.000684825               0.000602932               0.000000000               0.000000000               0.000000000               0.000000000               0.000414750               0.001875756               0.000094074              -0.000078938               0.000651558               0.000572620               0.000000000               0.000000000               0.000000000               0.000000000               0.000385547               0.001818147               0.000069449              -0.000082688               0.000633606               0.000550918               0.000000000               0.000000000               0.000000000               0.000000000               0.000353199               0.001784933               0.000057157              -0.000090667               0.000625194               0.000534527               0.000000000               0.000000000               0.000000000               0.000000000               0.000317567               0.001767703               0.000049106              -0.000101875               0.000623187               0.000521312               0.000000000               0.000000000               0.000000000               0.000000000               0.000281815               0.001765978               0.000041416              -0.000115066               0.000627009               0.000511943               0.000000000               0.000000000               0.000000000               0.000000000               0.000242401               0.001773416               0.000031930              -0.000130776               0.000634725               0.000503949               0.000000000               0.000000000               0.000000000               0.000000000               0.000202783               0.001788922               0.000022882              -0.000147571               0.000645492               0.000497921               0.000000000               0.000000000               0.000000000               0.000000000               0.000165669               0.001803299               0.000020335              -0.000163286               0.000655522               0.000492236               0.000000000               0.000000000               0.000000000               0.000000000               0.000130829               0.001815358               0.000024466              -0.000177858               0.000664399               0.000486541               0.000000000               0.000000000               0.000000000               0.000000000               0.000097180               0.001826715               0.000028240              -0.000191897               0.000672865               0.000480968               0.000000000               0.000000000               0.000000000               0.000000000               0.000064120               0.001840588               0.000020981              -0.000206028               0.000682199               0.000476171               0.000000000               0.000000000               0.000000000               0.000000000               0.000030890               0.001852109               0.000007632              -0.000219929               0.000690673               0.000470744               0.000000000               0.000000000               0.000000000               0.000000000               0.000015979               0.001859171               0.000002603              -0.000226404               0.000695185               0.000468782               0.000000000               0.000000000               0.000000000               0.000000000               0.000523783               0.002572681               0.000805250              -0.000125167               0.000899274               0.000774107               0.000000000               0.000000000               0.000000000               0.000000000               0.000420706               0.002242782               0.000552670              -0.000122583               0.000788447               0.000665864               0.000000000               0.000000000               0.000000000               0.000000000               0.000406118               0.002039249               0.000298747              -0.000102612               0.000713947               0.000611335               0.000000000               0.000000000               0.000000000               0.000000000               0.000377875               0.001924063               0.000187770              -0.000098805               0.000674283               0.000575478               0.000000000               0.000000000               0.000000000               0.000000000               0.000348847               0.001856079               0.000133837              -0.000101192               0.000652418               0.000551226               0.000000000               0.000000000               0.000000000               0.000000000               0.000321417               0.001814990               0.000105343              -0.000106342               0.000640438               0.000534096               0.000000000               0.000000000               0.000000000               0.000000000               0.000294034               0.001790487               0.000088153              -0.000113548               0.000634672               0.000521124               0.000000000               0.000000000               0.000000000               0.000000000               0.000264566               0.001779902               0.000074602              -0.000123275               0.000634387               0.000511111               0.000000000               0.000000000               0.000000000               0.000000000               0.000233765               0.001780440               0.000060727              -0.000134893               0.000638438               0.000503545               0.000000000               0.000000000               0.000000000               0.000000000               0.000202438               0.001791324               0.000045263              -0.000148001               0.000646436               0.000498435               0.000000000               0.000000000               0.000000000               0.000000000               0.000171330               0.001803279               0.000033067              -0.000161161               0.000654807               0.000493646               0.000000000               0.000000000               0.000000000               0.000000000               0.000144517               0.001811272               0.000029210              -0.000172215               0.000661156               0.000488942               0.000000000               0.000000000               0.000000000               0.000000000               0.000117064               0.001815142               0.000030440              -0.000182993               0.000666039               0.000483046               0.000000000               0.000000000               0.000000000               0.000000000               0.000086721               0.001819240               0.000027686              -0.000194884               0.000671369               0.000476484               0.000000000               0.000000000               0.000000000               0.000000000               0.000056485               0.001829146               0.000017320              -0.000207461               0.000678863               0.000471402               0.000000000               0.000000000               0.000000000               0.000000000               0.000025523               0.001836793               0.000007345              -0.000220028               0.000685601               0.000465573               0.000000000               0.000000000               0.000000000               0.000000000               0.000012265               0.001842237               0.000004988              -0.000225680               0.000689300               0.000463620               0.000000000               0.000000000               0.000000000               0.000000000               0.000595078               0.002253145               0.000874404              -0.000058490               0.000770537               0.000712047               0.000000000               0.000000000               0.000000000               0.000000000               0.000438057               0.002030363               0.000610475              -0.000089524               0.000706622               0.000617098               0.000000000               0.000000000               0.000000000               0.000000000               0.000365522               0.001932668               0.000346401              -0.000104513               0.000679054               0.000574541               0.000000000               0.000000000               0.000000000               0.000000000               0.000321562               0.001869887               0.000232461              -0.000113150               0.000661006               0.000547856               0.000000000               0.000000000               0.000000000               0.000000000               0.000289508               0.001829547               0.000175334              -0.000120128               0.000649885               0.000529758               0.000000000               0.000000000               0.000000000               0.000000000               0.000264398               0.001805584               0.000142397              -0.000126549               0.000644038               0.000517489               0.000000000               0.000000000               0.000000000               0.000000000               0.000241876               0.001793193               0.000118961              -0.000133445               0.000642207               0.000508761               0.000000000               0.000000000               0.000000000               0.000000000               0.000216540               0.001791914               0.000098493              -0.000142787               0.000644894               0.000502108               0.000000000               0.000000000               0.000000000               0.000000000               0.000190329               0.001801554               0.000077622              -0.000153820               0.000651785               0.000497965               0.000000000               0.000000000               0.000000000               0.000000000               0.000166559               0.001815949               0.000056996              -0.000164534               0.000660155               0.000495621               0.000000000               0.000000000               0.000000000               0.000000000               0.000144396               0.001824490               0.000042764              -0.000173912               0.000666128               0.000492216               0.000000000               0.000000000               0.000000000               0.000000000               0.000126036               0.001826358               0.000037197              -0.000181031               0.000669123               0.000488093               0.000000000               0.000000000               0.000000000               0.000000000               0.000107235               0.001826770               0.000034949              -0.000188133               0.000671628               0.000483496               0.000000000               0.000000000               0.000000000               0.000000000               0.000082110               0.001833444               0.000025654              -0.000198389               0.000677271               0.000478883               0.000000000               0.000000000               0.000000000               0.000000000               0.000053715               0.001847853               0.000012114              -0.000210838               0.000686224               0.000475386               0.000000000               0.000000000               0.000000000               0.000000000               0.000025113               0.001863879               0.000005379              -0.000223567               0.000695809               0.000472242               0.000000000               0.000000000               0.000000000               0.000000000               0.000015074               0.001877886               0.000006169              -0.000229082               0.000702317               0.000473234               0.000000000               0.000000000               0.000000000               0.000000000               0.000645804               0.001927627               0.000886933               0.000001222               0.000642128               0.000643350               0.000000000               0.000000000               0.000000000               0.000000000               0.000449160               0.001817332               0.000637763              -0.000058732               0.000625348               0.000566617               0.000000000               0.000000000               0.000000000               0.000000000               0.000329484               0.001824758               0.000385088              -0.000104538               0.000643093               0.000538554               0.000000000               0.000000000               0.000000000               0.000000000               0.000276627               0.001808660               0.000274080              -0.000122347               0.000643663               0.000521316               0.000000000               0.000000000               0.000000000               0.000000000               0.000245344               0.001794114               0.000213403              -0.000132260               0.000642119               0.000509859               0.000000000               0.000000000               0.000000000               0.000000000               0.000224040               0.001789104               0.000174218              -0.000139623               0.000642903               0.000503280               0.000000000               0.000000000               0.000000000               0.000000000               0.000205057               0.001793582               0.000144263              -0.000147301               0.000646955               0.000499654               0.000000000               0.000000000               0.000000000               0.000000000               0.000181609               0.001807230               0.000116808              -0.000157800               0.000655004               0.000497204               0.000000000               0.000000000               0.000000000               0.000000000               0.000156259               0.001825386               0.000089590              -0.000169576               0.000664981               0.000495406               0.000000000               0.000000000               0.000000000               0.000000000               0.000136987               0.001842639               0.000066738              -0.000178959               0.000673860               0.000494901               0.000000000               0.000000000               0.000000000               0.000000000               0.000122179               0.001849883               0.000052860              -0.000185418               0.000678427               0.000493010               0.000000000               0.000000000               0.000000000               0.000000000               0.000109730               0.001853134               0.000045799              -0.000190492               0.000681203               0.000490710               0.000000000               0.000000000               0.000000000               0.000000000               0.000096049               0.001864234               0.000037999              -0.000197010               0.000687075               0.000490065               0.000000000               0.000000000               0.000000000               0.000000000               0.000076236               0.001888059               0.000023561              -0.000207418               0.000698486               0.000491068               0.000000000               0.000000000               0.000000000               0.000000000               0.000052213               0.001916707               0.000009721              -0.000220008               0.000712232               0.000492224               0.000000000               0.000000000               0.000000000               0.000000000               0.000025913               0.001945441               0.000004348              -0.000233462               0.000726294               0.000492832               0.000000000               0.000000000               0.000000000               0.000000000               0.000016620               0.001967087               0.000006133              -0.000239653               0.000735573               0.000495921               0.000000000               0.000000000               0.000000000               0.000000000               0.000672812               0.001613715               0.000853180               0.000050589               0.000521036               0.000571625               0.000000000               0.000000000               0.000000000               0.000000000               0.000452604               0.001614816               0.000639789              -0.000032126               0.000548975               0.000516849               0.000000000               0.000000000               0.000000000               0.000000000               0.000301683               0.001715994               0.000415850              -0.000101368               0.000605782               0.000504413               0.000000000               0.000000000               0.000000000               0.000000000               0.000248409               0.001740691               0.000308776              -0.000124433               0.000621702               0.000497269               0.000000000               0.000000000               0.000000000               0.000000000               0.000221993               0.001754282               0.000243490              -0.000136038               0.000630101               0.000494063               0.000000000               0.000000000               0.000000000               0.000000000               0.000203259               0.001770755               0.000197221              -0.000145122               0.000638620               0.000493498               0.000000000               0.000000000               0.000000000               0.000000000               0.000184135               0.001793518               0.000160398              -0.000155139               0.000649546               0.000494407               0.000000000               0.000000000               0.000000000               0.000000000               0.000161087               0.001821168               0.000127741              -0.000167238               0.000662796               0.000495558               0.000000000               0.000000000               0.000000000               0.000000000               0.000136388               0.001847074               0.000096940              -0.000179738               0.000675598               0.000495860               0.000000000               0.000000000               0.000000000               0.000000000               0.000118403               0.001867073               0.000073341              -0.000188982               0.000685345               0.000496363               0.000000000               0.000000000               0.000000000               0.000000000               0.000109488               0.001883293               0.000058876              -0.000194353               0.000692542               0.000498189               0.000000000               0.000000000               0.000000000               0.000000000               0.000101379               0.001907784               0.000047490              -0.000200455               0.000702740               0.000502285               0.000000000               0.000000000               0.000000000               0.000000000               0.000087200               0.001946053               0.000034048              -0.000210556               0.000718863               0.000508307               0.000000000               0.000000000               0.000000000               0.000000000               0.000068509               0.001994222               0.000017212              -0.000223586               0.000739263               0.000515676               0.000000000               0.000000000               0.000000000               0.000000000               0.000048133               0.002044293               0.000004748              -0.000237486               0.000760586               0.000523100               0.000000000               0.000000000               0.000000000               0.000000000               0.000023997               0.002091681               0.000001386              -0.000252461               0.000781374               0.000528913               0.000000000               0.000000000               0.000000000               0.000000000               0.000013884               0.002123754               0.000004454              -0.000260262               0.000794665               0.000534403               0.000000000               0.000000000               0.000000000               0.000000000               0.000688385               0.001335299               0.000786894               0.000091230               0.000414685               0.000505915               0.000000000               0.000000000               0.000000000               0.000000000               0.000460259               0.001430889               0.000627830              -0.000006265               0.000479046               0.000472781               0.000000000               0.000000000               0.000000000               0.000000000               0.000292126               0.001612491               0.000447598              -0.000092014               0.000568163               0.000476149               0.000000000               0.000000000               0.000000000               0.000000000               0.000241448               0.001678498               0.000343529              -0.000119269               0.000599250               0.000479981               0.000000000               0.000000000               0.000000000               0.000000000               0.000222377               0.001720412               0.000273059              -0.000131660               0.000617352               0.000485692               0.000000000               0.000000000               0.000000000               0.000000000               0.000204968               0.001754089               0.000218702              -0.000142398               0.000632156               0.000489759               0.000000000               0.000000000               0.000000000               0.000000000               0.000183763               0.001790113               0.000174759              -0.000154853               0.000648316               0.000493463               0.000000000               0.000000000               0.000000000               0.000000000               0.000159142               0.001829513               0.000138576              -0.000169010               0.000666168               0.000497158               0.000000000               0.000000000               0.000000000               0.000000000               0.000137242               0.001865705               0.000109094              -0.000181747               0.000682478               0.000500731               0.000000000               0.000000000               0.000000000               0.000000000               0.000123249               0.001893830               0.000083697              -0.000190510               0.000694774               0.000504264               0.000000000               0.000000000               0.000000000               0.000000000               0.000118844               0.001925835               0.000061721              -0.000196162               0.000707326               0.000511164               0.000000000               0.000000000               0.000000000               0.000000000               0.000111514               0.001972459               0.000043115              -0.000204739               0.000725726               0.000520987               0.000000000               0.000000000               0.000000000               0.000000000               0.000094782               0.002034344               0.000026080              -0.000218749               0.000751024               0.000532275               0.000000000               0.000000000               0.000000000               0.000000000               0.000075911               0.002107364               0.000009019              -0.000234953               0.000780766               0.000545812               0.000000000               0.000000000               0.000000000               0.000000000               0.000059697               0.002179135              -0.000002574              -0.000250005               0.000809706               0.000559701               0.000000000               0.000000000               0.000000000               0.000000000               0.000045931               0.002245139              -0.000006103              -0.000263418               0.000836178               0.000572760               0.000000000               0.000000000               0.000000000               0.000000000               0.000038990               0.002282838              -0.000004881              -0.000270733               0.000851183               0.000580450               0.000000000               0.000000000               0.000000000               0.000000000               0.000682629               0.001063339               0.000703704               0.000123067               0.000313420               0.000436487               0.000000000               0.000000000               0.000000000               0.000000000               0.000475759               0.001214954               0.000609887               0.000026539               0.000396134               0.000422673               0.000000000               0.000000000               0.000000000               0.000000000               0.000306963               0.001456505               0.000485927              -0.000066952               0.000507814               0.000440862               0.000000000               0.000000000               0.000000000               0.000000000               0.000254999               0.001568843               0.000389318              -0.000100481               0.000556436               0.000455955               0.000000000               0.000000000               0.000000000               0.000000000               0.000235599               0.001637295               0.000314674              -0.000116312               0.000584530               0.000468218               0.000000000               0.000000000               0.000000000               0.000000000               0.000220138               0.001687021               0.000252619              -0.000128326               0.000605110               0.000476784               0.000000000               0.000000000               0.000000000               0.000000000               0.000200800               0.001737000               0.000203038              -0.000141825               0.000626269               0.000484444               0.000000000               0.000000000               0.000000000               0.000000000               0.000178345               0.001787177               0.000165239              -0.000156517               0.000647892               0.000491375               0.000000000               0.000000000               0.000000000               0.000000000               0.000157537               0.001835478               0.000135574              -0.000170358               0.000668606               0.000498248               0.000000000               0.000000000               0.000000000               0.000000000               0.000143531               0.001881837               0.000107024              -0.000181405               0.000687741               0.000506336               0.000000000               0.000000000               0.000000000               0.000000000               0.000134897               0.001926527               0.000078585              -0.000190229               0.000705579               0.000515350               0.000000000               0.000000000               0.000000000               0.000000000               0.000129200               0.001979657               0.000052517              -0.000199007               0.000726214               0.000527208               0.000000000               0.000000000               0.000000000               0.000000000               0.000119032               0.002049759               0.000029637              -0.000211582               0.000753774               0.000542191               0.000000000               0.000000000               0.000000000               0.000000000               0.000107163               0.002135696               0.000012573              -0.000226775               0.000787483               0.000560708               0.000000000               0.000000000               0.000000000               0.000000000               0.000096962               0.002225530               0.000002284              -0.000241830               0.000822446               0.000580616               0.000000000               0.000000000               0.000000000               0.000000000               0.000091775               0.002311838              -0.000001586              -0.000254563               0.000855459               0.000600896               0.000000000               0.000000000               0.000000000               0.000000000               0.000086027               0.002351522              -0.000003591              -0.000261679               0.000871059               0.000609380               0.000000000               0.000000000               0.000000000               0.000000000               0.000645639               0.000802960               0.000605121               0.000141743               0.000220403               0.000362145               0.000000000               0.000000000               0.000000000               0.000000000               0.000491099               0.000996548               0.000576398               0.000059592               0.000312315               0.000371907               0.000000000               0.000000000               0.000000000               0.000000000               0.000340340               0.001281453               0.000513108              -0.000032555               0.000437998               0.000405443               0.000000000               0.000000000               0.000000000               0.000000000               0.000285979               0.001435963               0.000432361              -0.000072253               0.000502734               0.000430480               0.000000000               0.000000000               0.000000000               0.000000000               0.000261489               0.001530386               0.000358369              -0.000093240               0.000541204               0.000447964               0.000000000               0.000000000               0.000000000               0.000000000               0.000245990               0.001601982               0.000292589              -0.000108002               0.000569989               0.000461988               0.000000000               0.000000000               0.000000000               0.000000000               0.000230504               0.001669832               0.000238853              -0.000122290               0.000597368               0.000475078               0.000000000               0.000000000               0.000000000               0.000000000               0.000210239               0.001731891               0.000198768              -0.000137646               0.000623173               0.000485527               0.000000000               0.000000000               0.000000000               0.000000000               0.000188090               0.001792037               0.000167636              -0.000153470               0.000648496               0.000495026               0.000000000               0.000000000               0.000000000               0.000000000               0.000170005               0.001850275               0.000136281              -0.000167532               0.000672596               0.000505064               0.000000000               0.000000000               0.000000000               0.000000000               0.000158621               0.001904429               0.000103838              -0.000178570               0.000694327               0.000515756               0.000000000               0.000000000               0.000000000               0.000000000               0.000154445               0.001963299               0.000072345              -0.000187495               0.000716925               0.000529430               0.000000000               0.000000000               0.000000000               0.000000000               0.000153408               0.002033803               0.000045024              -0.000196697               0.000743493               0.000546796               0.000000000               0.000000000               0.000000000               0.000000000               0.000152212               0.002118337               0.000026529              -0.000207712               0.000775343               0.000567631               0.000000000               0.000000000               0.000000000               0.000000000               0.000149619               0.002211346               0.000015089              -0.000220310               0.000810545               0.000590234               0.000000000               0.000000000               0.000000000               0.000000000               0.000146292               0.002307002               0.000007260              -0.000233515               0.000846831               0.000613316               0.000000000               0.000000000               0.000000000               0.000000000               0.000136119               0.002348631               0.000000136              -0.000242534               0.000863714               0.000621180               0.000000000               0.000000000               0.000000000               0.000000000               0.000579554               0.000567967               0.000491701               0.000146335               0.000140542               0.000286877               0.000000000               0.000000000               0.000000000               0.000000000               0.000493205               0.000785552               0.000518529               0.000086756               0.000232929               0.000319685               0.000000000               0.000000000               0.000000000               0.000000000               0.000381587               0.001089759               0.000510145               0.000006874               0.000360958               0.000367832               0.000000000               0.000000000               0.000000000               0.000000000               0.000328403               0.001274319               0.000451695              -0.000036139               0.000436815               0.000400676               0.000000000               0.000000000               0.000000000               0.000000000               0.000298805               0.001396611               0.000384734              -0.000062525               0.000486374               0.000423849               0.000000000               0.000000000               0.000000000               0.000000000               0.000280342               0.001493580               0.000320820              -0.000081569               0.000525045               0.000443476               0.000000000               0.000000000               0.000000000               0.000000000               0.000264868               0.001581016               0.000266794              -0.000098302               0.000559767               0.000461466               0.000000000               0.000000000               0.000000000               0.000000000               0.000247040               0.001660849               0.000225032              -0.000114966               0.000591933               0.000476967               0.000000000               0.000000000               0.000000000               0.000000000               0.000225111               0.001732740               0.000192243              -0.000132176               0.000621633               0.000489457               0.000000000               0.000000000               0.000000000               0.000000000               0.000201588               0.001797387               0.000160574              -0.000149078               0.000648815               0.000499738               0.000000000               0.000000000               0.000000000               0.000000000               0.000187575               0.001860862               0.000129543              -0.000162267               0.000674370               0.000512103               0.000000000               0.000000000               0.000000000               0.000000000               0.000184704               0.001928656               0.000097786              -0.000171818               0.000700152               0.000528334               0.000000000               0.000000000               0.000000000               0.000000000               0.000189788               0.002009176               0.000068244              -0.000179976               0.000729711               0.000549735               0.000000000               0.000000000               0.000000000               0.000000000               0.000196670               0.002101262               0.000047405              -0.000188906               0.000763382               0.000574476               0.000000000               0.000000000               0.000000000               0.000000000               0.000201106               0.002198839               0.000033979              -0.000199440               0.000799419               0.000599979               0.000000000               0.000000000               0.000000000               0.000000000               0.000198011               0.002300317               0.000019595              -0.000213285               0.000837859               0.000624575               0.000000000               0.000000000               0.000000000               0.000000000               0.000182398               0.002343169               0.000006688              -0.000224496               0.000855881               0.000631384               0.000000000               0.000000000               0.000000000               0.000000000               0.000492320               0.000374788               0.000371306               0.000137770               0.000079005               0.000216774               0.000000000               0.000000000               0.000000000               0.000000000               0.000483629               0.000592630               0.000438326               0.000107281               0.000161781               0.000269062               0.000000000               0.000000000               0.000000000               0.000000000               0.000425090               0.000891906               0.000472647               0.000047919               0.000281326               0.000329245               0.000000000               0.000000000               0.000000000               0.000000000               0.000381135               0.001096408               0.000436593               0.000005874               0.000363507               0.000369382               0.000000000               0.000000000               0.000000000               0.000000000               0.000347591               0.001243766               0.000382646              -0.000025124               0.000422959               0.000397835               0.000000000               0.000000000               0.000000000               0.000000000               0.000326321               0.001365014               0.000325873              -0.000048256               0.000471085               0.000422829               0.000000000               0.000000000               0.000000000               0.000000000               0.000307632               0.001471143               0.000275587              -0.000068531               0.000513220               0.000444689               0.000000000               0.000000000               0.000000000               0.000000000               0.000289917               0.001567672               0.000235477              -0.000087240               0.000551632               0.000464392               0.000000000               0.000000000               0.000000000               0.000000000               0.000269296               0.001651153               0.000202224              -0.000105408               0.000585515               0.000480107               0.000000000               0.000000000               0.000000000               0.000000000               0.000248384               0.001722959               0.000173504              -0.000122226               0.000615056               0.000492830               0.000000000               0.000000000               0.000000000               0.000000000               0.000231658               0.001796188               0.000147366              -0.000137652               0.000644607               0.000506956               0.000000000               0.000000000               0.000000000               0.000000000               0.000224651               0.001878263               0.000118957              -0.000150539               0.000676261               0.000525722               0.000000000               0.000000000               0.000000000               0.000000000               0.000230627               0.001975879               0.000090778              -0.000160499               0.000712119               0.000551620               0.000000000               0.000000000               0.000000000               0.000000000               0.000242524               0.002083728               0.000069609              -0.000169519               0.000751075               0.000581556               0.000000000               0.000000000               0.000000000               0.000000000               0.000252692               0.002196452               0.000051806              -0.000179796               0.000792075               0.000612279               0.000000000               0.000000000               0.000000000               0.000000000               0.000253613               0.002306160               0.000028591              -0.000193164               0.000833101               0.000639936               0.000000000               0.000000000               0.000000000               0.000000000               0.000239704               0.002350904               0.000011596              -0.000203973               0.000851618               0.000647645               0.000000000               0.000000000               0.000000000               0.000000000               0.000397256               0.000232408               0.000256610               0.000119919               0.000037495               0.000157414               0.000000000               0.000000000               0.000000000               0.000000000               0.000466866               0.000431147               0.000340635               0.000121180               0.000103321               0.000224501               0.000000000               0.000000000               0.000000000               0.000000000               0.000466889               0.000706250               0.000397839               0.000086801               0.000206481               0.000293282               0.000000000               0.000000000               0.000000000               0.000000000               0.000437803               0.000919931               0.000381182               0.000049184               0.000290246               0.000339430               0.000000000               0.000000000               0.000000000               0.000000000               0.000405292               0.001087328               0.000342604               0.000016068               0.000357083               0.000373151               0.000000000               0.000000000               0.000000000               0.000000000               0.000378097               0.001227069               0.000297002              -0.000011598               0.000412885               0.000401287               0.000000000               0.000000000               0.000000000               0.000000000               0.000357285               0.001349989               0.000254924              -0.000034767               0.000461581               0.000426814               0.000000000               0.000000000               0.000000000               0.000000000               0.000337486               0.001458212               0.000220544              -0.000055719               0.000504639               0.000448920               0.000000000               0.000000000               0.000000000               0.000000000               0.000317954               0.001551514               0.000192119              -0.000074706               0.000542068               0.000467362               0.000000000               0.000000000               0.000000000               0.000000000               0.000300034               0.001638866               0.000167702              -0.000092345               0.000577065               0.000484720               0.000000000               0.000000000               0.000000000               0.000000000               0.000283572               0.001729351               0.000144664              -0.000109829               0.000613054               0.000503225               0.000000000               0.000000000               0.000000000               0.000000000               0.000272683               0.001829076               0.000123957              -0.000126378               0.000651812               0.000525434               0.000000000               0.000000000               0.000000000               0.000000000               0.000278965               0.001944121               0.000104913              -0.000138403               0.000694168               0.000555765               0.000000000               0.000000000               0.000000000               0.000000000               0.000293951               0.002066932               0.000085389              -0.000148135               0.000738349               0.000590214               0.000000000               0.000000000               0.000000000               0.000000000               0.000306863               0.002192547               0.000063763              -0.000158994               0.000783840               0.000624846               0.000000000               0.000000000               0.000000000               0.000000000               0.000312731               0.002309560               0.000035017              -0.000171420               0.000826986               0.000655565               0.000000000               0.000000000               0.000000000               0.000000000               0.000305987               0.002358852               0.000016530              -0.000180111               0.000846313               0.000666202               0.000000000               0.000000000               0.000000000               0.000000000               0.000310165               0.000140764               0.000158062               0.000098715               0.000014016               0.000112731               0.000000000               0.000000000               0.000000000               0.000000000               0.000446483               0.000309767               0.000232591               0.000128709               0.000060352               0.000189061               0.000000000               0.000000000               0.000000000               0.000000000               0.000502064               0.000552446               0.000288301               0.000119217               0.000144408               0.000263625               0.000000000               0.000000000               0.000000000               0.000000000               0.000489490               0.000767832               0.000284219               0.000087579               0.000226749               0.000314327               0.000000000               0.000000000               0.000000000               0.000000000               0.000459298               0.000948167               0.000259976               0.000053715               0.000298148               0.000351863               0.000000000               0.000000000               0.000000000               0.000000000               0.000428253               0.001101473               0.000228740               0.000022910               0.000359517               0.000382427               0.000000000               0.000000000               0.000000000               0.000000000               0.000404368               0.001236896               0.000199139              -0.000002974               0.000413286               0.000410312               0.000000000               0.000000000               0.000000000               0.000000000               0.000381787               0.001351885               0.000174574              -0.000025816               0.000459229               0.000433413               0.000000000               0.000000000               0.000000000               0.000000000               0.000361753               0.001456660               0.000154069              -0.000046425               0.000501024               0.000454599               0.000000000               0.000000000               0.000000000               0.000000000               0.000343737               0.001562775               0.000134825              -0.000066445               0.000543068               0.000476623               0.000000000               0.000000000               0.000000000               0.000000000               0.000329815               0.001671293               0.000117204              -0.000085231               0.000585502               0.000500272               0.000000000               0.000000000               0.000000000               0.000000000               0.000325830               0.001789000               0.000106011              -0.000101439               0.000630140               0.000528702               0.000000000               0.000000000               0.000000000               0.000000000               0.000330438               0.001916898               0.000097440              -0.000115698               0.000677525               0.000561828               0.000000000               0.000000000               0.000000000               0.000000000               0.000343714               0.002049510               0.000083143              -0.000127296               0.000725595               0.000598299               0.000000000               0.000000000               0.000000000               0.000000000               0.000359948               0.002180780               0.000061184              -0.000137617               0.000772792               0.000635175               0.000000000               0.000000000               0.000000000               0.000000000               0.000372715               0.002301976               0.000032813              -0.000147979               0.000816644               0.000668665               0.000000000               0.000000000               0.000000000               0.000000000               0.000374089               0.002356437               0.000016656              -0.000154271               0.000836895               0.000682624               0.000000000               0.000000000               0.000000000               0.000000000               0.000250649               0.000087375               0.000074806               0.000083071               0.000001434               0.000084505               0.000000000               0.000000000               0.000000000               0.000000000               0.000430673               0.000232584               0.000117561               0.000132428               0.000033384               0.000165812               0.000000000               0.000000000               0.000000000               0.000000000               0.000523584               0.000450301               0.000151124               0.000140055               0.000103414               0.000243469               0.000000000               0.000000000               0.000000000               0.000000000               0.000526167               0.000663850               0.000152228               0.000114330               0.000183171               0.000297501               0.000000000               0.000000000               0.000000000               0.000000000               0.000497857               0.000850796               0.000140652               0.000080346               0.000256814               0.000337160               0.000000000               0.000000000               0.000000000               0.000000000               0.000466367               0.001013559               0.000125111               0.000048192               0.000321785               0.000369978               0.000000000               0.000000000               0.000000000               0.000000000               0.000438086               0.001154411               0.000109982               0.000019981               0.000378139               0.000398120               0.000000000               0.000000000               0.000000000               0.000000000               0.000412611               0.001275027               0.000097202              -0.000004649               0.000426554               0.000421905               0.000000000               0.000000000               0.000000000               0.000000000               0.000390420               0.001389464               0.000086493              -0.000027276               0.000472242               0.000444966               0.000000000               0.000000000               0.000000000               0.000000000               0.000374820               0.001506925               0.000074636              -0.000047808               0.000518239               0.000470431               0.000000000               0.000000000               0.000000000               0.000000000               0.000367229               0.001629780               0.000066436              -0.000066011               0.000565258               0.000499247               0.000000000               0.000000000               0.000000000               0.000000000               0.000368233               0.001761898               0.000062816              -0.000082150               0.000614677               0.000532527               0.000000000               0.000000000               0.000000000               0.000000000               0.000372069               0.001899558               0.000059487              -0.000097919               0.000665819               0.000567901               0.000000000               0.000000000               0.000000000               0.000000000               0.000380226               0.002035971               0.000053366              -0.000111911               0.000715954               0.000604043               0.000000000               0.000000000               0.000000000               0.000000000               0.000394939               0.002162570               0.000038354              -0.000122219               0.000761589               0.000639370               0.000000000               0.000000000               0.000000000               0.000000000               0.000420110               0.002285014               0.000017725              -0.000128085               0.000804359               0.000676274               0.000000000               0.000000000               0.000000000               0.000000000               0.000436173               0.002346445               0.000007159              -0.000129741               0.000825388               0.000695647               0.000000000               0.000000000               0.000000000               0.000000000               0.000230026               0.000067970               0.000000000               0.000077763              -0.000003264               0.000074498               0.000000000               0.000000000               0.000000000               0.000000000               0.000424939               0.000205573               0.000000000               0.000133654               0.000023972               0.000157626               0.000000000               0.000000000               0.000000000               0.000000000               0.000530164               0.000415563               0.000000000               0.000146865               0.000089565               0.000236429               0.000000000               0.000000000               0.000000000               0.000000000               0.000539605               0.000627052               0.000000000               0.000123969               0.000167692               0.000291661               0.000000000               0.000000000               0.000000000               0.000000000               0.000512077               0.000815393              -0.000000000               0.000090104               0.000241760               0.000331864               0.000000000               0.000000000               0.000000000               0.000000000               0.000480625               0.000982188               0.000000000               0.000057460               0.000308239               0.000365700               0.000000000               0.000000000               0.000000000               0.000000000               0.000450160               0.001123704               0.000000000               0.000028347               0.000365115               0.000393462               0.000000000               0.000000000               0.000000000               0.000000000               0.000423652               0.001247698               0.000000000               0.000002907               0.000414926               0.000417833               0.000000000               0.000000000               0.000000000               0.000000000               0.000400418               0.001364798               0.000000000              -0.000020443               0.000461743               0.000441299               0.000000000               0.000000000               0.000000000               0.000000000               0.000385814               0.001482658              -0.000000000              -0.000040652               0.000507765               0.000467113               0.000000000               0.000000000               0.000000000               0.000000000               0.000383725               0.001615687               0.000000000              -0.000058064               0.000557912               0.000499848               0.000000000               0.000000000               0.000000000               0.000000000               0.000384633               0.001756885              -0.000000000              -0.000075373               0.000610747               0.000535374               0.000000000               0.000000000               0.000000000               0.000000000               0.000387693               0.001894178              -0.000000000              -0.000091387               0.000661849               0.000570462               0.000000000               0.000000000               0.000000000               0.000000000               0.000392791               0.002027525               0.000000000              -0.000106144               0.000711216               0.000605072               0.000000000               0.000000000               0.000000000               0.000000000               0.000405471               0.002152052              -0.000000000              -0.000116954               0.000756328               0.000639374               0.000000000               0.000000000               0.000000000               0.000000000               0.000438842               0.002276953               0.000000000              -0.000120053               0.000798995               0.000678941               0.000000000               0.000000000               0.000000000               0.000000000               0.000465060               0.002342492               0.000000000              -0.000118414               0.000820294               0.000701880               0.000000000               0.000000000               0.000000000               0.000000000               0.000292449               0.003273983               0.000000000              -0.000299579               0.001191177               0.000891598               0.000000000               0.000000000               0.000000000               0.000000000               0.000341858               0.002732472              -0.000000000              -0.000213362               0.000981936               0.000768574               0.000000000               0.000000000               0.000000000               0.000000000               0.000496222               0.002292271              -0.000000000              -0.000100450               0.000797566               0.000697116               0.000000000               0.000000000               0.000000000               0.000000000               0.000539273               0.002045661              -0.000000000              -0.000053480               0.000699707               0.000646227               0.000000000               0.000000000               0.000000000               0.000000000               0.000532858               0.001902076              -0.000000000              -0.000037938               0.000646665               0.000608727               0.000000000               0.000000000               0.000000000               0.000000000               0.000504214               0.001818461              -0.000000000              -0.000038227               0.000618890               0.000580663               0.000000000               0.000000000               0.000000000               0.000000000               0.000463238               0.001772735              -0.000000000              -0.000047877               0.000606865               0.000558987               0.000000000               0.000000000               0.000000000               0.000000000               0.000413865               0.001749340              -0.000000000              -0.000063468               0.000604263               0.000540795               0.000000000               0.000000000               0.000000000               0.000000000               0.000364866               0.001744198              -0.000000000              -0.000081200               0.000608460               0.000527260               0.000000000               0.000000000               0.000000000               0.000000000               0.000316561               0.001750979               0.000000000              -0.000100162               0.000617041               0.000516879               0.000000000               0.000000000               0.000000000               0.000000000               0.000265519               0.001769812               0.000000000              -0.000121657               0.000630484               0.000508827               0.000000000               0.000000000               0.000000000               0.000000000               0.000215516               0.001797434              -0.000000000              -0.000143860               0.000647092               0.000503232               0.000000000               0.000000000               0.000000000               0.000000000               0.000166929               0.001828192               0.000000000              -0.000165925               0.000664700               0.000498774               0.000000000               0.000000000               0.000000000               0.000000000               0.000118480               0.001857474               0.000000000              -0.000187754               0.000681737               0.000493983               0.000000000               0.000000000               0.000000000               0.000000000               0.000075744               0.001886827               0.000000000              -0.000207449               0.000698086               0.000490637               0.000000000               0.000000000               0.000000000               0.000000000               0.000038161               0.001922860               0.000000000              -0.000226047               0.000716296               0.000490249               0.000000000               0.000000000               0.000000000               0.000000000               0.000023360               0.001952948               0.000000000              -0.000235358               0.000729429               0.000494071               0.000000000               0.000000000               0.000000000               0.000000000               0.000312023               0.003223389              -0.000257942              -0.000285914               0.001169757               0.000883843               0.000000000               0.000000000               0.000000000               0.000000000               0.000349413               0.002696674              -0.000174954              -0.000206054               0.000967567               0.000761513               0.000000000               0.000000000               0.000000000               0.000000000               0.000490281               0.002271925              -0.000088782              -0.000100135               0.000790679               0.000690544               0.000000000               0.000000000               0.000000000               0.000000000               0.000527190               0.002035833              -0.000047542              -0.000056783               0.000697532               0.000640749               0.000000000               0.000000000               0.000000000               0.000000000               0.000517754               0.001898558              -0.000027295              -0.000043162               0.000647234               0.000604072               0.000000000               0.000000000               0.000000000               0.000000000               0.000488568               0.001819463              -0.000017346              -0.000044220               0.000621222               0.000577002               0.000000000               0.000000000               0.000000000               0.000000000               0.000447817               0.001774625              -0.000012828              -0.000053897               0.000609501               0.000555605               0.000000000               0.000000000               0.000000000               0.000000000               0.000401957               0.001753185              -0.000010886              -0.000068414               0.000607194               0.000538780               0.000000000               0.000000000               0.000000000               0.000000000               0.000354737               0.001746668              -0.000009475              -0.000085307               0.000610652               0.000525346               0.000000000               0.000000000               0.000000000               0.000000000               0.000306627               0.001754309              -0.000007416              -0.000104303               0.000619532               0.000515228               0.000000000               0.000000000               0.000000000               0.000000000               0.000256504               0.001771624              -0.000004558              -0.000125264               0.000632290               0.000507026               0.000000000               0.000000000               0.000000000               0.000000000               0.000206752               0.001797709              -0.000004313              -0.000147181               0.000648291               0.000501109               0.000000000               0.000000000               0.000000000               0.000000000               0.000158960               0.001825766              -0.000007146              -0.000168610               0.000664786               0.000496176               0.000000000               0.000000000               0.000000000               0.000000000               0.000115541               0.001852828              -0.000011123              -0.000188275               0.000680362               0.000492086               0.000000000               0.000000000               0.000000000               0.000000000               0.000076382               0.001879709              -0.000009830              -0.000206320               0.000695337               0.000489017               0.000000000               0.000000000               0.000000000               0.000000000               0.000038120               0.001911563              -0.000003578              -0.000224650               0.000712064               0.000487415               0.000000000               0.000000000               0.000000000               0.000000000               0.000022307               0.001938716              -0.000001243              -0.000233974               0.000724224               0.000490250               0.000000000               0.000000000               0.000000000               0.000000000               0.000368443               0.003079538              -0.000489481              -0.000246776               0.001108761               0.000861985               0.000000000               0.000000000               0.000000000               0.000000000               0.000370978               0.002594345              -0.000332456              -0.000185176               0.000926498               0.000741322               0.000000000               0.000000000               0.000000000               0.000000000               0.000472861               0.002217507              -0.000170287              -0.000099865               0.000772450               0.000672585               0.000000000               0.000000000               0.000000000               0.000000000               0.000491669               0.002010211              -0.000094589              -0.000066900               0.000692364               0.000625464               0.000000000               0.000000000               0.000000000               0.000000000               0.000475484               0.001889810              -0.000057879              -0.000057920               0.000649237               0.000591317               0.000000000               0.000000000               0.000000000               0.000000000               0.000445966               0.001819753              -0.000040071              -0.000060232               0.000626656               0.000566424               0.000000000               0.000000000               0.000000000               0.000000000               0.000408452               0.001780044              -0.000031092              -0.000069336               0.000616454               0.000547118               0.000000000               0.000000000               0.000000000               0.000000000               0.000366231               0.001758747              -0.000026901              -0.000082507               0.000613746               0.000531239               0.000000000               0.000000000               0.000000000               0.000000000               0.000324332               0.001754005              -0.000023131              -0.000097626               0.000617204               0.000519578               0.000000000               0.000000000               0.000000000               0.000000000               0.000279545               0.001761176              -0.000018066              -0.000115317               0.000625492               0.000510175               0.000000000               0.000000000               0.000000000               0.000000000               0.000232282               0.001777672              -0.000012622              -0.000135103               0.000637586               0.000502483               0.000000000               0.000000000               0.000000000               0.000000000               0.000188141               0.001799505              -0.000010898              -0.000154385               0.000651291               0.000496906               0.000000000               0.000000000               0.000000000               0.000000000               0.000146925               0.001821406              -0.000015631              -0.000172578               0.000664655               0.000492077               0.000000000               0.000000000               0.000000000               0.000000000               0.000108222               0.001841185              -0.000021544              -0.000189565               0.000676910               0.000487346               0.000000000               0.000000000               0.000000000               0.000000000               0.000070686               0.001861702              -0.000018486              -0.000206205               0.000689296               0.000483091               0.000000000               0.000000000               0.000000000               0.000000000               0.000032918               0.001884623              -0.000006810              -0.000223233               0.000702613               0.000479379               0.000000000               0.000000000               0.000000000               0.000000000               0.000017028               0.001902896              -0.000001657              -0.000231476               0.000711451               0.000479975               0.000000000               0.000000000               0.000000000               0.000000000               0.000444894               0.002856928              -0.000675211              -0.000190281               0.001015726               0.000825446               0.000000000               0.000000000               0.000000000               0.000000000               0.000397320               0.002437266              -0.000460220              -0.000155663               0.000864301               0.000708638               0.000000000               0.000000000               0.000000000               0.000000000               0.000444211               0.002137904              -0.000240732              -0.000100659               0.000746180               0.000645522               0.000000000               0.000000000               0.000000000               0.000000000               0.000439153               0.001972601              -0.000141514              -0.000081893               0.000684825               0.000602932               0.000000000               0.000000000               0.000000000               0.000000000               0.000414750               0.001875756              -0.000094074              -0.000078938               0.000651558               0.000572620               0.000000000               0.000000000               0.000000000               0.000000000               0.000385547               0.001818147              -0.000069449              -0.000082688               0.000633606               0.000550918               0.000000000               0.000000000               0.000000000               0.000000000               0.000353199               0.001784933              -0.000057157              -0.000090667               0.000625194               0.000534527               0.000000000               0.000000000               0.000000000               0.000000000               0.000317567               0.001767703              -0.000049106              -0.000101875               0.000623187               0.000521312               0.000000000               0.000000000               0.000000000               0.000000000               0.000281815               0.001765978              -0.000041416              -0.000115066               0.000627009               0.000511943               0.000000000               0.000000000               0.000000000               0.000000000               0.000242401               0.001773416              -0.000031930              -0.000130776               0.000634725               0.000503949               0.000000000               0.000000000               0.000000000               0.000000000               0.000202783               0.001788922              -0.000022882              -0.000147571               0.000645492               0.000497921               0.000000000               0.000000000               0.000000000               0.000000000               0.000165669               0.001803299              -0.000020335              -0.000163286               0.000655522               0.000492236               0.000000000               0.000000000               0.000000000               0.000000000               0.000130829               0.001815358              -0.000024466              -0.000177858               0.000664399               0.000486541               0.000000000               0.000000000               0.000000000               0.000000000               0.000097180               0.001826715              -0.000028240              -0.000191897               0.000672865               0.000480968               0.000000000               0.000000000               0.000000000               0.000000000               0.000064120               0.001840588              -0.000020981              -0.000206028               0.000682199               0.000476171               0.000000000               0.000000000               0.000000000               0.000000000               0.000030890               0.001852109              -0.000007632              -0.000219929               0.000690673               0.000470744               0.000000000               0.000000000               0.000000000               0.000000000               0.000015979               0.001859171              -0.000002603              -0.000226404               0.000695185               0.000468782               0.000000000               0.000000000               0.000000000               0.000000000               0.000523783               0.002572681              -0.000805250              -0.000125167               0.000899274               0.000774107               0.000000000               0.000000000               0.000000000               0.000000000               0.000420706               0.002242782              -0.000552670              -0.000122583               0.000788447               0.000665864               0.000000000               0.000000000               0.000000000               0.000000000               0.000406118               0.002039249              -0.000298747              -0.000102612               0.000713947               0.000611335               0.000000000               0.000000000               0.000000000               0.000000000               0.000377875               0.001924063              -0.000187770              -0.000098805               0.000674283               0.000575478               0.000000000               0.000000000               0.000000000               0.000000000               0.000348847               0.001856079              -0.000133837              -0.000101192               0.000652418               0.000551226               0.000000000               0.000000000               0.000000000               0.000000000               0.000321417               0.001814990              -0.000105343              -0.000106342               0.000640438               0.000534096               0.000000000               0.000000000               0.000000000               0.000000000               0.000294034               0.001790487              -0.000088153              -0.000113548               0.000634672               0.000521124               0.000000000               0.000000000               0.000000000               0.000000000               0.000264566               0.001779902              -0.000074602              -0.000123275               0.000634387               0.000511111               0.000000000               0.000000000               0.000000000               0.000000000               0.000233765               0.001780440              -0.000060727              -0.000134893               0.000638438               0.000503545               0.000000000               0.000000000               0.000000000               0.000000000               0.000202438               0.001791324              -0.000045263              -0.000148001               0.000646436               0.000498435               0.000000000               0.000000000               0.000000000               0.000000000               0.000171330               0.001803279              -0.000033067              -0.000161161               0.000654807               0.000493646               0.000000000               0.000000000               0.000000000               0.000000000               0.000144517               0.001811272              -0.000029210              -0.000172215               0.000661156               0.000488942               0.000000000               0.000000000               0.000000000               0.000000000               0.000117064               0.001815142              -0.000030440              -0.000182993               0.000666039               0.000483046               0.000000000               0.000000000               0.000000000               0.000000000               0.000086721               0.001819240              -0.000027686              -0.000194884               0.000671369               0.000476484               0.000000000               0.000000000               0.000000000               0.000000000               0.000056485               0.001829146              -0.000017320              -0.000207461               0.000678863               0.000471402               0.000000000               0.000000000               0.000000000               0.000000000               0.000025523               0.001836793              -0.000007345              -0.000220028               0.000685601               0.000465573               0.000000000               0.000000000               0.000000000               0.000000000               0.000012265               0.001842237              -0.000004988              -0.000225680               0.000689300               0.000463620               0.000000000               0.000000000               0.000000000               0.000000000               0.000595078               0.002253145              -0.000874404              -0.000058490               0.000770537               0.000712047               0.000000000               0.000000000               0.000000000               0.000000000               0.000438057               0.002030363              -0.000610475              -0.000089524               0.000706622               0.000617098               0.000000000               0.000000000               0.000000000               0.000000000               0.000365522               0.001932668              -0.000346401              -0.000104513               0.000679054               0.000574541               0.000000000               0.000000000               0.000000000               0.000000000               0.000321562               0.001869887              -0.000232461              -0.000113150               0.000661006               0.000547856               0.000000000               0.000000000               0.000000000               0.000000000               0.000289508               0.001829547              -0.000175334              -0.000120128               0.000649885               0.000529758               0.000000000               0.000000000               0.000000000               0.000000000               0.000264398               0.001805584              -0.000142397              -0.000126549               0.000644038               0.000517489               0.000000000               0.000000000               0.000000000               0.000000000               0.000241876               0.001793193              -0.000118961              -0.000133445               0.000642207               0.000508761               0.000000000               0.000000000               0.000000000               0.000000000               0.000216540               0.001791914              -0.000098493              -0.000142787               0.000644894               0.000502108               0.000000000               0.000000000               0.000000000               0.000000000               0.000190329               0.001801554              -0.000077622              -0.000153820               0.000651785               0.000497965               0.000000000               0.000000000               0.000000000               0.000000000               0.000166559               0.001815949              -0.000056996              -0.000164534               0.000660155               0.000495621               0.000000000               0.000000000               0.000000000               0.000000000               0.000144396               0.001824490              -0.000042764              -0.000173912               0.000666128               0.000492216               0.000000000               0.000000000               0.000000000               0.000000000               0.000126036               0.001826358              -0.000037197              -0.000181031               0.000669123               0.000488093               0.000000000               0.000000000               0.000000000               0.000000000               0.000107235               0.001826770              -0.000034949              -0.000188133               0.000671628               0.000483496               0.000000000               0.000000000               0.000000000               0.000000000               0.000082110               0.001833444              -0.000025654              -0.000198389               0.000677271               0.000478883               0.000000000               0.000000000               0.000000000               0.000000000               0.000053715               0.001847853              -0.000012114              -0.000210838               0.000686224               0.000475386               0.000000000               0.000000000               0.000000000               0.000000000               0.000025113               0.001863879              -0.000005379              -0.000223567               0.000695809               0.000472242               0.000000000               0.000000000               0.000000000               0.000000000               0.000015074               0.001877886              -0.000006169              -0.000229082               0.000702317               0.000473234               0.000000000               0.000000000               0.000000000               0.000000000               0.000645804               0.001927627              -0.000886933               0.000001222               0.000642128               0.000643350               0.000000000               0.000000000               0.000000000               0.000000000               0.000449160               0.001817332              -0.000637763              -0.000058732               0.000625348               0.000566617               0.000000000               0.000000000               0.000000000               0.000000000               0.000329484               0.001824758              -0.000385088              -0.000104538               0.000643093               0.000538554               0.000000000               0.000000000               0.000000000               0.000000000               0.000276627               0.001808660              -0.000274080              -0.000122347               0.000643663               0.000521316               0.000000000               0.000000000               0.000000000               0.000000000               0.000245344               0.001794114              -0.000213403              -0.000132260               0.000642119               0.000509859               0.000000000               0.000000000               0.000000000               0.000000000               0.000224040               0.001789104              -0.000174218              -0.000139623               0.000642903               0.000503280               0.000000000               0.000000000               0.000000000               0.000000000               0.000205057               0.001793582              -0.000144263              -0.000147301               0.000646955               0.000499654               0.000000000               0.000000000               0.000000000               0.000000000               0.000181609               0.001807230              -0.000116808              -0.000157800               0.000655004               0.000497204               0.000000000               0.000000000               0.000000000               0.000000000               0.000156259               0.001825386              -0.000089590              -0.000169576               0.000664981               0.000495406               0.000000000               0.000000000               0.000000000               0.000000000               0.000136987               0.001842639              -0.000066738              -0.000178959               0.000673860               0.000494901               0.000000000               0.000000000               0.000000000               0.000000000               0.000122179               0.001849883              -0.000052860              -0.000185418               0.000678427               0.000493010               0.000000000               0.000000000               0.000000000               0.000000000               0.000109730               0.001853134              -0.000045799              -0.000190492               0.000681203               0.000490710               0.000000000               0.000000000               0.000000000               0.000000000               0.000096049               0.001864234              -0.000037999              -0.000197010               0.000687075               0.000490065               0.000000000               0.000000000               0.000000000               0.000000000               0.000076236               0.001888059              -0.000023561              -0.000207418               0.000698486               0.000491068               0.000000000               0.000000000               0.000000000               0.000000000               0.000052213               0.001916707              -0.000009721              -0.000220008               0.000712232               0.000492224               0.000000000               0.000000000               0.000000000               0.000000000               0.000025913               0.001945441              -0.000004348              -0.000233462               0.000726294               0.000492832               0.000000000               0.000000000               0.000000000               0.000000000               0.000016620               0.001967087              -0.000006133              -0.000239653               0.000735573               0.000495921               0.000000000               0.000000000               0.000000000               0.000000000               0.000672812               0.001613715              -0.000853180               0.000050589               0.000521036               0.000571625               0.000000000               0.000000000               0.000000000               0.000000000               0.000452604               0.001614816              -0.000639789              -0.000032126               0.000548975               0.000516849               0.000000000               0.000000000               0.000000000               0.000000000               0.000301683               0.001715994              -0.000415850              -0.000101368               0.000605782               0.000504413               0.000000000               0.000000000               0.000000000               0.000000000               0.000248409               0.001740691              -0.000308776              -0.000124433               0.000621702               0.000497269               0.000000000               0.000000000               0.000000000               0.000000000               0.000221993               0.001754282              -0.000243490              -0.000136038               0.000630101               0.000494063               0.000000000               0.000000000               0.000000000               0.000000000               0.000203259               0.001770755              -0.000197221              -0.000145122               0.000638620               0.000493498               0.000000000               0.000000000               0.000000000               0.000000000               0.000184135               0.001793518              -0.000160398              -0.000155139               0.000649546               0.000494407               0.000000000               0.000000000               0.000000000               0.000000000               0.000161087               0.001821168              -0.000127741              -0.000167238               0.000662796               0.000495558               0.000000000               0.000000000               0.000000000               0.000000000               0.000136388               0.001847074              -0.000096940              -0.000179738               0.000675598               0.000495860               0.000000000               0.000000000               0.000000000               0.000000000               0.000118403               0.001867073              -0.000073341              -0.000188982               0.000685345               0.000496363               0.000000000               0.000000000               0.000000000               0.000000000               0.000109488               0.001883293              -0.000058876              -0.000194353               0.000692542               0.000498189               0.000000000               0.000000000               0.000000000               0.000000000               0.000101379               0.001907784              -0.000047490              -0.000200455               0.000702740               0.000502285               0.000000000               0.000000000               0.000000000               0.000000000               0.000087200               0.001946053              -0.000034048              -0.000210556               0.000718863               0.000508307               0.000000000               0.000000000               0.000000000               0.000000000               0.000068509               0.001994222              -0.000017212              -0.000223586               0.000739263               0.000515676               0.000000000               0.000000000               0.000000000               0.000000000               0.000048133               0.002044293              -0.000004748              -0.000237486               0.000760586               0.000523100               0.000000000               0.000000000               0.000000000               0.000000000               0.000023997               0.002091681              -0.000001386              -0.000252461               0.000781374               0.000528913               0.000000000               0.000000000               0.000000000               0.000000000               0.000013884               0.002123754              -0.000004454              -0.000260262               0.000794665               0.000534403               0.000000000               0.000000000               0.000000000               0.000000000               0.000688385               0.001335299              -0.000786894               0.000091230               0.000414685               0.000505915               0.000000000               0.000000000               0.000000000               0.000000000               0.000460259               0.001430889              -0.000627830              -0.000006265               0.000479046               0.000472781               0.000000000               0.000000000               0.000000000               0.000000000               0.000292126               0.001612491              -0.000447598              -0.000092014               0.000568163               0.000476149               0.000000000               0.000000000               0.000000000               0.000000000               0.000241448               0.001678498              -0.000343529              -0.000119269               0.000599250               0.000479981               0.000000000               0.000000000               0.000000000               0.000000000               0.000222377               0.001720412              -0.000273059              -0.000131660               0.000617352               0.000485692               0.000000000               0.000000000               0.000000000               0.000000000               0.000204968               0.001754089              -0.000218702              -0.000142398               0.000632156               0.000489759               0.000000000               0.000000000               0.000000000               0.000000000               0.000183763               0.001790113              -0.000174759              -0.000154853               0.000648316               0.000493463               0.000000000               0.000000000               0.000000000               0.000000000               0.000159142               0.001829513              -0.000138576              -0.000169010               0.000666168               0.000497158               0.000000000               0.000000000               0.000000000               0.000000000               0.000137242               0.001865705              -0.000109094              -0.000181747               0.000682478               0.000500731               0.000000000               0.000000000               0.000000000               0.000000000               0.000123249               0.001893830              -0.000083697              -0.000190510               0.000694774               0.000504264               0.000000000               0.000000000               0.000000000               0.000000000               0.000118844               0.001925835              -0.000061721              -0.000196162               0.000707326               0.000511164               0.000000000               0.000000000               0.000000000               0.000000000               0.000111514               0.001972459              -0.000043115              -0.000204739               0.000725726               0.000520987               0.000000000               0.000000000               0.000000000               0.000000000               0.000094782               0.002034344              -0.000026080              -0.000218749               0.000751024               0.000532275               0.000000000               0.000000000               0.000000000               0.000000000               0.000075911               0.002107364              -0.000009019              -0.000234953               0.000780766               0.000545812               0.000000000               0.000000000               0.000000000               0.000000000               0.000059697               0.002179135               0.000002574              -0.000250005               0.000809706               0.000559701               0.000000000               0.000000000               0.000000000               0.000000000               0.000045931               0.002245139               0.000006103              -0.000263418               0.000836178               0.000572760               0.000000000               0.000000000               0.000000000               0.000000000               0.000038990               0.002282838               0.000004881              -0.000270733               0.000851183               0.000580450               0.000000000               0.000000000               0.000000000               0.000000000               0.000682629               0.001063339              -0.000703704               0.000123067               0.000313420               0.000436487               0.000000000               0.000000000               0.000000000               0.000000000               0.000475759               0.001214954              -0.000609887               0.000026539               0.000396134               0.000422673               0.000000000               0.000000000               0.000000000               0.000000000               0.000306963               0.001456505              -0.000485927              -0.000066952               0.000507814               0.000440862               0.000000000               0.000000000               0.000000000               0.000000000               0.000254999               0.001568843              -0.000389318              -0.000100481               0.000556436               0.000455955               0.000000000               0.000000000               0.000000000               0.000000000               0.000235599               0.001637295              -0.000314674              -0.000116312               0.000584530               0.000468218               0.000000000               0.000000000               0.000000000               0.000000000               0.000220138               0.001687021              -0.000252619              -0.000128326               0.000605110               0.000476784               0.000000000               0.000000000               0.000000000               0.000000000               0.000200800               0.001737000              -0.000203038              -0.000141825               0.000626269               0.000484444               0.000000000               0.000000000               0.000000000               0.000000000               0.000178345               0.001787177              -0.000165239              -0.000156517               0.000647892               0.000491375               0.000000000               0.000000000               0.000000000               0.000000000               0.000157537               0.001835478              -0.000135574              -0.000170358               0.000668606               0.000498248               0.000000000               0.000000000               0.000000000               0.000000000               0.000143531               0.001881837              -0.000107024              -0.000181405               0.000687741               0.000506336               0.000000000               0.000000000               0.000000000               0.000000000               0.000134897               0.001926527              -0.000078585              -0.000190229               0.000705579               0.000515350               0.000000000               0.000000000               0.000000000               0.000000000               0.000129200               0.001979657              -0.000052517              -0.000199007               0.000726214               0.000527208               0.000000000               0.000000000               0.000000000               0.000000000               0.000119032               0.002049759              -0.000029637              -0.000211582               0.000753774               0.000542191               0.000000000               0.000000000               0.000000000               0.000000000               0.000107163               0.002135696              -0.000012573              -0.000226775               0.000787483               0.000560708               0.000000000               0.000000000               0.000000000               0.000000000               0.000096962               0.002225530              -0.000002284              -0.000241830               0.000822446               0.000580616               0.000000000               0.000000000               0.000000000               0.000000000               0.000091775               0.002311838               0.000001586              -0.000254563               0.000855459               0.000600896               0.000000000               0.000000000               0.000000000               0.000000000               0.000086027               0.002351522               0.000003591              -0.000261679               0.000871059               0.000609380               0.000000000               0.000000000               0.000000000               0.000000000               0.000645639               0.000802960              -0.000605121               0.000141743               0.000220403               0.000362145               0.000000000               0.000000000               0.000000000               0.000000000               0.000491099               0.000996548              -0.000576398               0.000059592               0.000312315               0.000371907               0.000000000               0.000000000               0.000000000               0.000000000               0.000340340               0.001281453              -0.000513108              -0.000032555               0.000437998               0.000405443               0.000000000               0.000000000               0.000000000               0.000000000               0.000285979               0.001435963              -0.000432361              -0.000072253               0.000502734               0.000430480               0.000000000               0.000000000               0.000000000               0.000000000               0.000261489               0.001530386              -0.000358369              -0.000093240               0.000541204               0.000447964               0.000000000               0.000000000               0.000000000               0.000000000               0.000245990               0.001601982              -0.000292589              -0.000108002               0.000569989               0.000461988               0.000000000               0.000000000               0.000000000               0.000000000               0.000230504               0.001669832              -0.000238853              -0.000122290               0.000597368               0.000475078               0.000000000               0.000000000               0.000000000               0.000000000               0.000210239               0.001731891              -0.000198768              -0.000137646               0.000623173               0.000485527               0.000000000               0.000000000               0.000000000               0.000000000               0.000188090               0.001792037              -0.000167636              -0.000153470               0.000648496               0.000495026               0.000000000               0.000000000               0.000000000               0.000000000               0.000170005               0.001850275              -0.000136281              -0.000167532               0.000672596               0.000505064               0.000000000               0.000000000               0.000000000               0.000000000               0.000158621               0.001904429              -0.000103838              -0.000178570               0.000694327               0.000515756               0.000000000               0.000000000               0.000000000               0.000000000               0.000154445               0.001963299              -0.000072345              -0.000187495               0.000716925               0.000529430               0.000000000               0.000000000               0.000000000               0.000000000               0.000153408               0.002033803              -0.000045024              -0.000196697               0.000743493               0.000546796               0.000000000               0.000000000               0.000000000               0.000000000               0.000152212               0.002118337              -0.000026529              -0.000207712               0.000775343               0.000567631               0.000000000               0.000000000               0.000000000               0.000000000               0.000149619               0.002211346              -0.000015089              -0.000220310               0.000810545               0.000590234               0.000000000               0.000000000               0.000000000               0.000000000               0.000146292               0.002307002              -0.000007260              -0.000233515               0.000846831               0.000613316               0.000000000               0.000000000               0.000000000               0.000000000               0.000136119               0.002348631              -0.000000136              -0.000242534               0.000863714               0.000621180               0.000000000               0.000000000               0.000000000               0.000000000               0.000579554               0.000567967              -0.000491701               0.000146335               0.000140542               0.000286877               0.000000000               0.000000000               0.000000000               0.000000000               0.000493205               0.000785552              -0.000518529               0.000086756               0.000232929               0.000319685               0.000000000               0.000000000               0.000000000               0.000000000               0.000381587               0.001089759              -0.000510145               0.000006874               0.000360958               0.000367832               0.000000000               0.000000000               0.000000000               0.000000000               0.000328403               0.001274319              -0.000451695              -0.000036139               0.000436815               0.000400676               0.000000000               0.000000000               0.000000000               0.000000000               0.000298805               0.001396611              -0.000384734              -0.000062525               0.000486374               0.000423849               0.000000000               0.000000000               0.000000000               0.000000000               0.000280342               0.001493580              -0.000320820              -0.000081569               0.000525045               0.000443476               0.000000000               0.000000000               0.000000000               0.000000000               0.000264868               0.001581016              -0.000266794              -0.000098302               0.000559767               0.000461466               0.000000000               0.000000000               0.000000000               0.000000000               0.000247040               0.001660849              -0.000225032              -0.000114966               0.000591933               0.000476967               0.000000000               0.000000000               0.000000000               0.000000000               0.000225111               0.001732740              -0.000192243              -0.000132176               0.000621633               0.000489457               0.000000000               0.000000000               0.000000000               0.000000000               0.000201588               0.001797387              -0.000160574              -0.000149078               0.000648815               0.000499738               0.000000000               0.000000000               0.000000000               0.000000000               0.000187575               0.001860862              -0.000129543              -0.000162267               0.000674370               0.000512103               0.000000000               0.000000000               0.000000000               0.000000000               0.000184704               0.001928656              -0.000097786              -0.000171818               0.000700152               0.000528334               0.000000000               0.000000000               0.000000000               0.000000000               0.000189788               0.002009176              -0.000068244              -0.000179976               0.000729711               0.000549735               0.000000000               0.000000000               0.000000000               0.000000000               0.000196670               0.002101262              -0.000047405              -0.000188906               0.000763382               0.000574476               0.000000000               0.000000000               0.000000000               0.000000000               0.000201106               0.002198839              -0.000033979              -0.000199440               0.000799419               0.000599979               0.000000000               0.000000000               0.000000000               0.000000000               0.000198011               0.002300317              -0.000019595              -0.000213285               0.000837859               0.000624575               0.000000000               0.000000000               0.000000000               0.000000000               0.000182398               0.002343169              -0.000006688              -0.000224496               0.000855881               0.000631384               0.000000000               0.000000000               0.000000000               0.000000000               0.000492320               0.000374788              -0.000371306               0.000137770               0.000079005               0.000216774               0.000000000               0.000000000               0.000000000               0.000000000               0.000483629               0.000592630              -0.000438326               0.000107281               0.000161781               0.000269062               0.000000000               0.000000000               0.000000000               0.000000000               0.000425090               0.000891906              -0.000472647               0.000047919               0.000281326               0.000329245               0.000000000               0.000000000               0.000000000               0.000000000               0.000381135               0.001096408              -0.000436593               0.000005874               0.000363507               0.000369382               0.000000000               0.000000000               0.000000000               0.000000000               0.000347591               0.001243766              -0.000382646              -0.000025124               0.000422959               0.000397835               0.000000000               0.000000000               0.000000000               0.000000000               0.000326321               0.001365014              -0.000325873              -0.000048256               0.000471085               0.000422829               0.000000000               0.000000000               0.000000000               0.000000000               0.000307632               0.001471143              -0.000275587              -0.000068531               0.000513220               0.000444689               0.000000000               0.000000000               0.000000000               0.000000000               0.000289917               0.001567672              -0.000235477              -0.000087240               0.000551632               0.000464392               0.000000000               0.000000000               0.000000000               0.000000000               0.000269296               0.001651153              -0.000202224              -0.000105408               0.000585515               0.000480107               0.000000000               0.000000000               0.000000000               0.000000000               0.000248384               0.001722959              -0.000173504              -0.000122226               0.000615056               0.000492830               0.000000000               0.000000000               0.000000000               0.000000000               0.000231658               0.001796188              -0.000147366              -0.000137652               0.000644607               0.000506956               0.000000000               0.000000000               0.000000000               0.000000000               0.000224651               0.001878263              -0.000118957              -0.000150539               0.000676261               0.000525722               0.000000000               0.000000000               0.000000000               0.000000000               0.000230627               0.001975879              -0.000090778              -0.000160499               0.000712119               0.000551620               0.000000000               0.000000000               0.000000000               0.000000000               0.000242524               0.002083728              -0.000069609              -0.000169519               0.000751075               0.000581556               0.000000000               0.000000000               0.000000000               0.000000000               0.000252692               0.002196452              -0.000051806              -0.000179796               0.000792075               0.000612279               0.000000000               0.000000000               0.000000000               0.000000000               0.000253613               0.002306160              -0.000028591              -0.000193164               0.000833101               0.000639936               0.000000000               0.000000000               0.000000000               0.000000000               0.000239704               0.002350904              -0.000011596              -0.000203973               0.000851618               0.000647645               0.000000000               0.000000000               0.000000000               0.000000000               0.000397256               0.000232408              -0.000256610               0.000119919               0.000037495               0.000157414               0.000000000               0.000000000               0.000000000               0.000000000               0.000466866               0.000431147              -0.000340635               0.000121180               0.000103321               0.000224501               0.000000000               0.000000000               0.000000000               0.000000000               0.000466889               0.000706250              -0.000397839               0.000086801               0.000206481               0.000293282               0.000000000               0.000000000               0.000000000               0.000000000               0.000437803               0.000919931              -0.000381182               0.000049184               0.000290246               0.000339430               0.000000000               0.000000000               0.000000000               0.000000000               0.000405292               0.001087328              -0.000342604               0.000016068               0.000357083               0.000373151               0.000000000               0.000000000               0.000000000               0.000000000               0.000378097               0.001227069              -0.000297002              -0.000011598               0.000412885               0.000401287               0.000000000               0.000000000               0.000000000               0.000000000               0.000357285               0.001349989              -0.000254924              -0.000034767               0.000461581               0.000426814               0.000000000               0.000000000               0.000000000               0.000000000               0.000337486               0.001458212              -0.000220544              -0.000055719               0.000504639               0.000448920               0.000000000               0.000000000               0.000000000               0.000000000               0.000317954               0.001551514              -0.000192119              -0.000074706               0.000542068               0.000467362               0.000000000               0.000000000               0.000000000               0.000000000               0.000300034               0.001638866              -0.000167702              -0.000092345               0.000577065               0.000484720               0.000000000               0.000000000               0.000000000               0.000000000               0.000283572               0.001729351              -0.000144664              -0.000109829               0.000613054               0.000503225               0.000000000               0.000000000               0.000000000               0.000000000               0.000272683               0.001829076              -0.000123957              -0.000126378               0.000651812               0.000525434               0.000000000               0.000000000               0.000000000               0.000000000               0.000278965               0.001944121              -0.000104913              -0.000138403               0.000694168               0.000555765               0.000000000               0.000000000               0.000000000               0.000000000               0.000293951               0.002066932              -0.000085389              -0.000148135               0.000738349               0.000590214               0.000000000               0.000000000               0.000000000               0.000000000               0.000306863               0.002192547              -0.000063763              -0.000158994               0.000783840               0.000624846               0.000000000               0.000000000               0.000000000               0.000000000               0.000312731               0.002309560              -0.000035017              -0.000171420               0.000826986               0.000655565               0.000000000               0.000000000               0.000000000               0.000000000               0.000305987               0.002358852              -0.000016530              -0.000180111               0.000846313               0.000666202               0.000000000               0.000000000               0.000000000               0.000000000               0.000310165               0.000140764              -0.000158062               0.000098715               0.000014016               0.000112731               0.000000000               0.000000000               0.000000000               0.000000000               0.000446483               0.000309767              -0.000232591               0.000128709               0.000060352               0.000189061               0.000000000               0.000000000               0.000000000               0.000000000               0.000502064               0.000552446              -0.000288301               0.000119217               0.000144408               0.000263625               0.000000000               0.000000000               0.000000000               0.000000000               0.000489490               0.000767832              -0.000284219               0.000087579               0.000226749               0.000314327               0.000000000               0.000000000               0.000000000               0.000000000               0.000459298               0.000948167              -0.000259976               0.000053715               0.000298148               0.000351863               0.000000000               0.000000000               0.000000000               0.000000000               0.000428253               0.001101473              -0.000228740               0.000022910               0.000359517               0.000382427               0.000000000               0.000000000               0.000000000               0.000000000               0.000404368               0.001236896              -0.000199139              -0.000002974               0.000413286               0.000410312               0.000000000               0.000000000               0.000000000               0.000000000               0.000381787               0.001351885              -0.000174574              -0.000025816               0.000459229               0.000433413               0.000000000               0.000000000               0.000000000               0.000000000               0.000361753               0.001456660              -0.000154069              -0.000046425               0.000501024               0.000454599               0.000000000               0.000000000               0.000000000               0.000000000               0.000343737               0.001562775              -0.000134825              -0.000066445               0.000543068               0.000476623               0.000000000               0.000000000               0.000000000               0.000000000               0.000329815               0.001671293              -0.000117204              -0.000085231               0.000585502               0.000500272               0.000000000               0.000000000               0.000000000               0.000000000               0.000325830               0.001789000              -0.000106011              -0.000101439               0.000630140               0.000528702               0.000000000               0.000000000               0.000000000               0.000000000               0.000330438               0.001916898              -0.000097440              -0.000115698               0.000677525               0.000561828               0.000000000               0.000000000               0.000000000               0.000000000               0.000343714               0.002049510              -0.000083143              -0.000127296               0.000725595               0.000598299               0.000000000               0.000000000               0.000000000               0.000000000               0.000359948               0.002180780              -0.000061184              -0.000137617               0.000772792               0.000635175               0.000000000               0.000000000               0.000000000               0.000000000               0.000372715               0.002301976              -0.000032813              -0.000147979               0.000816644               0.000668665               0.000000000               0.000000000               0.000000000               0.000000000               0.000374089               0.002356437              -0.000016656              -0.000154271               0.000836895               0.000682624               0.000000000               0.000000000               0.000000000               0.000000000               0.000250649               0.000087375              -0.000074806               0.000083071               0.000001434               0.000084505               0.000000000               0.000000000               0.000000000               0.000000000               0.000430673               0.000232584              -0.000117561               0.000132428               0.000033384               0.000165812               0.000000000               0.000000000               0.000000000               0.000000000               0.000523584               0.000450301              -0.000151124               0.000140055               0.000103414               0.000243469               0.000000000               0.000000000               0.000000000               0.000000000               0.000526167               0.000663850              -0.000152228               0.000114330               0.000183171               0.000297501               0.000000000               0.000000000               0.000000000               0.000000000               0.000497857               0.000850796              -0.000140652               0.000080346               0.000256814               0.000337160               0.000000000               0.000000000               0.000000000               0.000000000               0.000466367               0.001013559              -0.000125111               0.000048192               0.000321785               0.000369978               0.000000000               0.000000000               0.000000000               0.000000000               0.000438086               0.001154411              -0.000109982               0.000019981               0.000378139               0.000398120               0.000000000               0.000000000               0.000000000               0.000000000               0.000412611               0.001275027              -0.000097202              -0.000004649               0.000426554               0.000421905               0.000000000               0.000000000               0.000000000               0.000000000               0.000390420               0.001389464              -0.000086493              -0.000027276               0.000472242               0.000444966               0.000000000               0.000000000               0.000000000               0.000000000               0.000374820               0.001506925              -0.000074636              -0.000047808               0.000518239               0.000470431               0.000000000               0.000000000               0.000000000               0.000000000               0.000367229               0.001629780              -0.000066436              -0.000066011               0.000565258               0.000499247               0.000000000               0.000000000               0.000000000               0.000000000               0.000368233               0.001761898              -0.000062816              -0.000082150               0.000614677               0.000532527               0.000000000               0.000000000               0.000000000               0.000000000               0.000372069               0.001899558              -0.000059487              -0.000097919               0.000665819               0.000567901               0.000000000               0.000000000               0.000000000               0.000000000               0.000380226               0.002035971              -0.000053366              -0.000111911               0.000715954               0.000604043               0.000000000               0.000000000               0.000000000               0.000000000               0.000394939               0.002162570              -0.000038354              -0.000122219               0.000761589               0.000639370               0.000000000               0.000000000               0.000000000               0.000000000               0.000420110               0.002285014              -0.000017725              -0.000128085               0.000804359               0.000676274               0.000000000               0.000000000               0.000000000               0.000000000               0.000436173               0.002346445              -0.000007159              -0.000129741               0.000825388               0.000695647               0.000000000               0.000000000               0.000000000               0.000000000               0.000000000               0.000000000               0.000000000               0.000000000               0.000000000               0.000000000               0.000000000               0.000000000               0.000000000               0.000000000               0.000000000               0.000000000               0.000000000               0.000000000               0.000000000               0.000000000               0.000000000               0.000000000               0.000000000               0.000000000               0.000000000               0.000000000               0.000000000               0.000000000               0.000000000               0.000000000               0.000000000               0.000000000               0.000000000               0.000000000               0.000000000               0.000000000               0.000000000               0.000000000               0.000000000               0.000000000               0.000000000               0.000000000               0.000000000               0.000000000               0.000000000               0.000000000               0.000000000               0.000000000               0.000000000               0.000000000               0.000000000               0.000000000               0.000000000               0.000000000               0.000000000               0.000000000               0.000000000               0.000000000               0.000000000               0.000000000               0.000000000               0.000000000               0.000000000               0.000000000               0.000000000               0.000000000               0.000000000               0.000000000               0.000000000               0.000000000               0.000000000               0.000000000               0.000000000               0.000000000               0.000000000               0.000000000               0.000000000               0.000000000               0.000000000               0.000000000               0.000000000               0.000000000               0.000000000               0.000000000               0.000000000               0.000000000               0.000000000               0.000000000               0.000000000               0.000000000               0.000000000               0.000000000               0.000000000               0.000000000               0.000000000               0.000000000               0.000000000               0.000000000               0.000000000               0.000000000               0.000000000               0.000000000               0.000000000               0.000000000               0.000000000               0.000000000               0.000000000               0.000000000               0.000000000               0.000000000               0.000000000               0.000000000               0.000000000               0.000000000               0.000000000               0.000000000               0.000000000               0.000000000               0.000000000               0.000000000               0.000000000               0.000000000               0.000000000               0.000000000               0.000000000               0.000000000               0.000000000               0.000000000               0.000000000               0.000000000               0.000000000               0.000000000               0.000000000               0.000000000               0.000000000               0.000000000               0.000000000               0.000000000               0.000000000               0.000000000               0.000000000               0.000000000               0.000000000               0.000000000               0.000000000               0.000000000               0.000000000               0.000000000               0.000000000               0.000000000               0.000000000               0.000000000               0.000000000               0.000000000               0.000000000               0.000000000               0.000000000               0.000000000               0.000000000               0.000000000               0.000000000               0.000000000               0.000000000               0.000000000               0.000000000               0.000000000               0.000000000               0.000000000               0.000000000               0.000000000               0.000000000               0.000000000               0.000000000               0.000000000               0.000000000               0.000000000               0.000000000               0.000000000               0.000000000               0.000000000               0.000000000               0.000000000               0.000000000               0.000000000               0.000000000               0.000000000               0.000000000               0.000000000               0.000000000               0.000000000               0.000000000               0.000000000               0.000000000               0.000000000               0.000000000               0.000000000               0.000000000               0.000000000               0.000000000               0.000000000               0.000000000               0.000000000               0.000000000               0.000000000               0.000000000               0.000000000               0.000000000               0.000000000               0.000000000               0.000000000               0.000000000               0.000000000               0.000000000               0.000000000               0.000000000               0.000000000               0.000000000               0.000000000               0.000000000               0.000000000               0.000000000               0.000000000               0.000000000               0.000000000               0.000000000               0.000000000               0.000000000               0.000000000               0.000000000               0.000000000               0.000000000               0.000000000               0.000000000               0.000000000               0.000000000               0.000000000               0.000000000               0.000000000               0.000000000               0.000000000               0.000000000               0.000000000               0.000000000               0.000000000               0.000000000               0.000000000               0.000000000               0.000000000               0.000000000               0.000000000               0.000000000               0.000000000               0.000000000               0.000000000               0.000000000               0.000000000               0.000000000               0.000000000               0.000000000               0.000000000               0.000000000               0.000000000               0.000000000               0.000000000               0.000000000               0.000000000               0.000000000               0.000000000               0.000000000               0.000000000               0.000000000               0.000000000               0.000000000               0.000000000               0.000000000               0.000000000               0.000000000               0.000000000               0.000000000               0.000000000               0.000000000               0.000000000               0.000000000               0.000000000               0.000000000               0.000000000               0.000000000               0.000000000               0.000000000               0.000000000               0.000000000               0.000000000               0.000000000               0.000000000               0.000000000               0.000000000               0.000000000               0.000000000               0.000000000               0.000000000               0.000000000               0.000000000               0.000000000               0.000000000               0.000000000               0.000000000               0.000000000               0.000000000               0.000000000               0.000000000               0.000000000               0.000000000               0.000000000               0.000000000               0.000000000               0.000000000               0.000000000               0.000000000               0.000000000               0.000000000               0.000000000               0.000000000               0.000000000               0.000000000               0.000000000               0.000000000               0.000000000               0.000000000               0.000000000               0.000000000               0.000000000               0.000000000               0.000000000               0.000000000               0.000000000               0.000000000               0.000000000               0.000000000               0.000000000               0.000000000               0.000000000               0.000000000               0.000000000               0.000000000               0.000312023               0.003223389               0.000257942              -0.000285914               0.001169757               0.000883843               0.000000000               0.000000000               0.000000000               0.000000000               0.000349413               0.002696674               0.000174954              -0.000206054               0.000967567               0.000761513               0.000000000               0.000000000               0.000000000               0.000000000               0.000490281               0.002271925               0.000088782              -0.000100135               0.000790679               0.000690544               0.000000000               0.000000000               0.000000000               0.000000000               0.000527190               0.002035833               0.000047542              -0.000056783               0.000697532               0.000640749               0.000000000               0.000000000               0.000000000               0.000000000               0.000517754               0.001898558               0.000027295              -0.000043162               0.000647234               0.000604072               0.000000000               0.000000000               0.000000000               0.000000000               0.000488568               0.001819463               0.000017346              -0.000044220               0.000621222               0.000577002               0.000000000               0.000000000               0.000000000               0.000000000               0.000447817               0.001774625               0.000012828              -0.000053897               0.000609501               0.000555605               0.000000000               0.000000000               0.000000000               0.000000000               0.000401957               0.001753185               0.000010886              -0.000068414               0.000607194               0.000538780               0.000000000               0.000000000               0.000000000               0.000000000               0.000354737               0.001746668               0.000009475              -0.000085307               0.000610652               0.000525346               0.000000000               0.000000000               0.000000000               0.000000000               0.000306627               0.001754309               0.000007416              -0.000104303               0.000619532               0.000515228               0.000000000               0.000000000               0.000000000               0.000000000               0.000256504               0.001771624               0.000004558              -0.000125264               0.000632290               0.000507026               0.000000000               0.000000000               0.000000000               0.000000000               0.000206752               0.001797709               0.000004313              -0.000147181               0.000648291               0.000501109               0.000000000               0.000000000               0.000000000               0.000000000               0.000158960               0.001825766               0.000007146              -0.000168610               0.000664786               0.000496176               0.000000000               0.000000000               0.000000000               0.000000000               0.000115541               0.001852828               0.000011123              -0.000188275               0.000680362               0.000492086               0.000000000               0.000000000               0.000000000               0.000000000               0.000076382               0.001879709               0.000009830              -0.000206320               0.000695337               0.000489017               0.000000000               0.000000000               0.000000000               0.000000000               0.000038120               0.001911563               0.000003578              -0.000224650               0.000712064               0.000487415               0.000000000               0.000000000               0.000000000               0.000000000               0.000022307               0.001938716               0.000001243              -0.000233974               0.000724224               0.000490250               0.000000000               0.000000000               0.000000000               0.000000000               0.000368443               0.003079538               0.000489481              -0.000246776               0.001108761               0.000861985               0.000000000               0.000000000               0.000000000               0.000000000               0.000370978               0.002594345               0.000332456              -0.000185176               0.000926498               0.000741322               0.000000000               0.000000000               0.000000000               0.000000000               0.000472861               0.002217507               0.000170287              -0.000099865               0.000772450               0.000672585               0.000000000               0.000000000               0.000000000               0.000000000               0.000491669               0.002010211               0.000094589              -0.000066900               0.000692364               0.000625464               0.000000000               0.000000000               0.000000000               0.000000000               0.000475484               0.001889810               0.000057879              -0.000057920               0.000649237               0.000591317               0.000000000               0.000000000               0.000000000               0.000000000               0.000445966               0.001819753               0.000040071              -0.000060232               0.000626656               0.000566424               0.000000000               0.000000000               0.000000000               0.000000000               0.000408452               0.001780044               0.000031092              -0.000069336               0.000616454               0.000547118               0.000000000               0.000000000               0.000000000               0.000000000               0.000366231               0.001758747               0.000026901              -0.000082507               0.000613746               0.000531239               0.000000000               0.000000000               0.000000000               0.000000000               0.000324332               0.001754005               0.000023131              -0.000097626               0.000617204               0.000519578               0.000000000               0.000000000               0.000000000               0.000000000               0.000279545               0.001761176               0.000018066              -0.000115317               0.000625492               0.000510175               0.000000000               0.000000000               0.000000000               0.000000000               0.000232282               0.001777672               0.000012622              -0.000135103               0.000637586               0.000502483               0.000000000               0.000000000               0.000000000               0.000000000               0.000188141               0.001799505               0.000010898              -0.000154385               0.000651291               0.000496906               0.000000000               0.000000000               0.000000000               0.000000000               0.000146925               0.001821406               0.000015631              -0.000172578               0.000664655               0.000492077               0.000000000               0.000000000               0.000000000               0.000000000               0.000108222               0.001841185               0.000021544              -0.000189565               0.000676910               0.000487346               0.000000000               0.000000000               0.000000000               0.000000000               0.000070686               0.001861702               0.000018486              -0.000206205               0.000689296               0.000483091               0.000000000               0.000000000               0.000000000               0.000000000               0.000032918               0.001884623               0.000006810              -0.000223233               0.000702613               0.000479379               0.000000000               0.000000000               0.000000000               0.000000000               0.000017028               0.001902896               0.000001657              -0.000231476               0.000711451               0.000479975               0.000000000               0.000000000               0.000000000               0.000000000               0.000444894               0.002856928               0.000675211              -0.000190281               0.001015726               0.000825446               0.000000000               0.000000000               0.000000000               0.000000000               0.000397320               0.002437266               0.000460220              -0.000155663               0.000864301               0.000708638               0.000000000               0.000000000               0.000000000               0.000000000               0.000444211               0.002137904               0.000240732              -0.000100659               0.000746180               0.000645522               0.000000000               0.000000000               0.000000000               0.000000000               0.000439153               0.001972601               0.000141514              -0.000081893               0.000684825               0.000602932               0.000000000               0.000000000               0.000000000               0.000000000               0.000414750               0.001875756               0.000094074              -0.000078938               0.000651558               0.000572620               0.000000000               0.000000000               0.000000000               0.000000000               0.000385547               0.001818147               0.000069449              -0.000082688               0.000633606               0.000550918               0.000000000               0.000000000               0.000000000               0.000000000               0.000353199               0.001784933               0.000057157              -0.000090667               0.000625194               0.000534527               0.000000000               0.000000000               0.000000000               0.000000000               0.000317567               0.001767703               0.000049106              -0.000101875               0.000623187               0.000521312               0.000000000               0.000000000               0.000000000               0.000000000               0.000281815               0.001765978               0.000041416              -0.000115066               0.000627009               0.000511943               0.000000000               0.000000000               0.000000000               0.000000000               0.000242401               0.001773416               0.000031930              -0.000130776               0.000634725               0.000503949               0.000000000               0.000000000               0.000000000               0.000000000               0.000202783               0.001788922               0.000022882              -0.000147571               0.000645492               0.000497921               0.000000000               0.000000000               0.000000000               0.000000000               0.000165669               0.001803299               0.000020335              -0.000163286               0.000655522               0.000492236               0.000000000               0.000000000               0.000000000               0.000000000               0.000130829               0.001815358               0.000024466              -0.000177858               0.000664399               0.000486541               0.000000000               0.000000000               0.000000000               0.000000000               0.000097180               0.001826715               0.000028240              -0.000191897               0.000672865               0.000480968               0.000000000               0.000000000               0.000000000               0.000000000               0.000064120               0.001840588               0.000020981              -0.000206028               0.000682199               0.000476171               0.000000000               0.000000000               0.000000000               0.000000000               0.000030890               0.001852109               0.000007632              -0.000219929               0.000690673               0.000470744               0.000000000               0.000000000               0.000000000               0.000000000               0.000015979               0.001859171               0.000002603              -0.000226404               0.000695185               0.000468782               0.000000000               0.000000000               0.000000000               0.000000000               0.000523783               0.002572681               0.000805250              -0.000125167               0.000899274               0.000774107               0.000000000               0.000000000               0.000000000               0.000000000               0.000420706               0.002242782               0.000552670              -0.000122583               0.000788447               0.000665864               0.000000000               0.000000000               0.000000000               0.000000000               0.000406118               0.002039249               0.000298747              -0.000102612               0.000713947               0.000611335               0.000000000               0.000000000               0.000000000               0.000000000               0.000377875               0.001924063               0.000187770              -0.000098805               0.000674283               0.000575478               0.000000000               0.000000000               0.000000000               0.000000000               0.000348847               0.001856079               0.000133837              -0.000101192               0.000652418               0.000551226               0.000000000               0.000000000               0.000000000               0.000000000               0.000321417               0.001814990               0.000105343              -0.000106342               0.000640438               0.000534096               0.000000000               0.000000000               0.000000000               0.000000000               0.000294034               0.001790487               0.000088153              -0.000113548               0.000634672               0.000521124               0.000000000               0.000000000               0.000000000               0.000000000               0.000264566               0.001779902               0.000074602              -0.000123275               0.000634387               0.000511111               0.000000000               0.000000000               0.000000000               0.000000000               0.000233765               0.001780440               0.000060727              -0.000134893               0.000638438               0.000503545               0.000000000               0.000000000               0.000000000               0.000000000               0.000202438               0.001791324               0.000045263              -0.000148001               0.000646436               0.000498435               0.000000000               0.000000000               0.000000000               0.000000000               0.000171330               0.001803279               0.000033067              -0.000161161               0.000654807               0.000493646               0.000000000               0.000000000               0.000000000               0.000000000               0.000144517               0.001811272               0.000029210              -0.000172215               0.000661156               0.000488942               0.000000000               0.000000000               0.000000000               0.000000000               0.000117064               0.001815142               0.000030440              -0.000182993               0.000666039               0.000483046               0.000000000               0.000000000               0.000000000               0.000000000               0.000086721               0.001819240               0.000027686              -0.000194884               0.000671369               0.000476484               0.000000000               0.000000000               0.000000000               0.000000000               0.000056485               0.001829146               0.000017320              -0.000207461               0.000678863               0.000471402               0.000000000               0.000000000               0.000000000               0.000000000               0.000025523               0.001836793               0.000007345              -0.000220028               0.000685601               0.000465573               0.000000000               0.000000000               0.000000000               0.000000000               0.000012265               0.001842237               0.000004988              -0.000225680               0.000689300               0.000463620               0.000000000               0.000000000               0.000000000               0.000000000               0.000595078               0.002253145               0.000874404              -0.000058490               0.000770537               0.000712047               0.000000000               0.000000000               0.000000000               0.000000000               0.000438057               0.002030363               0.000610475              -0.000089524               0.000706622               0.000617098               0.000000000               0.000000000               0.000000000               0.000000000               0.000365522               0.001932668               0.000346401              -0.000104513               0.000679054               0.000574541               0.000000000               0.000000000               0.000000000               0.000000000               0.000321562               0.001869887               0.000232461              -0.000113150               0.000661006               0.000547856               0.000000000               0.000000000               0.000000000               0.000000000               0.000289508               0.001829547               0.000175334              -0.000120128               0.000649885               0.000529758               0.000000000               0.000000000               0.000000000               0.000000000               0.000264398               0.001805584               0.000142397              -0.000126549               0.000644038               0.000517489               0.000000000               0.000000000               0.000000000               0.000000000               0.000241876               0.001793193               0.000118961              -0.000133445               0.000642207               0.000508761               0.000000000               0.000000000               0.000000000               0.000000000               0.000216540               0.001791914               0.000098493              -0.000142787               0.000644894               0.000502108               0.000000000               0.000000000               0.000000000               0.000000000               0.000190329               0.001801554               0.000077622              -0.000153820               0.000651785               0.000497965               0.000000000               0.000000000               0.000000000               0.000000000               0.000166559               0.001815949               0.000056996              -0.000164534               0.000660155               0.000495621               0.000000000               0.000000000               0.000000000               0.000000000               0.000144396               0.001824490               0.000042764              -0.000173912               0.000666128               0.000492216               0.000000000               0.000000000               0.000000000               0.000000000               0.000126036               0.001826358               0.000037197              -0.000181031               0.000669123               0.000488093               0.000000000               0.000000000               0.000000000               0.000000000               0.000107235               0.001826770               0.000034949              -0.000188133               0.000671628               0.000483496               0.000000000               0.000000000               0.000000000               0.000000000               0.000082110               0.001833444               0.000025654              -0.000198389               0.000677271               0.000478883               0.000000000               0.000000000               0.000000000               0.000000000               0.000053715               0.001847853               0.000012114              -0.000210838               0.000686224               0.000475386               0.000000000               0.000000000               0.000000000               0.000000000               0.000025113               0.001863879               0.000005379              -0.000223567               0.000695809               0.000472242               0.000000000               0.000000000               0.000000000               0.000000000               0.000015074               0.001877886               0.000006169              -0.000229082               0.000702317               0.000473234               0.000000000               0.000000000               0.000000000               0.000000000               0.000645804               0.001927627               0.000886933               0.000001222               0.000642128               0.000643350               0.000000000               0.000000000               0.000000000               0.000000000               0.000449160               0.001817332               0.000637763              -0.000058732               0.000625348               0.000566617               0.000000000               0.000000000               0.000000000               0.000000000               0.000329484               0.001824758               0.000385088              -0.000104538               0.000643093               0.000538554               0.000000000               0.000000000               0.000000000               0.000000000               0.000276627               0.001808660               0.000274080              -0.000122347               0.000643663               0.000521316               0.000000000               0.000000000               0.000000000               0.000000000               0.000245344               0.001794114               0.000213403              -0.000132260               0.000642119               0.000509859               0.000000000               0.000000000               0.000000000               0.000000000               0.000224040               0.001789104               0.000174218              -0.000139623               0.000642903               0.000503280               0.000000000               0.000000000               0.000000000               0.000000000               0.000205057               0.001793582               0.000144263              -0.000147301               0.000646955               0.000499654               0.000000000               0.000000000               0.000000000               0.000000000               0.000181609               0.001807230               0.000116808              -0.000157800               0.000655004               0.000497204               0.000000000               0.000000000               0.000000000               0.000000000               0.000156259               0.001825386               0.000089590              -0.000169576               0.000664981               0.000495406               0.000000000               0.000000000               0.000000000               0.000000000               0.000136987               0.001842639               0.000066738              -0.000178959               0.000673860               0.000494901               0.000000000               0.000000000               0.000000000               0.000000000               0.000122179               0.001849883               0.000052860              -0.000185418               0.000678427               0.000493010               0.000000000               0.000000000               0.000000000               0.000000000               0.000109730               0.001853134               0.000045799              -0.000190492               0.000681203               0.000490710               0.000000000               0.000000000               0.000000000               0.000000000               0.000096049               0.001864234               0.000037999              -0.000197010               0.000687075               0.000490065               0.000000000               0.000000000               0.000000000               0.000000000               0.000076236               0.001888059               0.000023561              -0.000207418               0.000698486               0.000491068               0.000000000               0.000000000               0.000000000               0.000000000               0.000052213               0.001916707               0.000009721              -0.000220008               0.000712232               0.000492224               0.000000000               0.000000000               0.000000000               0.000000000               0.000025913               0.001945441               0.000004348              -0.000233462               0.000726294               0.000492832               0.000000000               0.000000000               0.000000000               0.000000000               0.000016620               0.001967087               0.000006133              -0.000239653               0.000735573               0.000495921               0.000000000               0.000000000               0.000000000               0.000000000               0.000672812               0.001613715               0.000853180               0.000050589               0.000521036               0.000571625               0.000000000               0.000000000               0.000000000               0.000000000               0.000452604               0.001614816               0.000639789              -0.000032126               0.000548975               0.000516849               0.000000000               0.000000000               0.000000000               0.000000000               0.000301683               0.001715994               0.000415850              -0.000101368               0.000605782               0.000504413               0.000000000               0.000000000               0.000000000               0.000000000               0.000248409               0.001740691               0.000308776              -0.000124433               0.000621702               0.000497269               0.000000000               0.000000000               0.000000000               0.000000000               0.000221993               0.001754282               0.000243490              -0.000136038               0.000630101               0.000494063               0.000000000               0.000000000               0.000000000               0.000000000               0.000203259               0.001770755               0.000197221              -0.000145122               0.000638620               0.000493498               0.000000000               0.000000000               0.000000000               0.000000000               0.000184135               0.001793518               0.000160398              -0.000155139               0.000649546               0.000494407               0.000000000               0.000000000               0.000000000               0.000000000               0.000161087               0.001821168               0.000127741              -0.000167238               0.000662796               0.000495558               0.000000000               0.000000000               0.000000000               0.000000000               0.000136388               0.001847074               0.000096940              -0.000179738               0.000675598               0.000495860               0.000000000               0.000000000               0.000000000               0.000000000               0.000118403               0.001867073               0.000073341              -0.000188982               0.000685345               0.000496363               0.000000000               0.000000000               0.000000000               0.000000000               0.000109488               0.001883293               0.000058876              -0.000194353               0.000692542               0.000498189               0.000000000               0.000000000               0.000000000               0.000000000               0.000101379               0.001907784               0.000047490              -0.000200455               0.000702740               0.000502285               0.000000000               0.000000000               0.000000000               0.000000000               0.000087200               0.001946053               0.000034048              -0.000210556               0.000718863               0.000508307               0.000000000               0.000000000               0.000000000               0.000000000               0.000068509               0.001994222               0.000017212              -0.000223586               0.000739263               0.000515676               0.000000000               0.000000000               0.000000000               0.000000000               0.000048133               0.002044293               0.000004748              -0.000237486               0.000760586               0.000523100               0.000000000               0.000000000               0.000000000               0.000000000               0.000023997               0.002091681               0.000001386              -0.000252461               0.000781374               0.000528913               0.000000000               0.000000000               0.000000000               0.000000000               0.000013884               0.002123754               0.000004454              -0.000260262               0.000794665               0.000534403               0.000000000               0.000000000               0.000000000               0.000000000               0.000688385               0.001335299               0.000786894               0.000091230               0.000414685               0.000505915               0.000000000               0.000000000               0.000000000               0.000000000               0.000460259               0.001430889               0.000627830              -0.000006265               0.000479046               0.000472781               0.000000000               0.000000000               0.000000000               0.000000000               0.000292126               0.001612491               0.000447598              -0.000092014               0.000568163               0.000476149               0.000000000               0.000000000               0.000000000               0.000000000               0.000241448               0.001678498               0.000343529              -0.000119269               0.000599250               0.000479981               0.000000000               0.000000000               0.000000000               0.000000000               0.000222377               0.001720412               0.000273059              -0.000131660               0.000617352               0.000485692               0.000000000               0.000000000               0.000000000               0.000000000               0.000204968               0.001754089               0.000218702              -0.000142398               0.000632156               0.000489759               0.000000000               0.000000000               0.000000000               0.000000000               0.000183763               0.001790113               0.000174759              -0.000154853               0.000648316               0.000493463               0.000000000               0.000000000               0.000000000               0.000000000               0.000159142               0.001829513               0.000138576              -0.000169010               0.000666168               0.000497158               0.000000000               0.000000000               0.000000000               0.000000000               0.000137242               0.001865705               0.000109094              -0.000181747               0.000682478               0.000500731               0.000000000               0.000000000               0.000000000               0.000000000               0.000123249               0.001893830               0.000083697              -0.000190510               0.000694774               0.000504264               0.000000000               0.000000000               0.000000000               0.000000000               0.000118844               0.001925835               0.000061721              -0.000196162               0.000707326               0.000511164               0.000000000               0.000000000               0.000000000               0.000000000               0.000111514               0.001972459               0.000043115              -0.000204739               0.000725726               0.000520987               0.000000000               0.000000000               0.000000000               0.000000000               0.000094782               0.002034344               0.000026080              -0.000218749               0.000751024               0.000532275               0.000000000               0.000000000               0.000000000               0.000000000               0.000075911               0.002107364               0.000009019              -0.000234953               0.000780766               0.000545812               0.000000000               0.000000000               0.000000000               0.000000000               0.000059697               0.002179135              -0.000002574              -0.000250005               0.000809706               0.000559701               0.000000000               0.000000000               0.000000000               0.000000000               0.000045931               0.002245139              -0.000006103              -0.000263418               0.000836178               0.000572760               0.000000000               0.000000000               0.000000000               0.000000000               0.000038990               0.002282838              -0.000004881              -0.000270733               0.000851183               0.000580450               0.000000000               0.000000000               0.000000000               0.000000000               0.000682629               0.001063339               0.000703704               0.000123067               0.000313420               0.000436487               0.000000000               0.000000000               0.000000000               0.000000000               0.000475759               0.001214954               0.000609887               0.000026539               0.000396134               0.000422673               0.000000000               0.000000000               0.000000000               0.000000000               0.000306963               0.001456505               0.000485927              -0.000066952               0.000507814               0.000440862               0.000000000               0.000000000               0.000000000               0.000000000               0.000254999               0.001568843               0.000389318              -0.000100481               0.000556436               0.000455955               0.000000000               0.000000000               0.000000000               0.000000000               0.000235599               0.001637295               0.000314674              -0.000116312               0.000584530               0.000468218               0.000000000               0.000000000               0.000000000               0.000000000               0.000220138               0.001687021               0.000252619              -0.000128326               0.000605110               0.000476784               0.000000000               0.000000000               0.000000000               0.000000000               0.000200800               0.001737000               0.000203038              -0.000141825               0.000626269               0.000484444               0.000000000               0.000000000               0.000000000               0.000000000               0.000178345               0.001787177               0.000165239              -0.000156517               0.000647892               0.000491375               0.000000000               0.000000000               0.000000000               0.000000000               0.000157537               0.001835478               0.000135574              -0.000170358               0.000668606               0.000498248               0.000000000               0.000000000               0.000000000               0.000000000               0.000143531               0.001881837               0.000107024              -0.000181405               0.000687741               0.000506336               0.000000000               0.000000000               0.000000000               0.000000000               0.000134897               0.001926527               0.000078585              -0.000190229               0.000705579               0.000515350               0.000000000               0.000000000               0.000000000               0.000000000               0.000129200               0.001979657               0.000052517              -0.000199007               0.000726214               0.000527208               0.000000000               0.000000000               0.000000000               0.000000000               0.000119032               0.002049759               0.000029637              -0.000211582               0.000753774               0.000542191               0.000000000               0.000000000               0.000000000               0.000000000               0.000107163               0.002135696               0.000012573              -0.000226775               0.000787483               0.000560708               0.000000000               0.000000000               0.000000000               0.000000000               0.000096962               0.002225530               0.000002284              -0.000241830               0.000822446               0.000580616               0.000000000               0.000000000               0.000000000               0.000000000               0.000091775               0.002311838              -0.000001586              -0.000254563               0.000855459               0.000600896               0.000000000               0.000000000               0.000000000               0.000000000               0.000086027               0.002351522              -0.000003591              -0.000261679               0.000871059               0.000609380               0.000000000               0.000000000               0.000000000               0.000000000               0.000645639               0.000802960               0.000605121               0.000141743               0.000220403               0.000362145               0.000000000               0.000000000               0.000000000               0.000000000               0.000491099               0.000996548               0.000576398               0.000059592               0.000312315               0.000371907               0.000000000               0.000000000               0.000000000               0.000000000               0.000340340               0.001281453               0.000513108              -0.000032555               0.000437998               0.000405443               0.000000000               0.000000000               0.000000000               0.000000000               0.000285979               0.001435963               0.000432361              -0.000072253               0.000502734               0.000430480               0.000000000               0.000000000               0.000000000               0.000000000               0.000261489               0.001530386               0.000358369              -0.000093240               0.000541204               0.000447964               0.000000000               0.000000000               0.000000000               0.000000000               0.000245990               0.001601982               0.000292589              -0.000108002               0.000569989               0.000461988               0.000000000               0.000000000               0.000000000               0.000000000               0.000230504               0.001669832               0.000238853              -0.000122290               0.000597368               0.000475078               0.000000000               0.000000000               0.000000000               0.000000000               0.000210239               0.001731891               0.000198768              -0.000137646               0.000623173               0.000485527               0.000000000               0.000000000               0.000000000               0.000000000               0.000188090               0.001792037               0.000167636              -0.000153470               0.000648496               0.000495026               0.000000000               0.000000000               0.000000000               0.000000000               0.000170005               0.001850275               0.000136281              -0.000167532               0.000672596               0.000505064               0.000000000               0.000000000               0.000000000               0.000000000               0.000158621               0.001904429               0.000103838              -0.000178570               0.000694327               0.000515756               0.000000000               0.000000000               0.000000000               0.000000000               0.000154445               0.001963299               0.000072345              -0.000187495               0.000716925               0.000529430               0.000000000               0.000000000               0.000000000               0.000000000               0.000153408               0.002033803               0.000045024              -0.000196697               0.000743493               0.000546796               0.000000000               0.000000000               0.000000000               0.000000000               0.000152212               0.002118337               0.000026529              -0.000207712               0.000775343               0.000567631               0.000000000               0.000000000               0.000000000               0.000000000               0.000149619               0.002211346               0.000015089              -0.000220310               0.000810545               0.000590234               0.000000000               0.000000000               0.000000000               0.000000000               0.000146292               0.002307002               0.000007260              -0.000233515               0.000846831               0.000613316               0.000000000               0.000000000               0.000000000               0.000000000               0.000136119               0.002348631               0.000000136              -0.000242534               0.000863714               0.000621180               0.000000000               0.000000000               0.000000000               0.000000000               0.000579554               0.000567967               0.000491701               0.000146335               0.000140542               0.000286877               0.000000000               0.000000000               0.000000000               0.000000000               0.000493205               0.000785552               0.000518529               0.000086756               0.000232929               0.000319685               0.000000000               0.000000000               0.000000000               0.000000000               0.000381587               0.001089759               0.000510145               0.000006874               0.000360958               0.000367832               0.000000000               0.000000000               0.000000000               0.000000000               0.000328403               0.001274319               0.000451695              -0.000036139               0.000436815               0.000400676               0.000000000               0.000000000               0.000000000               0.000000000               0.000298805               0.001396611               0.000384734              -0.000062525               0.000486374               0.000423849               0.000000000               0.000000000               0.000000000               0.000000000               0.000280342               0.001493580               0.000320820              -0.000081569               0.000525045               0.000443476               0.000000000               0.000000000               0.000000000               0.000000000               0.000264868               0.001581016               0.000266794              -0.000098302               0.000559767               0.000461466               0.000000000               0.000000000               0.000000000               0.000000000               0.000247040               0.001660849               0.000225032              -0.000114966               0.000591933               0.000476967               0.000000000               0.000000000               0.000000000               0.000000000               0.000225111               0.001732740               0.000192243              -0.000132176               0.000621633               0.000489457               0.000000000               0.000000000               0.000000000               0.000000000               0.000201588               0.001797387               0.000160574              -0.000149078               0.000648815               0.000499738               0.000000000               0.000000000               0.000000000               0.000000000               0.000187575               0.001860862               0.000129543              -0.000162267               0.000674370               0.000512103               0.000000000               0.000000000               0.000000000               0.000000000               0.000184704               0.001928656               0.000097786              -0.000171818               0.000700152               0.000528334               0.000000000               0.000000000               0.000000000               0.000000000               0.000189788               0.002009176               0.000068244              -0.000179976               0.000729711               0.000549735               0.000000000               0.000000000               0.000000000               0.000000000               0.000196670               0.002101262               0.000047405              -0.000188906               0.000763382               0.000574476               0.000000000               0.000000000               0.000000000               0.000000000               0.000201106               0.002198839               0.000033979              -0.000199440               0.000799419               0.000599979               0.000000000               0.000000000               0.000000000               0.000000000               0.000198011               0.002300317               0.000019595              -0.000213285               0.000837859               0.000624575               0.000000000               0.000000000               0.000000000               0.000000000               0.000182398               0.002343169               0.000006688              -0.000224496               0.000855881               0.000631384               0.000000000               0.000000000               0.000000000               0.000000000               0.000492320               0.000374788               0.000371306               0.000137770               0.000079005               0.000216774               0.000000000               0.000000000               0.000000000               0.000000000               0.000483629               0.000592630               0.000438326               0.000107281               0.000161781               0.000269062               0.000000000               0.000000000               0.000000000               0.000000000               0.000425090               0.000891906               0.000472647               0.000047919               0.000281326               0.000329245               0.000000000               0.000000000               0.000000000               0.000000000               0.000381135               0.001096408               0.000436593               0.000005874               0.000363507               0.000369382               0.000000000               0.000000000               0.000000000               0.000000000               0.000347591               0.001243766               0.000382646              -0.000025124               0.000422959               0.000397835               0.000000000               0.000000000               0.000000000               0.000000000               0.000326321               0.001365014               0.000325873              -0.000048256               0.000471085               0.000422829               0.000000000               0.000000000               0.000000000               0.000000000               0.000307632               0.001471143               0.000275587              -0.000068531               0.000513220               0.000444689               0.000000000               0.000000000               0.000000000               0.000000000               0.000289917               0.001567672               0.000235477              -0.000087240               0.000551632               0.000464392               0.000000000               0.000000000               0.000000000               0.000000000               0.000269296               0.001651153               0.000202224              -0.000105408               0.000585515               0.000480107               0.000000000               0.000000000               0.000000000               0.000000000               0.000248384               0.001722959               0.000173504              -0.000122226               0.000615056               0.000492830               0.000000000               0.000000000               0.000000000               0.000000000               0.000231658               0.001796188               0.000147366              -0.000137652               0.000644607               0.000506956               0.000000000               0.000000000               0.000000000               0.000000000               0.000224651               0.001878263               0.000118957              -0.000150539               0.000676261               0.000525722               0.000000000               0.000000000               0.000000000               0.000000000               0.000230627               0.001975879               0.000090778              -0.000160499               0.000712119               0.000551620               0.000000000               0.000000000               0.000000000               0.000000000               0.000242524               0.002083728               0.000069609              -0.000169519               0.000751075               0.000581556               0.000000000               0.000000000               0.000000000               0.000000000               0.000252692               0.002196452               0.000051806              -0.000179796               0.000792075               0.000612279               0.000000000               0.000000000               0.000000000               0.000000000               0.000253613               0.002306160               0.000028591              -0.000193164               0.000833101               0.000639936               0.000000000               0.000000000               0.000000000               0.000000000               0.000239704               0.002350904               0.000011596              -0.000203973               0.000851618               0.000647645               0.000000000               0.000000000               0.000000000               0.000000000               0.000397256               0.000232408               0.000256610               0.000119919               0.000037495               0.000157414               0.000000000               0.000000000               0.000000000               0.000000000               0.000466866               0.000431147               0.000340635               0.000121180               0.000103321               0.000224501               0.000000000               0.000000000               0.000000000               0.000000000               0.000466889               0.000706250               0.000397839               0.000086801               0.000206481               0.000293282               0.000000000               0.000000000               0.000000000               0.000000000               0.000437803               0.000919931               0.000381182               0.000049184               0.000290246               0.000339430               0.000000000               0.000000000               0.000000000               0.000000000               0.000405292               0.001087328               0.000342604               0.000016068               0.000357083               0.000373151               0.000000000               0.000000000               0.000000000               0.000000000               0.000378097               0.001227069               0.000297002              -0.000011598               0.000412885               0.000401287               0.000000000               0.000000000               0.000000000               0.000000000               0.000357285               0.001349989               0.000254924              -0.000034767               0.000461581               0.000426814               0.000000000               0.000000000               0.000000000               0.000000000               0.000337486               0.001458212               0.000220544              -0.000055719               0.000504639               0.000448920               0.000000000               0.000000000               0.000000000               0.000000000               0.000317954               0.001551514               0.000192119              -0.000074706               0.000542068               0.000467362               0.000000000               0.000000000               0.000000000               0.000000000               0.000300034               0.001638866               0.000167702              -0.000092345               0.000577065               0.000484720               0.000000000               0.000000000               0.000000000               0.000000000               0.000283572               0.001729351               0.000144664              -0.000109829               0.000613054               0.000503225               0.000000000               0.000000000               0.000000000               0.000000000               0.000272683               0.001829076               0.000123957              -0.000126378               0.000651812               0.000525434               0.000000000               0.000000000               0.000000000               0.000000000               0.000278965               0.001944121               0.000104913              -0.000138403               0.000694168               0.000555765               0.000000000               0.000000000               0.000000000               0.000000000               0.000293951               0.002066932               0.000085389              -0.000148135               0.000738349               0.000590214               0.000000000               0.000000000               0.000000000               0.000000000               0.000306863               0.002192547               0.000063763              -0.000158994               0.000783840               0.000624846               0.000000000               0.000000000               0.000000000               0.000000000               0.000312731               0.002309560               0.000035017              -0.000171420               0.000826986               0.000655565               0.000000000               0.000000000               0.000000000               0.000000000               0.000305987               0.002358852               0.000016530              -0.000180111               0.000846313               0.000666202               0.000000000               0.000000000               0.000000000               0.000000000               0.000310165               0.000140764               0.000158062               0.000098715               0.000014016               0.000112731               0.000000000               0.000000000               0.000000000               0.000000000               0.000446483               0.000309767               0.000232591               0.000128709               0.000060352               0.000189061               0.000000000               0.000000000               0.000000000               0.000000000               0.000502064               0.000552446               0.000288301               0.000119217               0.000144408               0.000263625               0.000000000               0.000000000               0.000000000               0.000000000               0.000489490               0.000767832               0.000284219               0.000087579               0.000226749               0.000314327               0.000000000               0.000000000               0.000000000               0.000000000               0.000459298               0.000948167               0.000259976               0.000053715               0.000298148               0.000351863               0.000000000               0.000000000               0.000000000               0.000000000               0.000428253               0.001101473               0.000228740               0.000022910               0.000359517               0.000382427               0.000000000               0.000000000               0.000000000               0.000000000               0.000404368               0.001236896               0.000199139              -0.000002974               0.000413286               0.000410312               0.000000000               0.000000000               0.000000000               0.000000000               0.000381787               0.001351885               0.000174574              -0.000025816               0.000459229               0.000433413               0.000000000               0.000000000               0.000000000               0.000000000               0.000361753               0.001456660               0.000154069              -0.000046425               0.000501024               0.000454599               0.000000000               0.000000000               0.000000000               0.000000000               0.000343737               0.001562775               0.000134825              -0.000066445               0.000543068               0.000476623               0.000000000               0.000000000               0.000000000               0.000000000               0.000329815               0.001671293               0.000117204              -0.000085231               0.000585502               0.000500272               0.000000000               0.000000000               0.000000000               0.000000000               0.000325830               0.001789000               0.000106011              -0.000101439               0.000630140               0.000528702               0.000000000               0.000000000               0.000000000               0.000000000               0.000330438               0.001916898               0.000097440              -0.000115698               0.000677525               0.000561828               0.000000000               0.000000000               0.000000000               0.000000000               0.000343714               0.002049510               0.000083143              -0.000127296               0.000725595               0.000598299               0.000000000               0.000000000               0.000000000               0.000000000               0.000359948               0.002180780               0.000061184              -0.000137617               0.000772792               0.000635175               0.000000000               0.000000000               0.000000000               0.000000000               0.000372715               0.002301976               0.000032813              -0.000147979               0.000816644               0.000668665               0.000000000               0.000000000               0.000000000               0.000000000               0.000374089               0.002356437               0.000016656              -0.000154271               0.000836895               0.000682624               0.000000000               0.000000000               0.000000000               0.000000000               0.000250649               0.000087375               0.000074806               0.000083071               0.000001434               0.000084505               0.000000000               0.000000000               0.000000000               0.000000000               0.000430673               0.000232584               0.000117561               0.000132428               0.000033384               0.000165812               0.000000000               0.000000000               0.000000000               0.000000000               0.000523584               0.000450301               0.000151124               0.000140055               0.000103414               0.000243469               0.000000000               0.000000000               0.000000000               0.000000000               0.000526167               0.000663850               0.000152228               0.000114330               0.000183171               0.000297501               0.000000000               0.000000000               0.000000000               0.000000000               0.000497857               0.000850796               0.000140652               0.000080346               0.000256814               0.000337160               0.000000000               0.000000000               0.000000000               0.000000000               0.000466367               0.001013559               0.000125111               0.000048192               0.000321785               0.000369978               0.000000000               0.000000000               0.000000000               0.000000000               0.000438086               0.001154411               0.000109982               0.000019981               0.000378139               0.000398120               0.000000000               0.000000000               0.000000000               0.000000000               0.000412611               0.001275027               0.000097202              -0.000004649               0.000426554               0.000421905               0.000000000               0.000000000               0.000000000               0.000000000               0.000390420               0.001389464               0.000086493              -0.000027276               0.000472242               0.000444966               0.000000000               0.000000000               0.000000000               0.000000000               0.000374820               0.001506925               0.000074636              -0.000047808               0.000518239               0.000470431               0.000000000               0.000000000               0.000000000               0.000000000               0.000367229               0.001629780               0.000066436              -0.000066011               0.000565258               0.000499247               0.000000000               0.000000000               0.000000000               0.000000000               0.000368233               0.001761898               0.000062816              -0.000082150               0.000614677               0.000532527               0.000000000               0.000000000               0.000000000               0.000000000               0.000372069               0.001899558               0.000059487              -0.000097919               0.000665819               0.000567901               0.000000000               0.000000000               0.000000000               0.000000000               0.000380226               0.002035971               0.000053366              -0.000111911               0.000715954               0.000604043               0.000000000               0.000000000               0.000000000               0.000000000               0.000394939               0.002162570               0.000038354              -0.000122219               0.000761589               0.000639370               0.000000000               0.000000000               0.000000000               0.000000000               0.000420110               0.002285014               0.000017725              -0.000128085               0.000804359               0.000676274               0.000000000               0.000000000               0.000000000               0.000000000               0.000436173               0.002346445               0.000007159              -0.000129741               0.000825388               0.000695647               0.000000000               0.000000000               0.000000000               0.000000000               0.000000000               0.000000000               0.000000000               0.000000000               0.000000000               0.000000000               0.000000000               0.000000000               0.000000000               0.000000000               0.000000000               0.000000000               0.000000000               0.000000000               0.000000000               0.000000000               0.000000000               0.000000000               0.000000000               0.000000000               0.000000000               0.000000000               0.000000000               0.000000000               0.000000000               0.000000000               0.000000000               0.000000000               0.000000000               0.000000000               0.000000000               0.000000000               0.000000000               0.000000000               0.000000000               0.000000000               0.000000000               0.000000000               0.000000000               0.000000000               0.000000000               0.000000000               0.000000000               0.000000000               0.000000000               0.000000000               0.000000000               0.000000000               0.000000000               0.000000000               0.000000000               0.000000000               0.000000000               0.000000000               0.000000000               0.000000000               0.000000000               0.000000000               0.000000000               0.000000000               0.000000000               0.000000000               0.000000000               0.000000000               0.000000000               0.000000000               0.000000000               0.000000000               0.000000000               0.000000000               0.000000000               0.000000000               0.000000000               0.000000000               0.000000000               0.000000000               0.000000000               0.000000000               0.000000000               0.000000000               0.000000000               0.000000000               0.000000000               0.000000000               0.000000000               0.000000000               0.000000000               0.000000000               0.000000000               0.000000000               0.000000000               0.000000000               0.000000000               0.000000000               0.000000000               0.000000000               0.000000000               0.000000000               0.000000000               0.000000000               0.000000000               0.000000000               0.000000000               0.000000000               0.000000000               0.000000000               0.000000000               0.000000000               0.000000000               0.000000000               0.000000000               0.000000000               0.000000000               0.000000000               0.000000000               0.000000000               0.000000000               0.000000000               0.000000000               0.000000000               0.000000000               0.000000000               0.000000000               0.000000000               0.000000000               0.000000000               0.000000000               0.000000000               0.000000000               0.000000000               0.000000000               0.000000000               0.000000000               0.000000000               0.000000000               0.000000000               0.000000000               0.000000000               0.000000000               0.000000000               0.000000000               0.000000000               0.000000000               0.000000000               0.000000000               0.000000000               0.000000000               0.000000000               0.000000000               0.000000000               0.000000000               0.000000000               0.000000000               0.000000000               0.000000000               0.000000000               0.000000000               0.000000000               0.000000000               0.000000000               0.000000000               0.000000000               0.000000000               0.000000000               0.000000000               0.000000000               0.000000000               0.000000000               0.000000000               0.000000000 </DataArray>
</PointData>
</Piece>
</UnstructuredGrid> </VTKFile>
