<?xml version="1.0"?>
<VTKFile type="UnstructuredGrid" version="0.1">
<UnstructuredGrid>
<Piece NumberOfPoints="      1156" NumberOfCells="      1024">
<Points>
<DataArray type="Float64"                                    Name="coordinates"                                                      NumberOfComponents=" 3" format="ascii">
              0.133000000               0.000000000               0.000000000               0.155937500               0.000000000               0.000000000               0.178875000               0.000000000               0.000000000               0.201812500               0.000000000               0.000000000               0.224750000               0.000000000               0.000000000               0.247687500               0.000000000               0.000000000               0.270625000               0.000000000               0.000000000               0.293562500               0.000000000               0.000000000               0.316500000               0.000000000               0.000000000               0.339437500               0.000000000               0.000000000               0.362375000               0.000000000               0.000000000               0.385312500               0.000000000               0.000000000               0.408250000               0.000000000               0.000000000               0.431187500               0.000000000               0.000000000               0.454125000               0.000000000               0.000000000               0.477062500               0.000000000               0.000000000               0.500000000               0.000000000               0.000000000               0.132359569               0.013036280               0.000000000               0.155337096               0.016127762               0.000000000               0.178314623               0.019219245               0.000000000               0.201292150               0.022310727               0.000000000               0.224269676               0.025402210               0.000000000               0.247247203               0.028493692               0.000000000               0.270224730               0.031585175               0.000000000               0.293202257               0.034676657               0.000000000               0.316179784               0.037768140               0.000000000               0.339157311               0.040859622               0.000000000               0.362134838               0.043951105               0.000000000               0.385112365               0.047042587               0.000000000               0.408089892               0.050134070               0.000000000               0.431067419               0.053225552               0.000000000               0.454044946               0.056317035               0.000000000               0.477022473               0.059408517               0.000000000               0.500000000               0.062500000               0.000000000               0.130444442               0.025947013               0.000000000               0.153541665               0.032137825               0.000000000               0.176638887               0.038328636               0.000000000               0.199736109               0.044519448               0.000000000               0.222833332               0.050710260               0.000000000               0.245930554               0.056901071               0.000000000               0.269027776               0.063091883               0.000000000               0.292124999               0.069282695               0.000000000               0.315222221               0.075473506               0.000000000               0.338319444               0.081664318               0.000000000               0.361416666               0.087855130               0.000000000               0.384513888               0.094045942               0.000000000               0.407611111               0.100236753               0.000000000               0.430708333               0.106427565               0.000000000               0.453805555               0.112618377               0.000000000               0.476902778               0.118809188               0.000000000               0.500000000               0.125000000               0.000000000               0.127273065               0.038607862               0.000000000               0.150568498               0.047913621               0.000000000               0.173863932               0.057219379               0.000000000               0.197159365               0.066525138               0.000000000               0.220454798               0.075830897               0.000000000               0.243750232               0.085136655               0.000000000               0.267045665               0.094442414               0.000000000               0.290341099               0.103748172               0.000000000               0.313636532               0.113053931               0.000000000               0.336931966               0.122359690               0.000000000               0.360227399               0.131665448               0.000000000               0.383522833               0.140971207               0.000000000               0.406818266               0.150276966               0.000000000               0.430113700               0.159582724               0.000000000               0.453409133               0.168888483               0.000000000               0.476704567               0.178194241               0.000000000               0.500000000               0.187500000               0.000000000               0.122875978               0.050896897               0.000000000               0.146446229               0.063340840               0.000000000               0.170016481               0.075784784               0.000000000               0.193586732               0.088228728               0.000000000               0.217156983               0.100672672               0.000000000               0.240727235               0.113116616               0.000000000               0.264297486               0.125560560               0.000000000               0.287867738               0.138004504               0.000000000               0.311437989               0.150448448               0.000000000               0.335008240               0.162892392               0.000000000               0.358578492               0.175336336               0.000000000               0.382148743               0.187780280               0.000000000               0.405718994               0.200224224               0.000000000               0.429289246               0.212668168               0.000000000               0.452859497               0.225112112               0.000000000               0.476429749               0.237556056               0.000000000               0.500000000               0.250000000               0.000000000               0.117295528               0.062695766               0.000000000               0.141214558               0.078308531               0.000000000               0.165133587               0.093921295               0.000000000               0.189052617               0.109534060               0.000000000               0.212971646               0.125146824               0.000000000               0.236890676               0.140759589               0.000000000               0.260809705               0.156372354               0.000000000               0.284728735               0.171985118               0.000000000               0.308647764               0.187597883               0.000000000               0.332566794               0.203210648               0.000000000               0.356485823               0.218823412               0.000000000               0.380404853               0.234436177               0.000000000               0.404323882               0.250048941               0.000000000               0.428242912               0.265661706               0.000000000               0.452161941               0.281274471               0.000000000               0.476080971               0.296887235               0.000000000               0.500000000               0.312500000               0.000000000               0.110585458               0.073890841               0.000000000               0.134923867               0.092710163               0.000000000               0.159262276               0.111529486               0.000000000               0.183600685               0.130348808               0.000000000               0.207939094               0.149168131               0.000000000               0.232277503               0.167987453               0.000000000               0.256615912               0.186806776               0.000000000               0.280954320               0.205626098               0.000000000               0.305292729               0.224445420               0.000000000               0.329631138               0.243264743               0.000000000               0.353969547               0.262084065               0.000000000               0.378307956               0.280903388               0.000000000               0.402646365               0.299722710               0.000000000               0.426984773               0.318542033               0.000000000               0.451323182               0.337361355               0.000000000               0.475661591               0.356180678               0.000000000               0.500000000               0.375000000               0.000000000               0.102810390               0.084374307               0.000000000               0.127634741               0.106444663               0.000000000               0.152459092               0.128515018               0.000000000               0.177283442               0.150585374               0.000000000               0.202107793               0.172655730               0.000000000               0.226932143               0.194726086               0.000000000               0.251756494               0.216796442               0.000000000               0.276580845               0.238866798               0.000000000               0.301405195               0.260937153               0.000000000               0.326229546               0.283007509               0.000000000               0.351053896               0.305077865               0.000000000               0.375878247               0.327148221               0.000000000               0.400702598               0.349218577               0.000000000               0.425526948               0.371288933               0.000000000               0.450351299               0.393359288               0.000000000               0.475175649               0.415429644               0.000000000               0.500000000               0.437500000               0.000000000               0.094045202               0.094045202               0.000000000               0.119417377               0.119417377               0.000000000               0.144789552               0.144789552               0.000000000               0.170161727               0.170161727               0.000000000               0.195533901               0.195533901               0.000000000               0.220906076               0.220906076               0.000000000               0.246278251               0.246278251               0.000000000               0.271650426               0.271650426               0.000000000               0.297022601               0.297022601               0.000000000               0.322394776               0.322394776               0.000000000               0.347766951               0.347766951               0.000000000               0.373139126               0.373139126               0.000000000               0.398511300               0.398511300               0.000000000               0.423883475               0.423883475               0.000000000               0.449255650               0.449255650               0.000000000               0.474627825               0.474627825               0.000000000               0.500000000               0.500000000               0.000000000               0.084374307               0.102810390               0.000000000               0.106444663               0.127634741               0.000000000               0.128515018               0.152459092               0.000000000               0.150585374               0.177283442               0.000000000               0.172655730               0.202107793               0.000000000               0.194726086               0.226932143               0.000000000               0.216796442               0.251756494               0.000000000               0.238866798               0.276580845               0.000000000               0.260937153               0.301405195               0.000000000               0.283007509               0.326229546               0.000000000               0.305077865               0.351053896               0.000000000               0.327148221               0.375878247               0.000000000               0.349218577               0.400702598               0.000000000               0.371288933               0.425526948               0.000000000               0.393359288               0.450351299               0.000000000               0.415429644               0.475175649               0.000000000               0.437500000               0.500000000               0.000000000               0.073890841               0.110585458               0.000000000               0.092710163               0.134923867               0.000000000               0.111529486               0.159262276               0.000000000               0.130348808               0.183600685               0.000000000               0.149168131               0.207939094               0.000000000               0.167987453               0.232277503               0.000000000               0.186806776               0.256615912               0.000000000               0.205626098               0.280954320               0.000000000               0.224445420               0.305292729               0.000000000               0.243264743               0.329631138               0.000000000               0.262084065               0.353969547               0.000000000               0.280903388               0.378307956               0.000000000               0.299722710               0.402646365               0.000000000               0.318542033               0.426984773               0.000000000               0.337361355               0.451323182               0.000000000               0.356180678               0.475661591               0.000000000               0.375000000               0.500000000               0.000000000               0.062695766               0.117295528               0.000000000               0.078308531               0.141214558               0.000000000               0.093921295               0.165133587               0.000000000               0.109534060               0.189052617               0.000000000               0.125146824               0.212971646               0.000000000               0.140759589               0.236890676               0.000000000               0.156372354               0.260809705               0.000000000               0.171985118               0.284728735               0.000000000               0.187597883               0.308647764               0.000000000               0.203210648               0.332566794               0.000000000               0.218823412               0.356485823               0.000000000               0.234436177               0.380404853               0.000000000               0.250048941               0.404323882               0.000000000               0.265661706               0.428242912               0.000000000               0.281274471               0.452161941               0.000000000               0.296887235               0.476080971               0.000000000               0.312500000               0.500000000               0.000000000               0.050896897               0.122875978               0.000000000               0.063340840               0.146446229               0.000000000               0.075784784               0.170016481               0.000000000               0.088228728               0.193586732               0.000000000               0.100672672               0.217156983               0.000000000               0.113116616               0.240727235               0.000000000               0.125560560               0.264297486               0.000000000               0.138004504               0.287867738               0.000000000               0.150448448               0.311437989               0.000000000               0.162892392               0.335008240               0.000000000               0.175336336               0.358578492               0.000000000               0.187780280               0.382148743               0.000000000               0.200224224               0.405718994               0.000000000               0.212668168               0.429289246               0.000000000               0.225112112               0.452859497               0.000000000               0.237556056               0.476429749               0.000000000               0.250000000               0.500000000               0.000000000               0.038607862               0.127273065               0.000000000               0.047913621               0.150568498               0.000000000               0.057219379               0.173863932               0.000000000               0.066525138               0.197159365               0.000000000               0.075830897               0.220454798               0.000000000               0.085136655               0.243750232               0.000000000               0.094442414               0.267045665               0.000000000               0.103748172               0.290341099               0.000000000               0.113053931               0.313636532               0.000000000               0.122359690               0.336931966               0.000000000               0.131665448               0.360227399               0.000000000               0.140971207               0.383522833               0.000000000               0.150276966               0.406818266               0.000000000               0.159582724               0.430113700               0.000000000               0.168888483               0.453409133               0.000000000               0.178194241               0.476704567               0.000000000               0.187500000               0.500000000               0.000000000               0.025947013               0.130444442               0.000000000               0.032137825               0.153541665               0.000000000               0.038328636               0.176638887               0.000000000               0.044519448               0.199736109               0.000000000               0.050710260               0.222833332               0.000000000               0.056901071               0.245930554               0.000000000               0.063091883               0.269027776               0.000000000               0.069282695               0.292124999               0.000000000               0.075473506               0.315222221               0.000000000               0.081664318               0.338319444               0.000000000               0.087855130               0.361416666               0.000000000               0.094045942               0.384513888               0.000000000               0.100236753               0.407611111               0.000000000               0.106427565               0.430708333               0.000000000               0.112618377               0.453805555               0.000000000               0.118809188               0.476902778               0.000000000               0.125000000               0.500000000               0.000000000               0.013036280               0.132359569               0.000000000               0.016127762               0.155337096               0.000000000               0.019219245               0.178314623               0.000000000               0.022310727               0.201292150               0.000000000               0.025402210               0.224269676               0.000000000               0.028493692               0.247247203               0.000000000               0.031585175               0.270224730               0.000000000               0.034676657               0.293202257               0.000000000               0.037768140               0.316179784               0.000000000               0.040859622               0.339157311               0.000000000               0.043951105               0.362134838               0.000000000               0.047042587               0.385112365               0.000000000               0.050134070               0.408089892               0.000000000               0.053225552               0.431067419               0.000000000               0.056317035               0.454044946               0.000000000               0.059408517               0.477022473               0.000000000               0.062500000               0.500000000               0.000000000               0.000000000               0.133000000               0.000000000               0.000000000               0.155937500               0.000000000               0.000000000               0.178875000               0.000000000               0.000000000               0.201812500               0.000000000               0.000000000               0.224750000               0.000000000               0.000000000               0.247687500               0.000000000               0.000000000               0.270625000               0.000000000               0.000000000               0.293562500               0.000000000               0.000000000               0.316500000               0.000000000               0.000000000               0.339437500               0.000000000               0.000000000               0.362375000               0.000000000               0.000000000               0.385312500               0.000000000               0.000000000               0.408250000               0.000000000               0.000000000               0.431187500               0.000000000               0.000000000               0.454125000               0.000000000               0.000000000               0.477062500               0.000000000               0.000000000               0.500000000               0.000000000               0.133000000               0.000000000               0.000000000               0.155937500               0.000000000               0.000000000               0.178875000               0.000000000               0.000000000               0.201812500               0.000000000               0.000000000               0.224750000               0.000000000               0.000000000               0.247687500               0.000000000               0.000000000               0.270625000               0.000000000               0.000000000               0.293562500               0.000000000               0.000000000               0.316500000               0.000000000               0.000000000               0.339437500               0.000000000               0.000000000               0.362375000               0.000000000               0.000000000               0.385312500               0.000000000               0.000000000               0.408250000               0.000000000               0.000000000               0.431187500               0.000000000               0.000000000               0.454125000               0.000000000               0.000000000               0.477062500               0.000000000               0.000000000               0.500000000               0.000000000               0.000000000               0.132359569              -0.013036280               0.000000000               0.155337096              -0.016127762               0.000000000               0.178314623              -0.019219245               0.000000000               0.201292150              -0.022310727               0.000000000               0.224269676              -0.025402210               0.000000000               0.247247203              -0.028493692               0.000000000               0.270224730              -0.031585175               0.000000000               0.293202257              -0.034676657               0.000000000               0.316179784              -0.037768140               0.000000000               0.339157311              -0.040859622               0.000000000               0.362134838              -0.043951105               0.000000000               0.385112365              -0.047042587               0.000000000               0.408089892              -0.050134070               0.000000000               0.431067419              -0.053225552               0.000000000               0.454044946              -0.056317035               0.000000000               0.477022473              -0.059408517               0.000000000               0.500000000              -0.062500000               0.000000000               0.130444442              -0.025947013               0.000000000               0.153541665              -0.032137825               0.000000000               0.176638887              -0.038328636               0.000000000               0.199736109              -0.044519448               0.000000000               0.222833332              -0.050710260               0.000000000               0.245930554              -0.056901071               0.000000000               0.269027776              -0.063091883               0.000000000               0.292124999              -0.069282695               0.000000000               0.315222221              -0.075473506               0.000000000               0.338319444              -0.081664318               0.000000000               0.361416666              -0.087855130               0.000000000               0.384513888              -0.094045942               0.000000000               0.407611111              -0.100236753               0.000000000               0.430708333              -0.106427565               0.000000000               0.453805555              -0.112618377               0.000000000               0.476902778              -0.118809188               0.000000000               0.500000000              -0.125000000               0.000000000               0.127273065              -0.038607862               0.000000000               0.150568498              -0.047913621               0.000000000               0.173863932              -0.057219379               0.000000000               0.197159365              -0.066525138               0.000000000               0.220454798              -0.075830897               0.000000000               0.243750232              -0.085136655               0.000000000               0.267045665              -0.094442414               0.000000000               0.290341099              -0.103748172               0.000000000               0.313636532              -0.113053931               0.000000000               0.336931966              -0.122359690               0.000000000               0.360227399              -0.131665448               0.000000000               0.383522833              -0.140971207               0.000000000               0.406818266              -0.150276966               0.000000000               0.430113700              -0.159582724               0.000000000               0.453409133              -0.168888483               0.000000000               0.476704567              -0.178194241               0.000000000               0.500000000              -0.187500000               0.000000000               0.122875978              -0.050896897               0.000000000               0.146446229              -0.063340840               0.000000000               0.170016481              -0.075784784               0.000000000               0.193586732              -0.088228728               0.000000000               0.217156983              -0.100672672               0.000000000               0.240727235              -0.113116616               0.000000000               0.264297486              -0.125560560               0.000000000               0.287867738              -0.138004504               0.000000000               0.311437989              -0.150448448               0.000000000               0.335008240              -0.162892392               0.000000000               0.358578492              -0.175336336               0.000000000               0.382148743              -0.187780280               0.000000000               0.405718994              -0.200224224               0.000000000               0.429289246              -0.212668168               0.000000000               0.452859497              -0.225112112               0.000000000               0.476429749              -0.237556056               0.000000000               0.500000000              -0.250000000               0.000000000               0.117295528              -0.062695766               0.000000000               0.141214558              -0.078308531               0.000000000               0.165133587              -0.093921295               0.000000000               0.189052617              -0.109534060               0.000000000               0.212971646              -0.125146824               0.000000000               0.236890676              -0.140759589               0.000000000               0.260809705              -0.156372354               0.000000000               0.284728735              -0.171985118               0.000000000               0.308647764              -0.187597883               0.000000000               0.332566794              -0.203210648               0.000000000               0.356485823              -0.218823412               0.000000000               0.380404853              -0.234436177               0.000000000               0.404323882              -0.250048941               0.000000000               0.428242912              -0.265661706               0.000000000               0.452161941              -0.281274471               0.000000000               0.476080971              -0.296887235               0.000000000               0.500000000              -0.312500000               0.000000000               0.110585458              -0.073890841               0.000000000               0.134923867              -0.092710163               0.000000000               0.159262276              -0.111529486               0.000000000               0.183600685              -0.130348808               0.000000000               0.207939094              -0.149168131               0.000000000               0.232277503              -0.167987453               0.000000000               0.256615912              -0.186806776               0.000000000               0.280954320              -0.205626098               0.000000000               0.305292729              -0.224445420               0.000000000               0.329631138              -0.243264743               0.000000000               0.353969547              -0.262084065               0.000000000               0.378307956              -0.280903388               0.000000000               0.402646365              -0.299722710               0.000000000               0.426984773              -0.318542033               0.000000000               0.451323182              -0.337361355               0.000000000               0.475661591              -0.356180678               0.000000000               0.500000000              -0.375000000               0.000000000               0.102810390              -0.084374307               0.000000000               0.127634741              -0.106444663               0.000000000               0.152459092              -0.128515018               0.000000000               0.177283442              -0.150585374               0.000000000               0.202107793              -0.172655730               0.000000000               0.226932143              -0.194726086               0.000000000               0.251756494              -0.216796442               0.000000000               0.276580845              -0.238866798               0.000000000               0.301405195              -0.260937153               0.000000000               0.326229546              -0.283007509               0.000000000               0.351053896              -0.305077865               0.000000000               0.375878247              -0.327148221               0.000000000               0.400702598              -0.349218577               0.000000000               0.425526948              -0.371288933               0.000000000               0.450351299              -0.393359288               0.000000000               0.475175649              -0.415429644               0.000000000               0.500000000              -0.437500000               0.000000000               0.094045202              -0.094045202               0.000000000               0.119417377              -0.119417377               0.000000000               0.144789552              -0.144789552               0.000000000               0.170161727              -0.170161727               0.000000000               0.195533901              -0.195533901               0.000000000               0.220906076              -0.220906076               0.000000000               0.246278251              -0.246278251               0.000000000               0.271650426              -0.271650426               0.000000000               0.297022601              -0.297022601               0.000000000               0.322394776              -0.322394776               0.000000000               0.347766951              -0.347766951               0.000000000               0.373139126              -0.373139126               0.000000000               0.398511300              -0.398511300               0.000000000               0.423883475              -0.423883475               0.000000000               0.449255650              -0.449255650               0.000000000               0.474627825              -0.474627825               0.000000000               0.500000000              -0.500000000               0.000000000               0.084374307              -0.102810390               0.000000000               0.106444663              -0.127634741               0.000000000               0.128515018              -0.152459092               0.000000000               0.150585374              -0.177283442               0.000000000               0.172655730              -0.202107793               0.000000000               0.194726086              -0.226932143               0.000000000               0.216796442              -0.251756494               0.000000000               0.238866798              -0.276580845               0.000000000               0.260937153              -0.301405195               0.000000000               0.283007509              -0.326229546               0.000000000               0.305077865              -0.351053896               0.000000000               0.327148221              -0.375878247               0.000000000               0.349218577              -0.400702598               0.000000000               0.371288933              -0.425526948               0.000000000               0.393359288              -0.450351299               0.000000000               0.415429644              -0.475175649               0.000000000               0.437500000              -0.500000000               0.000000000               0.073890841              -0.110585458               0.000000000               0.092710163              -0.134923867               0.000000000               0.111529486              -0.159262276               0.000000000               0.130348808              -0.183600685               0.000000000               0.149168131              -0.207939094               0.000000000               0.167987453              -0.232277503               0.000000000               0.186806776              -0.256615912               0.000000000               0.205626098              -0.280954320               0.000000000               0.224445420              -0.305292729               0.000000000               0.243264743              -0.329631138               0.000000000               0.262084065              -0.353969547               0.000000000               0.280903388              -0.378307956               0.000000000               0.299722710              -0.402646365               0.000000000               0.318542033              -0.426984773               0.000000000               0.337361355              -0.451323182               0.000000000               0.356180678              -0.475661591               0.000000000               0.375000000              -0.500000000               0.000000000               0.062695766              -0.117295528               0.000000000               0.078308531              -0.141214558               0.000000000               0.093921295              -0.165133587               0.000000000               0.109534060              -0.189052617               0.000000000               0.125146824              -0.212971646               0.000000000               0.140759589              -0.236890676               0.000000000               0.156372354              -0.260809705               0.000000000               0.171985118              -0.284728735               0.000000000               0.187597883              -0.308647764               0.000000000               0.203210648              -0.332566794               0.000000000               0.218823412              -0.356485823               0.000000000               0.234436177              -0.380404853               0.000000000               0.250048941              -0.404323882               0.000000000               0.265661706              -0.428242912               0.000000000               0.281274471              -0.452161941               0.000000000               0.296887235              -0.476080971               0.000000000               0.312500000              -0.500000000               0.000000000               0.050896897              -0.122875978               0.000000000               0.063340840              -0.146446229               0.000000000               0.075784784              -0.170016481               0.000000000               0.088228728              -0.193586732               0.000000000               0.100672672              -0.217156983               0.000000000               0.113116616              -0.240727235               0.000000000               0.125560560              -0.264297486               0.000000000               0.138004504              -0.287867738               0.000000000               0.150448448              -0.311437989               0.000000000               0.162892392              -0.335008240               0.000000000               0.175336336              -0.358578492               0.000000000               0.187780280              -0.382148743               0.000000000               0.200224224              -0.405718994               0.000000000               0.212668168              -0.429289246               0.000000000               0.225112112              -0.452859497               0.000000000               0.237556056              -0.476429749               0.000000000               0.250000000              -0.500000000               0.000000000               0.038607862              -0.127273065               0.000000000               0.047913621              -0.150568498               0.000000000               0.057219379              -0.173863932               0.000000000               0.066525138              -0.197159365               0.000000000               0.075830897              -0.220454798               0.000000000               0.085136655              -0.243750232               0.000000000               0.094442414              -0.267045665               0.000000000               0.103748172              -0.290341099               0.000000000               0.113053931              -0.313636532               0.000000000               0.122359690              -0.336931966               0.000000000               0.131665448              -0.360227399               0.000000000               0.140971207              -0.383522833               0.000000000               0.150276966              -0.406818266               0.000000000               0.159582724              -0.430113700               0.000000000               0.168888483              -0.453409133               0.000000000               0.178194241              -0.476704567               0.000000000               0.187500000              -0.500000000               0.000000000               0.025947013              -0.130444442               0.000000000               0.032137825              -0.153541665               0.000000000               0.038328636              -0.176638887               0.000000000               0.044519448              -0.199736109               0.000000000               0.050710260              -0.222833332               0.000000000               0.056901071              -0.245930554               0.000000000               0.063091883              -0.269027776               0.000000000               0.069282695              -0.292124999               0.000000000               0.075473506              -0.315222221               0.000000000               0.081664318              -0.338319444               0.000000000               0.087855130              -0.361416666               0.000000000               0.094045942              -0.384513888               0.000000000               0.100236753              -0.407611111               0.000000000               0.106427565              -0.430708333               0.000000000               0.112618377              -0.453805555               0.000000000               0.118809188              -0.476902778               0.000000000               0.125000000              -0.500000000               0.000000000               0.013036280              -0.132359569               0.000000000               0.016127762              -0.155337096               0.000000000               0.019219245              -0.178314623               0.000000000               0.022310727              -0.201292150               0.000000000               0.025402210              -0.224269676               0.000000000               0.028493692              -0.247247203               0.000000000               0.031585175              -0.270224730               0.000000000               0.034676657              -0.293202257               0.000000000               0.037768140              -0.316179784               0.000000000               0.040859622              -0.339157311               0.000000000               0.043951105              -0.362134838               0.000000000               0.047042587              -0.385112365               0.000000000               0.050134070              -0.408089892               0.000000000               0.053225552              -0.431067419               0.000000000               0.056317035              -0.454044946               0.000000000               0.059408517              -0.477022473               0.000000000               0.062500000              -0.500000000               0.000000000               0.000000000              -0.133000000               0.000000000               0.000000000              -0.155937500               0.000000000               0.000000000              -0.178875000               0.000000000               0.000000000              -0.201812500               0.000000000               0.000000000              -0.224750000               0.000000000               0.000000000              -0.247687500               0.000000000               0.000000000              -0.270625000               0.000000000               0.000000000              -0.293562500               0.000000000               0.000000000              -0.316500000               0.000000000               0.000000000              -0.339437500               0.000000000               0.000000000              -0.362375000               0.000000000               0.000000000              -0.385312500               0.000000000               0.000000000              -0.408250000               0.000000000               0.000000000              -0.431187500               0.000000000               0.000000000              -0.454125000               0.000000000               0.000000000              -0.477062500               0.000000000               0.000000000              -0.500000000               0.000000000              -0.133000000               0.000000000               0.000000000              -0.155937500               0.000000000               0.000000000              -0.178875000               0.000000000               0.000000000              -0.201812500               0.000000000               0.000000000              -0.224750000               0.000000000               0.000000000              -0.247687500               0.000000000               0.000000000              -0.270625000               0.000000000               0.000000000              -0.293562500               0.000000000               0.000000000              -0.316500000               0.000000000               0.000000000              -0.339437500               0.000000000               0.000000000              -0.362375000               0.000000000               0.000000000              -0.385312500               0.000000000               0.000000000              -0.408250000               0.000000000               0.000000000              -0.431187500               0.000000000               0.000000000              -0.454125000               0.000000000               0.000000000              -0.477062500               0.000000000               0.000000000              -0.500000000               0.000000000               0.000000000              -0.132359569              -0.013036280               0.000000000              -0.155337096              -0.016127762               0.000000000              -0.178314623              -0.019219245               0.000000000              -0.201292150              -0.022310727               0.000000000              -0.224269676              -0.025402210               0.000000000              -0.247247203              -0.028493692               0.000000000              -0.270224730              -0.031585175               0.000000000              -0.293202257              -0.034676657               0.000000000              -0.316179784              -0.037768140               0.000000000              -0.339157311              -0.040859622               0.000000000              -0.362134838              -0.043951105               0.000000000              -0.385112365              -0.047042587               0.000000000              -0.408089892              -0.050134070               0.000000000              -0.431067419              -0.053225552               0.000000000              -0.454044946              -0.056317035               0.000000000              -0.477022473              -0.059408517               0.000000000              -0.500000000              -0.062500000               0.000000000              -0.130444442              -0.025947013               0.000000000              -0.153541665              -0.032137825               0.000000000              -0.176638887              -0.038328636               0.000000000              -0.199736109              -0.044519448               0.000000000              -0.222833332              -0.050710260               0.000000000              -0.245930554              -0.056901071               0.000000000              -0.269027776              -0.063091883               0.000000000              -0.292124999              -0.069282695               0.000000000              -0.315222221              -0.075473506               0.000000000              -0.338319444              -0.081664318               0.000000000              -0.361416666              -0.087855130               0.000000000              -0.384513888              -0.094045942               0.000000000              -0.407611111              -0.100236753               0.000000000              -0.430708333              -0.106427565               0.000000000              -0.453805555              -0.112618377               0.000000000              -0.476902778              -0.118809188               0.000000000              -0.500000000              -0.125000000               0.000000000              -0.127273065              -0.038607862               0.000000000              -0.150568498              -0.047913621               0.000000000              -0.173863932              -0.057219379               0.000000000              -0.197159365              -0.066525138               0.000000000              -0.220454798              -0.075830897               0.000000000              -0.243750232              -0.085136655               0.000000000              -0.267045665              -0.094442414               0.000000000              -0.290341099              -0.103748172               0.000000000              -0.313636532              -0.113053931               0.000000000              -0.336931966              -0.122359690               0.000000000              -0.360227399              -0.131665448               0.000000000              -0.383522833              -0.140971207               0.000000000              -0.406818266              -0.150276966               0.000000000              -0.430113700              -0.159582724               0.000000000              -0.453409133              -0.168888483               0.000000000              -0.476704567              -0.178194241               0.000000000              -0.500000000              -0.187500000               0.000000000              -0.122875978              -0.050896897               0.000000000              -0.146446229              -0.063340840               0.000000000              -0.170016481              -0.075784784               0.000000000              -0.193586732              -0.088228728               0.000000000              -0.217156983              -0.100672672               0.000000000              -0.240727235              -0.113116616               0.000000000              -0.264297486              -0.125560560               0.000000000              -0.287867738              -0.138004504               0.000000000              -0.311437989              -0.150448448               0.000000000              -0.335008240              -0.162892392               0.000000000              -0.358578492              -0.175336336               0.000000000              -0.382148743              -0.187780280               0.000000000              -0.405718994              -0.200224224               0.000000000              -0.429289246              -0.212668168               0.000000000              -0.452859497              -0.225112112               0.000000000              -0.476429749              -0.237556056               0.000000000              -0.500000000              -0.250000000               0.000000000              -0.117295528              -0.062695766               0.000000000              -0.141214558              -0.078308531               0.000000000              -0.165133587              -0.093921295               0.000000000              -0.189052617              -0.109534060               0.000000000              -0.212971646              -0.125146824               0.000000000              -0.236890676              -0.140759589               0.000000000              -0.260809705              -0.156372354               0.000000000              -0.284728735              -0.171985118               0.000000000              -0.308647764              -0.187597883               0.000000000              -0.332566794              -0.203210648               0.000000000              -0.356485823              -0.218823412               0.000000000              -0.380404853              -0.234436177               0.000000000              -0.404323882              -0.250048941               0.000000000              -0.428242912              -0.265661706               0.000000000              -0.452161941              -0.281274471               0.000000000              -0.476080971              -0.296887235               0.000000000              -0.500000000              -0.312500000               0.000000000              -0.110585458              -0.073890841               0.000000000              -0.134923867              -0.092710163               0.000000000              -0.159262276              -0.111529486               0.000000000              -0.183600685              -0.130348808               0.000000000              -0.207939094              -0.149168131               0.000000000              -0.232277503              -0.167987453               0.000000000              -0.256615912              -0.186806776               0.000000000              -0.280954320              -0.205626098               0.000000000              -0.305292729              -0.224445420               0.000000000              -0.329631138              -0.243264743               0.000000000              -0.353969547              -0.262084065               0.000000000              -0.378307956              -0.280903388               0.000000000              -0.402646365              -0.299722710               0.000000000              -0.426984773              -0.318542033               0.000000000              -0.451323182              -0.337361355               0.000000000              -0.475661591              -0.356180678               0.000000000              -0.500000000              -0.375000000               0.000000000              -0.102810390              -0.084374307               0.000000000              -0.127634741              -0.106444663               0.000000000              -0.152459092              -0.128515018               0.000000000              -0.177283442              -0.150585374               0.000000000              -0.202107793              -0.172655730               0.000000000              -0.226932143              -0.194726086               0.000000000              -0.251756494              -0.216796442               0.000000000              -0.276580845              -0.238866798               0.000000000              -0.301405195              -0.260937153               0.000000000              -0.326229546              -0.283007509               0.000000000              -0.351053896              -0.305077865               0.000000000              -0.375878247              -0.327148221               0.000000000              -0.400702598              -0.349218577               0.000000000              -0.425526948              -0.371288933               0.000000000              -0.450351299              -0.393359288               0.000000000              -0.475175649              -0.415429644               0.000000000              -0.500000000              -0.437500000               0.000000000              -0.094045202              -0.094045202               0.000000000              -0.119417377              -0.119417377               0.000000000              -0.144789552              -0.144789552               0.000000000              -0.170161727              -0.170161727               0.000000000              -0.195533901              -0.195533901               0.000000000              -0.220906076              -0.220906076               0.000000000              -0.246278251              -0.246278251               0.000000000              -0.271650426              -0.271650426               0.000000000              -0.297022601              -0.297022601               0.000000000              -0.322394776              -0.322394776               0.000000000              -0.347766951              -0.347766951               0.000000000              -0.373139126              -0.373139126               0.000000000              -0.398511300              -0.398511300               0.000000000              -0.423883475              -0.423883475               0.000000000              -0.449255650              -0.449255650               0.000000000              -0.474627825              -0.474627825               0.000000000              -0.500000000              -0.500000000               0.000000000              -0.084374307              -0.102810390               0.000000000              -0.106444663              -0.127634741               0.000000000              -0.128515018              -0.152459092               0.000000000              -0.150585374              -0.177283442               0.000000000              -0.172655730              -0.202107793               0.000000000              -0.194726086              -0.226932143               0.000000000              -0.216796442              -0.251756494               0.000000000              -0.238866798              -0.276580845               0.000000000              -0.260937153              -0.301405195               0.000000000              -0.283007509              -0.326229546               0.000000000              -0.305077865              -0.351053896               0.000000000              -0.327148221              -0.375878247               0.000000000              -0.349218577              -0.400702598               0.000000000              -0.371288933              -0.425526948               0.000000000              -0.393359288              -0.450351299               0.000000000              -0.415429644              -0.475175649               0.000000000              -0.437500000              -0.500000000               0.000000000              -0.073890841              -0.110585458               0.000000000              -0.092710163              -0.134923867               0.000000000              -0.111529486              -0.159262276               0.000000000              -0.130348808              -0.183600685               0.000000000              -0.149168131              -0.207939094               0.000000000              -0.167987453              -0.232277503               0.000000000              -0.186806776              -0.256615912               0.000000000              -0.205626098              -0.280954320               0.000000000              -0.224445420              -0.305292729               0.000000000              -0.243264743              -0.329631138               0.000000000              -0.262084065              -0.353969547               0.000000000              -0.280903388              -0.378307956               0.000000000              -0.299722710              -0.402646365               0.000000000              -0.318542033              -0.426984773               0.000000000              -0.337361355              -0.451323182               0.000000000              -0.356180678              -0.475661591               0.000000000              -0.375000000              -0.500000000               0.000000000              -0.062695766              -0.117295528               0.000000000              -0.078308531              -0.141214558               0.000000000              -0.093921295              -0.165133587               0.000000000              -0.109534060              -0.189052617               0.000000000              -0.125146824              -0.212971646               0.000000000              -0.140759589              -0.236890676               0.000000000              -0.156372354              -0.260809705               0.000000000              -0.171985118              -0.284728735               0.000000000              -0.187597883              -0.308647764               0.000000000              -0.203210648              -0.332566794               0.000000000              -0.218823412              -0.356485823               0.000000000              -0.234436177              -0.380404853               0.000000000              -0.250048941              -0.404323882               0.000000000              -0.265661706              -0.428242912               0.000000000              -0.281274471              -0.452161941               0.000000000              -0.296887235              -0.476080971               0.000000000              -0.312500000              -0.500000000               0.000000000              -0.050896897              -0.122875978               0.000000000              -0.063340840              -0.146446229               0.000000000              -0.075784784              -0.170016481               0.000000000              -0.088228728              -0.193586732               0.000000000              -0.100672672              -0.217156983               0.000000000              -0.113116616              -0.240727235               0.000000000              -0.125560560              -0.264297486               0.000000000              -0.138004504              -0.287867738               0.000000000              -0.150448448              -0.311437989               0.000000000              -0.162892392              -0.335008240               0.000000000              -0.175336336              -0.358578492               0.000000000              -0.187780280              -0.382148743               0.000000000              -0.200224224              -0.405718994               0.000000000              -0.212668168              -0.429289246               0.000000000              -0.225112112              -0.452859497               0.000000000              -0.237556056              -0.476429749               0.000000000              -0.250000000              -0.500000000               0.000000000              -0.038607862              -0.127273065               0.000000000              -0.047913621              -0.150568498               0.000000000              -0.057219379              -0.173863932               0.000000000              -0.066525138              -0.197159365               0.000000000              -0.075830897              -0.220454798               0.000000000              -0.085136655              -0.243750232               0.000000000              -0.094442414              -0.267045665               0.000000000              -0.103748172              -0.290341099               0.000000000              -0.113053931              -0.313636532               0.000000000              -0.122359690              -0.336931966               0.000000000              -0.131665448              -0.360227399               0.000000000              -0.140971207              -0.383522833               0.000000000              -0.150276966              -0.406818266               0.000000000              -0.159582724              -0.430113700               0.000000000              -0.168888483              -0.453409133               0.000000000              -0.178194241              -0.476704567               0.000000000              -0.187500000              -0.500000000               0.000000000              -0.025947013              -0.130444442               0.000000000              -0.032137825              -0.153541665               0.000000000              -0.038328636              -0.176638887               0.000000000              -0.044519448              -0.199736109               0.000000000              -0.050710260              -0.222833332               0.000000000              -0.056901071              -0.245930554               0.000000000              -0.063091883              -0.269027776               0.000000000              -0.069282695              -0.292124999               0.000000000              -0.075473506              -0.315222221               0.000000000              -0.081664318              -0.338319444               0.000000000              -0.087855130              -0.361416666               0.000000000              -0.094045942              -0.384513888               0.000000000              -0.100236753              -0.407611111               0.000000000              -0.106427565              -0.430708333               0.000000000              -0.112618377              -0.453805555               0.000000000              -0.118809188              -0.476902778               0.000000000              -0.125000000              -0.500000000               0.000000000              -0.013036280              -0.132359569               0.000000000              -0.016127762              -0.155337096               0.000000000              -0.019219245              -0.178314623               0.000000000              -0.022310727              -0.201292150               0.000000000              -0.025402210              -0.224269676               0.000000000              -0.028493692              -0.247247203               0.000000000              -0.031585175              -0.270224730               0.000000000              -0.034676657              -0.293202257               0.000000000              -0.037768140              -0.316179784               0.000000000              -0.040859622              -0.339157311               0.000000000              -0.043951105              -0.362134838               0.000000000              -0.047042587              -0.385112365               0.000000000              -0.050134070              -0.408089892               0.000000000              -0.053225552              -0.431067419               0.000000000              -0.056317035              -0.454044946               0.000000000              -0.059408517              -0.477022473               0.000000000              -0.062500000              -0.500000000               0.000000000               0.000000000              -0.133000000               0.000000000               0.000000000              -0.155937500               0.000000000               0.000000000              -0.178875000               0.000000000               0.000000000              -0.201812500               0.000000000               0.000000000              -0.224750000               0.000000000               0.000000000              -0.247687500               0.000000000               0.000000000              -0.270625000               0.000000000               0.000000000              -0.293562500               0.000000000               0.000000000              -0.316500000               0.000000000               0.000000000              -0.339437500               0.000000000               0.000000000              -0.362375000               0.000000000               0.000000000              -0.385312500               0.000000000               0.000000000              -0.408250000               0.000000000               0.000000000              -0.431187500               0.000000000               0.000000000              -0.454125000               0.000000000               0.000000000              -0.477062500               0.000000000               0.000000000              -0.500000000               0.000000000              -0.133000000               0.000000000               0.000000000              -0.155937500               0.000000000               0.000000000              -0.178875000               0.000000000               0.000000000              -0.201812500               0.000000000               0.000000000              -0.224750000               0.000000000               0.000000000              -0.247687500               0.000000000               0.000000000              -0.270625000               0.000000000               0.000000000              -0.293562500               0.000000000               0.000000000              -0.316500000               0.000000000               0.000000000              -0.339437500               0.000000000               0.000000000              -0.362375000               0.000000000               0.000000000              -0.385312500               0.000000000               0.000000000              -0.408250000               0.000000000               0.000000000              -0.431187500               0.000000000               0.000000000              -0.454125000               0.000000000               0.000000000              -0.477062500               0.000000000               0.000000000              -0.500000000               0.000000000               0.000000000              -0.132359569               0.013036280               0.000000000              -0.155337096               0.016127762               0.000000000              -0.178314623               0.019219245               0.000000000              -0.201292150               0.022310727               0.000000000              -0.224269676               0.025402210               0.000000000              -0.247247203               0.028493692               0.000000000              -0.270224730               0.031585175               0.000000000              -0.293202257               0.034676657               0.000000000              -0.316179784               0.037768140               0.000000000              -0.339157311               0.040859622               0.000000000              -0.362134838               0.043951105               0.000000000              -0.385112365               0.047042587               0.000000000              -0.408089892               0.050134070               0.000000000              -0.431067419               0.053225552               0.000000000              -0.454044946               0.056317035               0.000000000              -0.477022473               0.059408517               0.000000000              -0.500000000               0.062500000               0.000000000              -0.130444442               0.025947013               0.000000000              -0.153541665               0.032137825               0.000000000              -0.176638887               0.038328636               0.000000000              -0.199736109               0.044519448               0.000000000              -0.222833332               0.050710260               0.000000000              -0.245930554               0.056901071               0.000000000              -0.269027776               0.063091883               0.000000000              -0.292124999               0.069282695               0.000000000              -0.315222221               0.075473506               0.000000000              -0.338319444               0.081664318               0.000000000              -0.361416666               0.087855130               0.000000000              -0.384513888               0.094045942               0.000000000              -0.407611111               0.100236753               0.000000000              -0.430708333               0.106427565               0.000000000              -0.453805555               0.112618377               0.000000000              -0.476902778               0.118809188               0.000000000              -0.500000000               0.125000000               0.000000000              -0.127273065               0.038607862               0.000000000              -0.150568498               0.047913621               0.000000000              -0.173863932               0.057219379               0.000000000              -0.197159365               0.066525138               0.000000000              -0.220454798               0.075830897               0.000000000              -0.243750232               0.085136655               0.000000000              -0.267045665               0.094442414               0.000000000              -0.290341099               0.103748172               0.000000000              -0.313636532               0.113053931               0.000000000              -0.336931966               0.122359690               0.000000000              -0.360227399               0.131665448               0.000000000              -0.383522833               0.140971207               0.000000000              -0.406818266               0.150276966               0.000000000              -0.430113700               0.159582724               0.000000000              -0.453409133               0.168888483               0.000000000              -0.476704567               0.178194241               0.000000000              -0.500000000               0.187500000               0.000000000              -0.122875978               0.050896897               0.000000000              -0.146446229               0.063340840               0.000000000              -0.170016481               0.075784784               0.000000000              -0.193586732               0.088228728               0.000000000              -0.217156983               0.100672672               0.000000000              -0.240727235               0.113116616               0.000000000              -0.264297486               0.125560560               0.000000000              -0.287867738               0.138004504               0.000000000              -0.311437989               0.150448448               0.000000000              -0.335008240               0.162892392               0.000000000              -0.358578492               0.175336336               0.000000000              -0.382148743               0.187780280               0.000000000              -0.405718994               0.200224224               0.000000000              -0.429289246               0.212668168               0.000000000              -0.452859497               0.225112112               0.000000000              -0.476429749               0.237556056               0.000000000              -0.500000000               0.250000000               0.000000000              -0.117295528               0.062695766               0.000000000              -0.141214558               0.078308531               0.000000000              -0.165133587               0.093921295               0.000000000              -0.189052617               0.109534060               0.000000000              -0.212971646               0.125146824               0.000000000              -0.236890676               0.140759589               0.000000000              -0.260809705               0.156372354               0.000000000              -0.284728735               0.171985118               0.000000000              -0.308647764               0.187597883               0.000000000              -0.332566794               0.203210648               0.000000000              -0.356485823               0.218823412               0.000000000              -0.380404853               0.234436177               0.000000000              -0.404323882               0.250048941               0.000000000              -0.428242912               0.265661706               0.000000000              -0.452161941               0.281274471               0.000000000              -0.476080971               0.296887235               0.000000000              -0.500000000               0.312500000               0.000000000              -0.110585458               0.073890841               0.000000000              -0.134923867               0.092710163               0.000000000              -0.159262276               0.111529486               0.000000000              -0.183600685               0.130348808               0.000000000              -0.207939094               0.149168131               0.000000000              -0.232277503               0.167987453               0.000000000              -0.256615912               0.186806776               0.000000000              -0.280954320               0.205626098               0.000000000              -0.305292729               0.224445420               0.000000000              -0.329631138               0.243264743               0.000000000              -0.353969547               0.262084065               0.000000000              -0.378307956               0.280903388               0.000000000              -0.402646365               0.299722710               0.000000000              -0.426984773               0.318542033               0.000000000              -0.451323182               0.337361355               0.000000000              -0.475661591               0.356180678               0.000000000              -0.500000000               0.375000000               0.000000000              -0.102810390               0.084374307               0.000000000              -0.127634741               0.106444663               0.000000000              -0.152459092               0.128515018               0.000000000              -0.177283442               0.150585374               0.000000000              -0.202107793               0.172655730               0.000000000              -0.226932143               0.194726086               0.000000000              -0.251756494               0.216796442               0.000000000              -0.276580845               0.238866798               0.000000000              -0.301405195               0.260937153               0.000000000              -0.326229546               0.283007509               0.000000000              -0.351053896               0.305077865               0.000000000              -0.375878247               0.327148221               0.000000000              -0.400702598               0.349218577               0.000000000              -0.425526948               0.371288933               0.000000000              -0.450351299               0.393359288               0.000000000              -0.475175649               0.415429644               0.000000000              -0.500000000               0.437500000               0.000000000              -0.094045202               0.094045202               0.000000000              -0.119417377               0.119417377               0.000000000              -0.144789552               0.144789552               0.000000000              -0.170161727               0.170161727               0.000000000              -0.195533901               0.195533901               0.000000000              -0.220906076               0.220906076               0.000000000              -0.246278251               0.246278251               0.000000000              -0.271650426               0.271650426               0.000000000              -0.297022601               0.297022601               0.000000000              -0.322394776               0.322394776               0.000000000              -0.347766951               0.347766951               0.000000000              -0.373139126               0.373139126               0.000000000              -0.398511300               0.398511300               0.000000000              -0.423883475               0.423883475               0.000000000              -0.449255650               0.449255650               0.000000000              -0.474627825               0.474627825               0.000000000              -0.500000000               0.500000000               0.000000000              -0.084374307               0.102810390               0.000000000              -0.106444663               0.127634741               0.000000000              -0.128515018               0.152459092               0.000000000              -0.150585374               0.177283442               0.000000000              -0.172655730               0.202107793               0.000000000              -0.194726086               0.226932143               0.000000000              -0.216796442               0.251756494               0.000000000              -0.238866798               0.276580845               0.000000000              -0.260937153               0.301405195               0.000000000              -0.283007509               0.326229546               0.000000000              -0.305077865               0.351053896               0.000000000              -0.327148221               0.375878247               0.000000000              -0.349218577               0.400702598               0.000000000              -0.371288933               0.425526948               0.000000000              -0.393359288               0.450351299               0.000000000              -0.415429644               0.475175649               0.000000000              -0.437500000               0.500000000               0.000000000              -0.073890841               0.110585458               0.000000000              -0.092710163               0.134923867               0.000000000              -0.111529486               0.159262276               0.000000000              -0.130348808               0.183600685               0.000000000              -0.149168131               0.207939094               0.000000000              -0.167987453               0.232277503               0.000000000              -0.186806776               0.256615912               0.000000000              -0.205626098               0.280954320               0.000000000              -0.224445420               0.305292729               0.000000000              -0.243264743               0.329631138               0.000000000              -0.262084065               0.353969547               0.000000000              -0.280903388               0.378307956               0.000000000              -0.299722710               0.402646365               0.000000000              -0.318542033               0.426984773               0.000000000              -0.337361355               0.451323182               0.000000000              -0.356180678               0.475661591               0.000000000              -0.375000000               0.500000000               0.000000000              -0.062695766               0.117295528               0.000000000              -0.078308531               0.141214558               0.000000000              -0.093921295               0.165133587               0.000000000              -0.109534060               0.189052617               0.000000000              -0.125146824               0.212971646               0.000000000              -0.140759589               0.236890676               0.000000000              -0.156372354               0.260809705               0.000000000              -0.171985118               0.284728735               0.000000000              -0.187597883               0.308647764               0.000000000              -0.203210648               0.332566794               0.000000000              -0.218823412               0.356485823               0.000000000              -0.234436177               0.380404853               0.000000000              -0.250048941               0.404323882               0.000000000              -0.265661706               0.428242912               0.000000000              -0.281274471               0.452161941               0.000000000              -0.296887235               0.476080971               0.000000000              -0.312500000               0.500000000               0.000000000              -0.050896897               0.122875978               0.000000000              -0.063340840               0.146446229               0.000000000              -0.075784784               0.170016481               0.000000000              -0.088228728               0.193586732               0.000000000              -0.100672672               0.217156983               0.000000000              -0.113116616               0.240727235               0.000000000              -0.125560560               0.264297486               0.000000000              -0.138004504               0.287867738               0.000000000              -0.150448448               0.311437989               0.000000000              -0.162892392               0.335008240               0.000000000              -0.175336336               0.358578492               0.000000000              -0.187780280               0.382148743               0.000000000              -0.200224224               0.405718994               0.000000000              -0.212668168               0.429289246               0.000000000              -0.225112112               0.452859497               0.000000000              -0.237556056               0.476429749               0.000000000              -0.250000000               0.500000000               0.000000000              -0.038607862               0.127273065               0.000000000              -0.047913621               0.150568498               0.000000000              -0.057219379               0.173863932               0.000000000              -0.066525138               0.197159365               0.000000000              -0.075830897               0.220454798               0.000000000              -0.085136655               0.243750232               0.000000000              -0.094442414               0.267045665               0.000000000              -0.103748172               0.290341099               0.000000000              -0.113053931               0.313636532               0.000000000              -0.122359690               0.336931966               0.000000000              -0.131665448               0.360227399               0.000000000              -0.140971207               0.383522833               0.000000000              -0.150276966               0.406818266               0.000000000              -0.159582724               0.430113700               0.000000000              -0.168888483               0.453409133               0.000000000              -0.178194241               0.476704567               0.000000000              -0.187500000               0.500000000               0.000000000              -0.025947013               0.130444442               0.000000000              -0.032137825               0.153541665               0.000000000              -0.038328636               0.176638887               0.000000000              -0.044519448               0.199736109               0.000000000              -0.050710260               0.222833332               0.000000000              -0.056901071               0.245930554               0.000000000              -0.063091883               0.269027776               0.000000000              -0.069282695               0.292124999               0.000000000              -0.075473506               0.315222221               0.000000000              -0.081664318               0.338319444               0.000000000              -0.087855130               0.361416666               0.000000000              -0.094045942               0.384513888               0.000000000              -0.100236753               0.407611111               0.000000000              -0.106427565               0.430708333               0.000000000              -0.112618377               0.453805555               0.000000000              -0.118809188               0.476902778               0.000000000              -0.125000000               0.500000000               0.000000000              -0.013036280               0.132359569               0.000000000              -0.016127762               0.155337096               0.000000000              -0.019219245               0.178314623               0.000000000              -0.022310727               0.201292150               0.000000000              -0.025402210               0.224269676               0.000000000              -0.028493692               0.247247203               0.000000000              -0.031585175               0.270224730               0.000000000              -0.034676657               0.293202257               0.000000000              -0.037768140               0.316179784               0.000000000              -0.040859622               0.339157311               0.000000000              -0.043951105               0.362134838               0.000000000              -0.047042587               0.385112365               0.000000000              -0.050134070               0.408089892               0.000000000              -0.053225552               0.431067419               0.000000000              -0.056317035               0.454044946               0.000000000              -0.059408517               0.477022473               0.000000000              -0.062500000               0.500000000               0.000000000               0.000000000               0.133000000               0.000000000               0.000000000               0.155937500               0.000000000               0.000000000               0.178875000               0.000000000               0.000000000               0.201812500               0.000000000               0.000000000               0.224750000               0.000000000               0.000000000               0.247687500               0.000000000               0.000000000               0.270625000               0.000000000               0.000000000               0.293562500               0.000000000               0.000000000               0.316500000               0.000000000               0.000000000               0.339437500               0.000000000               0.000000000               0.362375000               0.000000000               0.000000000               0.385312500               0.000000000               0.000000000               0.408250000               0.000000000               0.000000000               0.431187500               0.000000000               0.000000000               0.454125000               0.000000000               0.000000000               0.477062500               0.000000000               0.000000000               0.500000000               0.000000000 </DataArray>
</Points>
<Cells>
<DataArray type="Int32"                                    Name="connectivity"                                                      NumberOfComponents=" 1" format="ascii">
         0          1         18         17          1          2         19         18          2          3         20         19          3          4         21         20          4          5         22         21          5          6         23         22          6          7         24         23          7          8         25         24          8          9         26         25          9         10         27         26         10         11         28         27         11         12         29         28         12         13         30         29         13         14         31         30         14         15         32         31         15         16         33         32         17         18         35         34         18         19         36         35         19         20         37         36         20         21         38         37         21         22         39         38         22         23         40         39         23         24         41         40         24         25         42         41         25         26         43         42         26         27         44         43         27         28         45         44         28         29         46         45         29         30         47         46         30         31         48         47         31         32         49         48         32         33         50         49         34         35         52         51         35         36         53         52         36         37         54         53         37         38         55         54         38         39         56         55         39         40         57         56         40         41         58         57         41         42         59         58         42         43         60         59         43         44         61         60         44         45         62         61         45         46         63         62         46         47         64         63         47         48         65         64         48         49         66         65         49         50         67         66         51         52         69         68         52         53         70         69         53         54         71         70         54         55         72         71         55         56         73         72         56         57         74         73         57         58         75         74         58         59         76         75         59         60         77         76         60         61         78         77         61         62         79         78         62         63         80         79         63         64         81         80         64         65         82         81         65         66         83         82         66         67         84         83         68         69         86         85         69         70         87         86         70         71         88         87         71         72         89         88         72         73         90         89         73         74         91         90         74         75         92         91         75         76         93         92         76         77         94         93         77         78         95         94         78         79         96         95         79         80         97         96         80         81         98         97         81         82         99         98         82         83        100         99         83         84        101        100         85         86        103        102         86         87        104        103         87         88        105        104         88         89        106        105         89         90        107        106         90         91        108        107         91         92        109        108         92         93        110        109         93         94        111        110         94         95        112        111         95         96        113        112         96         97        114        113         97         98        115        114         98         99        116        115         99        100        117        116        100        101        118        117        102        103        120        119        103        104        121        120        104        105        122        121        105        106        123        122        106        107        124        123        107        108        125        124        108        109        126        125        109        110        127        126        110        111        128        127        111        112        129        128        112        113        130        129        113        114        131        130        114        115        132        131        115        116        133        132        116        117        134        133        117        118        135        134        119        120        137        136        120        121        138        137        121        122        139        138        122        123        140        139        123        124        141        140        124        125        142        141        125        126        143        142        126        127        144        143        127        128        145        144        128        129        146        145        129        130        147        146        130        131        148        147        131        132        149        148        132        133        150        149        133        134        151        150        134        135        152        151        136        137        154        153        137        138        155        154        138        139        156        155        139        140        157        156        140        141        158        157        141        142        159        158        142        143        160        159        143        144        161        160        144        145        162        161        145        146        163        162        146        147        164        163        147        148        165        164        148        149        166        165        149        150        167        166        150        151        168        167        151        152        169        168        153        154        171        170        154        155        172        171        155        156        173        172        156        157        174        173        157        158        175        174        158        159        176        175        159        160        177        176        160        161        178        177        161        162        179        178        162        163        180        179        163        164        181        180        164        165        182        181        165        166        183        182        166        167        184        183        167        168        185        184        168        169        186        185        170        171        188        187        171        172        189        188        172        173        190        189        173        174        191        190        174        175        192        191        175        176        193        192        176        177        194        193        177        178        195        194        178        179        196        195        179        180        197        196        180        181        198        197        181        182        199        198        182        183        200        199        183        184        201        200        184        185        202        201        185        186        203        202        187        188        205        204        188        189        206        205        189        190        207        206        190        191        208        207        191        192        209        208        192        193        210        209        193        194        211        210        194        195        212        211        195        196        213        212        196        197        214        213        197        198        215        214        198        199        216        215        199        200        217        216        200        201        218        217        201        202        219        218        202        203        220        219        204        205        222        221        205        206        223        222        206        207        224        223        207        208        225        224        208        209        226        225        209        210        227        226        210        211        228        227        211        212        229        228        212        213        230        229        213        214        231        230        214        215        232        231        215        216        233        232        216        217        234        233        217        218        235        234        218        219        236        235        219        220        237        236        221        222        239        238        222        223        240        239        223        224        241        240        224        225        242        241        225        226        243        242        226        227        244        243        227        228        245        244        228        229        246        245        229        230        247        246        230        231        248        247        231        232        249        248        232        233        250        249        233        234        251        250        234        235        252        251        235        236        253        252        236        237        254        253        238        239        256        255        239        240        257        256        240        241        258        257        241        242        259        258        242        243        260        259        243        244        261        260        244        245        262        261        245        246        263        262        246        247        264        263        247        248        265        264        248        249        266        265        249        250        267        266        250        251        268        267        251        252        269        268        252        253        270        269        253        254        271        270        255        256        273        272        256        257        274        273        257        258        275        274        258        259        276        275        259        260        277        276        260        261        278        277        261        262        279        278        262        263        280        279        263        264        281        280        264        265        282        281        265        266        283        282        266        267        284        283        267        268        285        284        268        269        286        285        269        270        287        286        270        271        288        287        306        307          1          0        307        308          2          1        308        309          3          2        309        310          4          3        310        311          5          4        311        312          6          5        312        313          7          6        313        314          8          7        314        315          9          8        315        316         10          9        316        317         11         10        317        318         12         11        318        319         13         12        319        320         14         13        320        321         15         14        321        322         16         15        323        324        307        306        324        325        308        307        325        326        309        308        326        327        310        309        327        328        311        310        328        329        312        311        329        330        313        312        330        331        314        313        331        332        315        314        332        333        316        315        333        334        317        316        334        335        318        317        335        336        319        318        336        337        320        319        337        338        321        320        338        339        322        321        340        341        324        323        341        342        325        324        342        343        326        325        343        344        327        326        344        345        328        327        345        346        329        328        346        347        330        329        347        348        331        330        348        349        332        331        349        350        333        332        350        351        334        333        351        352        335        334        352        353        336        335        353        354        337        336        354        355        338        337        355        356        339        338        357        358        341        340        358        359        342        341        359        360        343        342        360        361        344        343        361        362        345        344        362        363        346        345        363        364        347        346        364        365        348        347        365        366        349        348        366        367        350        349        367        368        351        350        368        369        352        351        369        370        353        352        370        371        354        353        371        372        355        354        372        373        356        355        374        375        358        357        375        376        359        358        376        377        360        359        377        378        361        360        378        379        362        361        379        380        363        362        380        381        364        363        381        382        365        364        382        383        366        365        383        384        367        366        384        385        368        367        385        386        369        368        386        387        370        369        387        388        371        370        388        389        372        371        389        390        373        372        391        392        375        374        392        393        376        375        393        394        377        376        394        395        378        377        395        396        379        378        396        397        380        379        397        398        381        380        398        399        382        381        399        400        383        382        400        401        384        383        401        402        385        384        402        403        386        385        403        404        387        386        404        405        388        387        405        406        389        388        406        407        390        389        408        409        392        391        409        410        393        392        410        411        394        393        411        412        395        394        412        413        396        395        413        414        397        396        414        415        398        397        415        416        399        398        416        417        400        399        417        418        401        400        418        419        402        401        419        420        403        402        420        421        404        403        421        422        405        404        422        423        406        405        423        424        407        406        425        426        409        408        426        427        410        409        427        428        411        410        428        429        412        411        429        430        413        412        430        431        414        413        431        432        415        414        432        433        416        415        433        434        417        416        434        435        418        417        435        436        419        418        436        437        420        419        437        438        421        420        438        439        422        421        439        440        423        422        440        441        424        423        442        443        426        425        443        444        427        426        444        445        428        427        445        446        429        428        446        447        430        429        447        448        431        430        448        449        432        431        449        450        433        432        450        451        434        433        451        452        435        434        452        453        436        435        453        454        437        436        454        455        438        437        455        456        439        438        456        457        440        439        457        458        441        440        459        460        443        442        460        461        444        443        461        462        445        444        462        463        446        445        463        464        447        446        464        465        448        447        465        466        449        448        466        467        450        449        467        468        451        450        468        469        452        451        469        470        453        452        470        471        454        453        471        472        455        454        472        473        456        455        473        474        457        456        474        475        458        457        476        477        460        459        477        478        461        460        478        479        462        461        479        480        463        462        480        481        464        463        481        482        465        464        482        483        466        465        483        484        467        466        484        485        468        467        485        486        469        468        486        487        470        469        487        488        471        470        488        489        472        471        489        490        473        472        490        491        474        473        491        492        475        474        493        494        477        476        494        495        478        477        495        496        479        478        496        497        480        479        497        498        481        480        498        499        482        481        499        500        483        482        500        501        484        483        501        502        485        484        502        503        486        485        503        504        487        486        504        505        488        487        505        506        489        488        506        507        490        489        507        508        491        490        508        509        492        491        510        511        494        493        511        512        495        494        512        513        496        495        513        514        497        496        514        515        498        497        515        516        499        498        516        517        500        499        517        518        501        500        518        519        502        501        519        520        503        502        520        521        504        503        521        522        505        504        522        523        506        505        523        524        507        506        524        525        508        507        525        526        509        508        527        528        511        510        528        529        512        511        529        530        513        512        530        531        514        513        531        532        515        514        532        533        516        515        533        534        517        516        534        535        518        517        535        536        519        518        536        537        520        519        537        538        521        520        538        539        522        521        539        540        523        522        540        541        524        523        541        542        525        524        542        543        526        525        544        545        528        527        545        546        529        528        546        547        530        529        547        548        531        530        548        549        532        531        549        550        533        532        550        551        534        533        551        552        535        534        552        553        536        535        553        554        537        536        554        555        538        537        555        556        539        538        556        557        540        539        557        558        541        540        558        559        542        541        559        560        543        542        561        562        545        544        562        563        546        545        563        564        547        546        564        565        548        547        565        566        549        548        566        567        550        549        567        568        551        550        568        569        552        551        569        570        553        552        570        571        554        553        571        572        555        554        572        573        556        555        573        574        557        556        574        575        558        557        575        576        559        558        576        577        560        559        578        579        596        595        579        580        597        596        580        581        598        597        581        582        599        598        582        583        600        599        583        584        601        600        584        585        602        601        585        586        603        602        586        587        604        603        587        588        605        604        588        589        606        605        589        590        607        606        590        591        608        607        591        592        609        608        592        593        610        609        593        594        611        610        595        596        613        612        596        597        614        613        597        598        615        614        598        599        616        615        599        600        617        616        600        601        618        617        601        602        619        618        602        603        620        619        603        604        621        620        604        605        622        621        605        606        623        622        606        607        624        623        607        608        625        624        608        609        626        625        609        610        627        626        610        611        628        627        612        613        630        629        613        614        631        630        614        615        632        631        615        616        633        632        616        617        634        633        617        618        635        634        618        619        636        635        619        620        637        636        620        621        638        637        621        622        639        638        622        623        640        639        623        624        641        640        624        625        642        641        625        626        643        642        626        627        644        643        627        628        645        644        629        630        647        646        630        631        648        647        631        632        649        648        632        633        650        649        633        634        651        650        634        635        652        651        635        636        653        652        636        637        654        653        637        638        655        654        638        639        656        655        639        640        657        656        640        641        658        657        641        642        659        658        642        643        660        659        643        644        661        660        644        645        662        661        646        647        664        663        647        648        665        664        648        649        666        665        649        650        667        666        650        651        668        667        651        652        669        668        652        653        670        669        653        654        671        670        654        655        672        671        655        656        673        672        656        657        674        673        657        658        675        674        658        659        676        675        659        660        677        676        660        661        678        677        661        662        679        678        663        664        681        680        664        665        682        681        665        666        683        682        666        667        684        683        667        668        685        684        668        669        686        685        669        670        687        686        670        671        688        687        671        672        689        688        672        673        690        689        673        674        691        690        674        675        692        691        675        676        693        692        676        677        694        693        677        678        695        694        678        679        696        695        680        681        698        697        681        682        699        698        682        683        700        699        683        684        701        700        684        685        702        701        685        686        703        702        686        687        704        703        687        688        705        704        688        689        706        705        689        690        707        706        690        691        708        707        691        692        709        708        692        693        710        709        693        694        711        710        694        695        712        711        695        696        713        712        697        698        715        714        698        699        716        715        699        700        717        716        700        701        718        717        701        702        719        718        702        703        720        719        703        704        721        720        704        705        722        721        705        706        723        722        706        707        724        723        707        708        725        724        708        709        726        725        709        710        727        726        710        711        728        727        711        712        729        728        712        713        730        729        714        715        732        731        715        716        733        732        716        717        734        733        717        718        735        734        718        719        736        735        719        720        737        736        720        721        738        737        721        722        739        738        722        723        740        739        723        724        741        740        724        725        742        741        725        726        743        742        726        727        744        743        727        728        745        744        728        729        746        745        729        730        747        746        731        732        749        748        732        733        750        749        733        734        751        750        734        735        752        751        735        736        753        752        736        737        754        753        737        738        755        754        738        739        756        755        739        740        757        756        740        741        758        757        741        742        759        758        742        743        760        759        743        744        761        760        744        745        762        761        745        746        763        762        746        747        764        763        748        749        766        765        749        750        767        766        750        751        768        767        751        752        769        768        752        753        770        769        753        754        771        770        754        755        772        771        755        756        773        772        756        757        774        773        757        758        775        774        758        759        776        775        759        760        777        776        760        761        778        777        761        762        779        778        762        763        780        779        763        764        781        780        765        766        783        782        766        767        784        783        767        768        785        784        768        769        786        785        769        770        787        786        770        771        788        787        771        772        789        788        772        773        790        789        773        774        791        790        774        775        792        791        775        776        793        792        776        777        794        793        777        778        795        794        778        779        796        795        779        780        797        796        780        781        798        797        782        783        800        799        783        784        801        800        784        785        802        801        785        786        803        802        786        787        804        803        787        788        805        804        788        789        806        805        789        790        807        806        790        791        808        807        791        792        809        808        792        793        810        809        793        794        811        810        794        795        812        811        795        796        813        812        796        797        814        813        797        798        815        814        799        800        817        816        800        801        818        817        801        802        819        818        802        803        820        819        803        804        821        820        804        805        822        821        805        806        823        822        806        807        824        823        807        808        825        824        808        809        826        825        809        810        827        826        810        811        828        827        811        812        829        828        812        813        830        829        813        814        831        830        814        815        832        831        816        817        834        833        817        818        835        834        818        819        836        835        819        820        837        836        820        821        838        837        821        822        839        838        822        823        840        839        823        824        841        840        824        825        842        841        825        826        843        842        826        827        844        843        827        828        845        844        828        829        846        845        829        830        847        846        830        831        848        847        831        832        849        848        833        834        562        561        834        835        563        562        835        836        564        563        836        837        565        564        837        838        566        565        838        839        567        566        839        840        568        567        840        841        569        568        841        842        570        569        842        843        571        570        843        844        572        571        844        845        573        572        845        846        574        573        846        847        575        574        847        848        576        575        848        849        577        576        884        885        579        578        885        886        580        579        886        887        581        580        887        888        582        581        888        889        583        582        889        890        584        583        890        891        585        584        891        892        586        585        892        893        587        586        893        894        588        587        894        895        589        588        895        896        590        589        896        897        591        590        897        898        592        591        898        899        593        592        899        900        594        593        901        902        885        884        902        903        886        885        903        904        887        886        904        905        888        887        905        906        889        888        906        907        890        889        907        908        891        890        908        909        892        891        909        910        893        892        910        911        894        893        911        912        895        894        912        913        896        895        913        914        897        896        914        915        898        897        915        916        899        898        916        917        900        899        918        919        902        901        919        920        903        902        920        921        904        903        921        922        905        904        922        923        906        905        923        924        907        906        924        925        908        907        925        926        909        908        926        927        910        909        927        928        911        910        928        929        912        911        929        930        913        912        930        931        914        913        931        932        915        914        932        933        916        915        933        934        917        916        935        936        919        918        936        937        920        919        937        938        921        920        938        939        922        921        939        940        923        922        940        941        924        923        941        942        925        924        942        943        926        925        943        944        927        926        944        945        928        927        945        946        929        928        946        947        930        929        947        948        931        930        948        949        932        931        949        950        933        932        950        951        934        933        952        953        936        935        953        954        937        936        954        955        938        937        955        956        939        938        956        957        940        939        957        958        941        940        958        959        942        941        959        960        943        942        960        961        944        943        961        962        945        944        962        963        946        945        963        964        947        946        964        965        948        947        965        966        949        948        966        967        950        949        967        968        951        950        969        970        953        952        970        971        954        953        971        972        955        954        972        973        956        955        973        974        957        956        974        975        958        957        975        976        959        958        976        977        960        959        977        978        961        960        978        979        962        961        979        980        963        962        980        981        964        963        981        982        965        964        982        983        966        965        983        984        967        966        984        985        968        967        986        987        970        969        987        988        971        970        988        989        972        971        989        990        973        972        990        991        974        973        991        992        975        974        992        993        976        975        993        994        977        976        994        995        978        977        995        996        979        978        996        997        980        979        997        998        981        980        998        999        982        981        999       1000        983        982       1000       1001        984        983       1001       1002        985        984       1003       1004        987        986       1004       1005        988        987       1005       1006        989        988       1006       1007        990        989       1007       1008        991        990       1008       1009        992        991       1009       1010        993        992       1010       1011        994        993       1011       1012        995        994       1012       1013        996        995       1013       1014        997        996       1014       1015        998        997       1015       1016        999        998       1016       1017       1000        999       1017       1018       1001       1000       1018       1019       1002       1001       1020       1021       1004       1003       1021       1022       1005       1004       1022       1023       1006       1005       1023       1024       1007       1006       1024       1025       1008       1007       1025       1026       1009       1008       1026       1027       1010       1009       1027       1028       1011       1010       1028       1029       1012       1011       1029       1030       1013       1012       1030       1031       1014       1013       1031       1032       1015       1014       1032       1033       1016       1015       1033       1034       1017       1016       1034       1035       1018       1017       1035       1036       1019       1018       1037       1038       1021       1020       1038       1039       1022       1021       1039       1040       1023       1022       1040       1041       1024       1023       1041       1042       1025       1024       1042       1043       1026       1025       1043       1044       1027       1026       1044       1045       1028       1027       1045       1046       1029       1028       1046       1047       1030       1029       1047       1048       1031       1030       1048       1049       1032       1031       1049       1050       1033       1032       1050       1051       1034       1033       1051       1052       1035       1034       1052       1053       1036       1035       1054       1055       1038       1037       1055       1056       1039       1038       1056       1057       1040       1039       1057       1058       1041       1040       1058       1059       1042       1041       1059       1060       1043       1042       1060       1061       1044       1043       1061       1062       1045       1044       1062       1063       1046       1045       1063       1064       1047       1046       1064       1065       1048       1047       1065       1066       1049       1048       1066       1067       1050       1049       1067       1068       1051       1050       1068       1069       1052       1051       1069       1070       1053       1052       1071       1072       1055       1054       1072       1073       1056       1055       1073       1074       1057       1056       1074       1075       1058       1057       1075       1076       1059       1058       1076       1077       1060       1059       1077       1078       1061       1060       1078       1079       1062       1061       1079       1080       1063       1062       1080       1081       1064       1063       1081       1082       1065       1064       1082       1083       1066       1065       1083       1084       1067       1066       1084       1085       1068       1067       1085       1086       1069       1068       1086       1087       1070       1069       1088       1089       1072       1071       1089       1090       1073       1072       1090       1091       1074       1073       1091       1092       1075       1074       1092       1093       1076       1075       1093       1094       1077       1076       1094       1095       1078       1077       1095       1096       1079       1078       1096       1097       1080       1079       1097       1098       1081       1080       1098       1099       1082       1081       1099       1100       1083       1082       1100       1101       1084       1083       1101       1102       1085       1084       1102       1103       1086       1085       1103       1104       1087       1086       1105       1106       1089       1088       1106       1107       1090       1089       1107       1108       1091       1090       1108       1109       1092       1091       1109       1110       1093       1092       1110       1111       1094       1093       1111       1112       1095       1094       1112       1113       1096       1095       1113       1114       1097       1096       1114       1115       1098       1097       1115       1116       1099       1098       1116       1117       1100       1099       1117       1118       1101       1100       1118       1119       1102       1101       1119       1120       1103       1102       1120       1121       1104       1103       1122       1123       1106       1105       1123       1124       1107       1106       1124       1125       1108       1107       1125       1126       1109       1108       1126       1127       1110       1109       1127       1128       1111       1110       1128       1129       1112       1111       1129       1130       1113       1112       1130       1131       1114       1113       1131       1132       1115       1114       1132       1133       1116       1115       1133       1134       1117       1116       1134       1135       1118       1117       1135       1136       1119       1118       1136       1137       1120       1119       1137       1138       1121       1120        272        273       1123       1122        273        274       1124       1123        274        275       1125       1124        275        276       1126       1125        276        277       1127       1126        277        278       1128       1127        278        279       1129       1128        279        280       1130       1129        280        281       1131       1130        281        282       1132       1131        282        283       1133       1132        283        284       1134       1133        284        285       1135       1134        285        286       1136       1135        286        287       1137       1136        287        288       1138       1137 </DataArray>
<DataArray type="Int32"                                    Name="offsets"                                                      NumberOfComponents=" 1" format="ascii">
         4          8         12         16         20         24         28         32         36         40         44         48         52         56         60         64         68         72         76         80         84         88         92         96        100        104        108        112        116        120        124        128        132        136        140        144        148        152        156        160        164        168        172        176        180        184        188        192        196        200        204        208        212        216        220        224        228        232        236        240        244        248        252        256        260        264        268        272        276        280        284        288        292        296        300        304        308        312        316        320        324        328        332        336        340        344        348        352        356        360        364        368        372        376        380        384        388        392        396        400        404        408        412        416        420        424        428        432        436        440        444        448        452        456        460        464        468        472        476        480        484        488        492        496        500        504        508        512        516        520        524        528        532        536        540        544        548        552        556        560        564        568        572        576        580        584        588        592        596        600        604        608        612        616        620        624        628        632        636        640        644        648        652        656        660        664        668        672        676        680        684        688        692        696        700        704        708        712        716        720        724        728        732        736        740        744        748        752        756        760        764        768        772        776        780        784        788        792        796        800        804        808        812        816        820        824        828        832        836        840        844        848        852        856        860        864        868        872        876        880        884        888        892        896        900        904        908        912        916        920        924        928        932        936        940        944        948        952        956        960        964        968        972        976        980        984        988        992        996       1000       1004       1008       1012       1016       1020       1024       1028       1032       1036       1040       1044       1048       1052       1056       1060       1064       1068       1072       1076       1080       1084       1088       1092       1096       1100       1104       1108       1112       1116       1120       1124       1128       1132       1136       1140       1144       1148       1152       1156       1160       1164       1168       1172       1176       1180       1184       1188       1192       1196       1200       1204       1208       1212       1216       1220       1224       1228       1232       1236       1240       1244       1248       1252       1256       1260       1264       1268       1272       1276       1280       1284       1288       1292       1296       1300       1304       1308       1312       1316       1320       1324       1328       1332       1336       1340       1344       1348       1352       1356       1360       1364       1368       1372       1376       1380       1384       1388       1392       1396       1400       1404       1408       1412       1416       1420       1424       1428       1432       1436       1440       1444       1448       1452       1456       1460       1464       1468       1472       1476       1480       1484       1488       1492       1496       1500       1504       1508       1512       1516       1520       1524       1528       1532       1536       1540       1544       1548       1552       1556       1560       1564       1568       1572       1576       1580       1584       1588       1592       1596       1600       1604       1608       1612       1616       1620       1624       1628       1632       1636       1640       1644       1648       1652       1656       1660       1664       1668       1672       1676       1680       1684       1688       1692       1696       1700       1704       1708       1712       1716       1720       1724       1728       1732       1736       1740       1744       1748       1752       1756       1760       1764       1768       1772       1776       1780       1784       1788       1792       1796       1800       1804       1808       1812       1816       1820       1824       1828       1832       1836       1840       1844       1848       1852       1856       1860       1864       1868       1872       1876       1880       1884       1888       1892       1896       1900       1904       1908       1912       1916       1920       1924       1928       1932       1936       1940       1944       1948       1952       1956       1960       1964       1968       1972       1976       1980       1984       1988       1992       1996       2000       2004       2008       2012       2016       2020       2024       2028       2032       2036       2040       2044       2048       2052       2056       2060       2064       2068       2072       2076       2080       2084       2088       2092       2096       2100       2104       2108       2112       2116       2120       2124       2128       2132       2136       2140       2144       2148       2152       2156       2160       2164       2168       2172       2176       2180       2184       2188       2192       2196       2200       2204       2208       2212       2216       2220       2224       2228       2232       2236       2240       2244       2248       2252       2256       2260       2264       2268       2272       2276       2280       2284       2288       2292       2296       2300       2304       2308       2312       2316       2320       2324       2328       2332       2336       2340       2344       2348       2352       2356       2360       2364       2368       2372       2376       2380       2384       2388       2392       2396       2400       2404       2408       2412       2416       2420       2424       2428       2432       2436       2440       2444       2448       2452       2456       2460       2464       2468       2472       2476       2480       2484       2488       2492       2496       2500       2504       2508       2512       2516       2520       2524       2528       2532       2536       2540       2544       2548       2552       2556       2560       2564       2568       2572       2576       2580       2584       2588       2592       2596       2600       2604       2608       2612       2616       2620       2624       2628       2632       2636       2640       2644       2648       2652       2656       2660       2664       2668       2672       2676       2680       2684       2688       2692       2696       2700       2704       2708       2712       2716       2720       2724       2728       2732       2736       2740       2744       2748       2752       2756       2760       2764       2768       2772       2776       2780       2784       2788       2792       2796       2800       2804       2808       2812       2816       2820       2824       2828       2832       2836       2840       2844       2848       2852       2856       2860       2864       2868       2872       2876       2880       2884       2888       2892       2896       2900       2904       2908       2912       2916       2920       2924       2928       2932       2936       2940       2944       2948       2952       2956       2960       2964       2968       2972       2976       2980       2984       2988       2992       2996       3000       3004       3008       3012       3016       3020       3024       3028       3032       3036       3040       3044       3048       3052       3056       3060       3064       3068       3072       3076       3080       3084       3088       3092       3096       3100       3104       3108       3112       3116       3120       3124       3128       3132       3136       3140       3144       3148       3152       3156       3160       3164       3168       3172       3176       3180       3184       3188       3192       3196       3200       3204       3208       3212       3216       3220       3224       3228       3232       3236       3240       3244       3248       3252       3256       3260       3264       3268       3272       3276       3280       3284       3288       3292       3296       3300       3304       3308       3312       3316       3320       3324       3328       3332       3336       3340       3344       3348       3352       3356       3360       3364       3368       3372       3376       3380       3384       3388       3392       3396       3400       3404       3408       3412       3416       3420       3424       3428       3432       3436       3440       3444       3448       3452       3456       3460       3464       3468       3472       3476       3480       3484       3488       3492       3496       3500       3504       3508       3512       3516       3520       3524       3528       3532       3536       3540       3544       3548       3552       3556       3560       3564       3568       3572       3576       3580       3584       3588       3592       3596       3600       3604       3608       3612       3616       3620       3624       3628       3632       3636       3640       3644       3648       3652       3656       3660       3664       3668       3672       3676       3680       3684       3688       3692       3696       3700       3704       3708       3712       3716       3720       3724       3728       3732       3736       3740       3744       3748       3752       3756       3760       3764       3768       3772       3776       3780       3784       3788       3792       3796       3800       3804       3808       3812       3816       3820       3824       3828       3832       3836       3840       3844       3848       3852       3856       3860       3864       3868       3872       3876       3880       3884       3888       3892       3896       3900       3904       3908       3912       3916       3920       3924       3928       3932       3936       3940       3944       3948       3952       3956       3960       3964       3968       3972       3976       3980       3984       3988       3992       3996       4000       4004       4008       4012       4016       4020       4024       4028       4032       4036       4040       4044       4048       4052       4056       4060       4064       4068       4072       4076       4080       4084       4088       4092       4096 </DataArray>
<DataArray type="UInt8"                                    Name="types"                                                      NumberOfComponents=" 1" format="ascii">
         9          9          9          9          9          9          9          9          9          9          9          9          9          9          9          9          9          9          9          9          9          9          9          9          9          9          9          9          9          9          9          9          9          9          9          9          9          9          9          9          9          9          9          9          9          9          9          9          9          9          9          9          9          9          9          9          9          9          9          9          9          9          9          9          9          9          9          9          9          9          9          9          9          9          9          9          9          9          9          9          9          9          9          9          9          9          9          9          9          9          9          9          9          9          9          9          9          9          9          9          9          9          9          9          9          9          9          9          9          9          9          9          9          9          9          9          9          9          9          9          9          9          9          9          9          9          9          9          9          9          9          9          9          9          9          9          9          9          9          9          9          9          9          9          9          9          9          9          9          9          9          9          9          9          9          9          9          9          9          9          9          9          9          9          9          9          9          9          9          9          9          9          9          9          9          9          9          9          9          9          9          9          9          9          9          9          9          9          9          9          9          9          9          9          9          9          9          9          9          9          9          9          9          9          9          9          9          9          9          9          9          9          9          9          9          9          9          9          9          9          9          9          9          9          9          9          9          9          9          9          9          9          9          9          9          9          9          9          9          9          9          9          9          9          9          9          9          9          9          9          9          9          9          9          9          9          9          9          9          9          9          9          9          9          9          9          9          9          9          9          9          9          9          9          9          9          9          9          9          9          9          9          9          9          9          9          9          9          9          9          9          9          9          9          9          9          9          9          9          9          9          9          9          9          9          9          9          9          9          9          9          9          9          9          9          9          9          9          9          9          9          9          9          9          9          9          9          9          9          9          9          9          9          9          9          9          9          9          9          9          9          9          9          9          9          9          9          9          9          9          9          9          9          9          9          9          9          9          9          9          9          9          9          9          9          9          9          9          9          9          9          9          9          9          9          9          9          9          9          9          9          9          9          9          9          9          9          9          9          9          9          9          9          9          9          9          9          9          9          9          9          9          9          9          9          9          9          9          9          9          9          9          9          9          9          9          9          9          9          9          9          9          9          9          9          9          9          9          9          9          9          9          9          9          9          9          9          9          9          9          9          9          9          9          9          9          9          9          9          9          9          9          9          9          9          9          9          9          9          9          9          9          9          9          9          9          9          9          9          9          9          9          9          9          9          9          9          9          9          9          9          9          9          9          9          9          9          9          9          9          9          9          9          9          9          9          9          9          9          9          9          9          9          9          9          9          9          9          9          9          9          9          9          9          9          9          9          9          9          9          9          9          9          9          9          9          9          9          9          9          9          9          9          9          9          9          9          9          9          9          9          9          9          9          9          9          9          9          9          9          9          9          9          9          9          9          9          9          9          9          9          9          9          9          9          9          9          9          9          9          9          9          9          9          9          9          9          9          9          9          9          9          9          9          9          9          9          9          9          9          9          9          9          9          9          9          9          9          9          9          9          9          9          9          9          9          9          9          9          9          9          9          9          9          9          9          9          9          9          9          9          9          9          9          9          9          9          9          9          9          9          9          9          9          9          9          9          9          9          9          9          9          9          9          9          9          9          9          9          9          9          9          9          9          9          9          9          9          9          9          9          9          9          9          9          9          9          9          9          9          9          9          9          9          9          9          9          9          9          9          9          9          9          9          9          9          9          9          9          9          9          9          9          9          9          9          9          9          9          9          9          9          9          9          9          9          9          9          9          9          9          9          9          9          9          9          9          9          9          9          9          9          9          9          9          9          9          9          9          9          9          9          9          9          9          9          9          9          9          9          9          9          9          9          9          9          9          9          9          9          9          9          9          9          9          9          9          9          9          9          9          9          9          9          9          9          9          9          9          9          9          9          9          9          9          9          9          9          9          9          9          9          9          9          9          9          9          9          9          9          9          9          9          9          9          9          9          9          9          9          9          9          9          9          9          9          9          9          9          9          9          9          9          9          9          9          9          9          9          9          9          9          9          9          9          9          9          9          9          9          9          9          9          9          9          9          9          9          9          9          9          9          9          9          9          9          9          9          9          9          9          9          9          9          9          9          9          9          9          9          9          9          9          9          9          9          9          9          9          9          9          9          9          9          9          9          9          9          9          9          9          9          9          9          9          9          9          9          9          9          9          9          9          9          9          9          9          9          9          9          9          9          9          9          9          9          9          9          9          9          9          9          9          9          9          9          9          9          9          9          9          9          9          9          9          9          9          9          9          9          9          9          9          9          9          9          9          9          9          9          9          9          9          9          9          9          9          9          9          9          9          9          9          9          9          9          9          9          9          9          9          9          9          9          9          9          9          9          9          9          9          9          9          9          9          9          9          9          9          9          9          9          9          9          9          9          9          9          9          9          9          9          9          9          9          9          9          9          9          9          9          9          9          9          9          9          9          9          9          9          9          9          9          9          9          9          9          9          9          9          9          9          9          9 </DataArray>
</Cells>
<CellData>
<DataArray type="Int32"                                    Name="material"                                                      NumberOfComponents=" 1" format="ascii">
         1          1          1          1          1          1          1          1          1          1          1          1          1          1          1          1          1          1          1          1          1          1          1          1          1          1          1          1          1          1          1          1          1          1          1          1          1          1          1          1          1          1          1          1          1          1          1          1          1          1          1          1          1          1          1          1          1          1          1          1          1          1          1          1          1          1          1          1          1          1          1          1          1          1          1          1          1          1          1          1          1          1          1          1          1          1          1          1          1          1          1          1          1          1          1          1          1          1          1          1          1          1          1          1          1          1          1          1          1          1          1          1          1          1          1          1          1          1          1          1          1          1          1          1          1          1          1          1          1          1          1          1          1          1          1          1          1          1          1          1          1          1          1          1          1          1          1          1          1          1          1          1          1          1          1          1          1          1          1          1          1          1          1          1          1          1          1          1          1          1          1          1          1          1          1          1          1          1          1          1          1          1          1          1          1          1          1          1          1          1          1          1          1          1          1          1          1          1          1          1          1          1          1          1          1          1          1          1          1          1          1          1          1          1          1          1          1          1          1          1          1          1          1          1          1          1          1          1          1          1          1          1          1          1          1          1          1          1          1          1          1          1          1          1          1          1          1          1          1          1          1          1          1          1          1          1          1          1          1          1          1          1          1          1          1          1          1          1          1          1          1          1          1          1          1          1          1          1          1          1          1          1          1          1          1          1          1          1          1          1          1          1          1          1          1          1          1          1          1          1          1          1          1          1          1          1          1          1          1          1          1          1          1          1          1          1          1          1          1          1          1          1          1          1          1          1          1          1          1          1          1          1          1          1          1          1          1          1          1          1          1          1          1          1          1          1          1          1          1          1          1          1          1          1          1          1          1          1          1          1          1          1          1          1          1          1          1          1          1          1          1          1          1          1          1          1          1          1          1          1          1          1          1          1          1          1          1          1          1          1          1          1          1          1          1          1          1          1          1          1          1          1          1          1          1          1          1          1          1          1          1          1          1          1          1          1          1          1          1          1          1          1          1          1          1          1          1          1          1          1          1          1          1          1          1          1          1          1          1          1          1          1          1          1          1          1          1          1          1          1          1          1          1          1          1          1          1          1          1          1          1          1          1          1          1          1          1          1          1          1          1          1          1          1          1          1          1          1          1          1          1          1          1          1          1          1          1          1          1          1          1          1          1          1          1          1          1          1          1          1          1          1          1          1          1          1          1          1          1          1          1          1          1          1          1          1          1          1          1          1          1          1          1          1          1          1          1          1          1          1          1          1          1          1          1          1          1          1          1          1          1          1          1          1          1          1          1          1          1          1          1          1          1          1          1          1          1          1          1          1          1          1          1          1          1          1          1          1          1          1          1          1          1          1          1          1          1          1          1          1          1          1          1          1          1          1          1          1          1          1          1          1          1          1          1          1          1          1          1          1          1          1          1          1          1          1          1          1          1          1          1          1          1          1          1          1          1          1          1          1          1          1          1          1          1          1          1          1          1          1          1          1          1          1          1          1          1          1          1          1          1          1          1          1          1          1          1          1          1          1          1          1          1          1          1          1          1          1          1          1          1          1          1          1          1          1          1          1          1          1          1          1          1          1          1          1          1          1          1          1          1          1          1          1          1          1          1          1          1          1          1          1          1          1          1          1          1          1          1          1          1          1          1          1          1          1          1          1          1          1          1          1          1          1          1          1          1          1          1          1          1          1          1          1          1          1          1          1          1          1          1          1          1          1          1          1          1          1          1          1          1          1          1          1          1          1          1          1          1          1          1          1          1          1          1          1          1          1          1          1          1          1          1          1          1          1          1          1          1          1          1          1          1          1          1          1          1          1          1          1          1          1          1          1          1          1          1          1          1          1          1          1          1          1          1          1          1          1          1          1          1          1          1          1          1          1          1          1          1          1          1          1          1          1          1          1          1          1          1          1          1          1          1          1          1          1          1          1          1          1          1          1          1          1          1          1          1          1          1          1          1          1          1          1          1          1          1          1          1          1          1          1          1          1          1          1          1          1          1          1          1          1          1          1          1          1          1          1          1          1          1          1          1          1          1          1          1          1          1          1          1          1          1          1          1          1          1          1          1          1          1          1          1          1          1          1          1          1          1          1          1          1          1          1          1          1          1          1          1          1          1          1          1          1          1          1          1          1          1          1          1          1          1          1          1          1          1          1          1          1          1          1          1          1          1          1          1          1          1          1          1          1          1          1          1          1          1          1          1          1          1          1          1          1          1          1          1          1          1          1          1          1          1          1          1          1          1          1          1          1          1          1          1          1          1          1          1          1          1          1          1          1          1          1          1          1          1          1          1          1          1          1          1          1          1          1          1          1          1          1          1          1          1          1          1          1          1          1          1          1          1          1          1          1          1          1          1          1          1          1          1          1          1          1 </DataArray>
</CellData>
<PointData>
<DataArray type="Float64"                                    Name="u"                                                      NumberOfComponents=" 3" format="ascii">
             -0.000701769               0.000000000               0.999999984              -0.000751872               0.000000000               0.999999984              -0.000773463               0.000000000               0.999999984              -0.000785285               0.000000000               0.999999984              -0.000794440               0.000000000               0.999999984              -0.000803570               0.000000000               0.999999984              -0.000813614              -0.000000000               0.999999984              -0.000824868               0.000000000               0.999999984              -0.000837307              -0.000000000               0.999999984              -0.000850759              -0.000000000               0.999999984              -0.000864846               0.000000000               0.999999984              -0.000879200               0.000000000               0.999999984              -0.000893603               0.000000000               0.999999984              -0.000907831              -0.000000000               0.999999984              -0.000921730               0.000000000               0.999999984              -0.000934787               0.000000000               0.999999984              -0.000946224               0.000000000               0.999999984              -0.000698050               0.000129700               0.999999984              -0.000744421               0.000105826               0.999999984              -0.000763645               0.000095420               0.999999984              -0.000774019               0.000092076               0.999999984              -0.000782250               0.000092229               0.999999984              -0.000790761               0.000094239               0.999999984              -0.000800311               0.000097150               0.999999984              -0.000811056               0.000100399               0.999999984              -0.000822929               0.000103569               0.999999984              -0.000835593               0.000106172               0.999999984              -0.000848758               0.000107894               0.999999984              -0.000862138               0.000108619               0.999999984              -0.000875490               0.000108211               0.999999984              -0.000888561               0.000106237               0.999999984              -0.000900884               0.000102180               0.999999984              -0.000912055               0.000095106               0.999999984              -0.000921523               0.000083877               0.999999984              -0.000686525               0.000258102               0.999999984              -0.000722003               0.000210927               0.999999984              -0.000734661               0.000191261               0.999999984              -0.000741156               0.000185337               0.999999984              -0.000746938               0.000186294               0.999999984              -0.000753850               0.000190722               0.999999984              -0.000762056               0.000196692               0.999999984              -0.000771302               0.000203102               0.999999984              -0.000781461               0.000209306               0.999999984              -0.000792183               0.000214424               0.999999984              -0.000803066               0.000217971               0.999999984              -0.000813799               0.000219578               0.999999984              -0.000824060               0.000218766               0.999999984              -0.000833337               0.000214759               0.999999984              -0.000841252               0.000206688               0.999999984              -0.000847448               0.000193598               0.999999984              -0.000851597               0.000173848               0.999999984              -0.000667519               0.000383919               0.999999984              -0.000686022               0.000314817               0.999999984              -0.000689182               0.000287781               0.999999984              -0.000690421               0.000280795               0.999999984              -0.000693252               0.000283554               0.999999984              -0.000698053               0.000290967               0.999999984              -0.000704448               0.000300218               0.999999984              -0.000711980               0.000309793               0.999999984              -0.000719960               0.000318722               0.999999984              -0.000727869               0.000326182               0.999999984              -0.000735234               0.000331352               0.999999984              -0.000741669               0.000333763               0.999999984              -0.000746722               0.000332533               0.999999984              -0.000750005               0.000326813               0.999999984              -0.000751256               0.000315981               0.999999984              -0.000750293               0.000299095               0.999999984              -0.000747313               0.000275171               0.999999984              -0.000641527               0.000506002               0.999999984              -0.000638122               0.000417311               0.999999984              -0.000630618               0.000385353               0.999999984              -0.000626766               0.000379079               0.999999984              -0.000627020               0.000384629               0.999999984              -0.000630227               0.000395397               0.999999984              -0.000635188               0.000407983               0.999999984              -0.000640846               0.000420527               0.999999984              -0.000646219               0.000431934               0.999999984              -0.000650634               0.000441195               0.999999984              -0.000653527               0.000447645               0.999999984              -0.000654474               0.000450478               0.999999984              -0.000652956               0.000448789               0.999999984              -0.000648727               0.000441931               0.999999984              -0.000641891               0.000429607               0.999999984              -0.000632806               0.000411598               0.999999984              -0.000622120               0.000388098               0.999999984              -0.000608861               0.000623253               0.999999984              -0.000580656               0.000518371               0.999999984              -0.000563412               0.000484097               0.999999984              -0.000556023               0.000479792               0.999999984              -0.000555056               0.000488631               0.999999984              -0.000557539               0.000502886               0.999999984              -0.000561310               0.000518683               0.999999984              -0.000564911               0.000533923               0.999999984              -0.000567230               0.000547294               0.999999984              -0.000567525               0.000557942               0.999999984              -0.000565117               0.000564958               0.999999984              -0.000559483               0.000567592               0.999999984              -0.000550399               0.000565176               0.999999984              -0.000538120               0.000557555               0.999999984              -0.000523190               0.000545064               0.999999984              -0.000506324               0.000528140               0.999999984              -0.000488368               0.000507889               0.999999984              -0.000570103               0.000734560               0.999999984              -0.000516816               0.000617921               0.999999984              -0.000492224               0.000583450               0.999999984              -0.000483524               0.000581782               0.999999984              -0.000482934               0.000593903               0.999999984              -0.000485353               0.000611373               0.999999984              -0.000488071               0.000629885               0.999999984              -0.000489303               0.000647277               0.999999984              -0.000487921               0.000662172               0.999999984              -0.000483245               0.000673585               0.999999984              -0.000474588               0.000680520               0.999999984              -0.000461688               0.000682409               0.999999984              -0.000444846               0.000679282               0.999999984              -0.000424680               0.000671498               0.999999984              -0.000402079               0.000659807               0.999999984              -0.000377865               0.000645136               0.999999984              -0.000352659               0.000628583               0.999999984              -0.000526241               0.000838696               0.999999984              -0.000449646               0.000715820               0.999999984              -0.000421104               0.000682531               0.999999984              -0.000413745               0.000683399               0.999999984              -0.000414568               0.000698483               0.999999984              -0.000417308               0.000718566               0.999999984              -0.000418715               0.000739227               0.999999984              -0.000417032               0.000758144               0.999999984              -0.000411275               0.000774071               0.999999984              -0.000400728               0.000785724               0.999999984              -0.000384969               0.000792056               0.999999984              -0.000364188               0.000793268               0.999999984              -0.000339159               0.000789881               0.999999984              -0.000310832               0.000782680               0.999999984              -0.000280198               0.000772654               0.999999984              -0.000247964               0.000760657               0.999999984              -0.000214822               0.000747504               0.999999984              -0.000478728               0.000933870               0.999999984              -0.000381476               0.000811938               0.999999984              -0.000353806               0.000780050               0.999999984              -0.000349377               0.000783007               0.999999984              -0.000352244               0.000800395               0.999999984              -0.000355022               0.000822650               0.999999984              -0.000354645               0.000844894               0.999999984              -0.000349473               0.000864931               0.999999984              -0.000338470               0.000881366               0.999999984              -0.000320951               0.000892713               0.999999984              -0.000296914               0.000898500               0.999999984              -0.000267248               0.000899431               0.999999984              -0.000233111               0.000896494               0.999999984              -0.000195827               0.000890767               0.999999984              -0.000156392               0.000883110               0.999999984              -0.000115731               0.000874384               0.999999984              -0.000074558               0.000865177               0.999999984              -0.000429712               0.001023654               0.999999984              -0.000325000               0.000918509               0.999999984              -0.000294132               0.000882088               0.999999984              -0.000288353               0.000878746               0.999999984              -0.000290946               0.000891146               0.999999984              -0.000294379               0.000910490               0.999999984              -0.000295384               0.000931841               0.999999984              -0.000292188               0.000952626               0.999999984              -0.000284103               0.000971436               0.999999984              -0.000270291               0.000987084               0.999999984              -0.000250124               0.000998683               0.999999984              -0.000223846               0.001006189               0.999999984              -0.000192324               0.001010134               0.999999984              -0.000156745               0.001011262               0.999999984              -0.000117983               0.001010409               0.999999984              -0.000077098               0.001008279               0.999999984              -0.000035288               0.001005447               0.999999984              -0.000376067               0.001105193               0.999999984              -0.000271440               0.001021466               0.999999984              -0.000237526               0.000986657               0.999999984              -0.000229425               0.000979549               0.999999984              -0.000230841               0.000988120               0.999999984              -0.000234204               0.001004863               0.999999984              -0.000236055               0.001025347               0.999999984              -0.000234483               0.001046668               0.999999984              -0.000228709               0.001067326               0.999999984              -0.000217965               0.001086298               0.999999984              -0.000201410               0.001102696               0.999999984              -0.000178890               0.001115934               0.999999984              -0.000150668               0.001126124               0.999999984              -0.000117422               0.001133552               0.999999984              -0.000079973               0.001138928               0.999999984              -0.000039267               0.001142881               0.999999984               0.000003519               0.001146147               0.999999984              -0.000319002               0.001176513               0.999999984              -0.000220796               0.001117615               0.999999984              -0.000185623               0.001088904               0.999999984              -0.000175001               0.001081464               0.999999984              -0.000174574               0.001088035               0.999999984              -0.000177120               0.001103150               0.999999984              -0.000179162               0.001123007               0.999999984              -0.000178697               0.001144980               0.999999984              -0.000174776               0.001167424               0.999999984              -0.000166520               0.001189337               0.999999984              -0.000153269               0.001209886               0.999999984              -0.000134562               0.001228192               0.999999984              -0.000110121               0.001244051               0.999999984              -0.000079955               0.001257523               0.999999984              -0.000044440               0.001268878               0.999999984              -0.000004130               0.001278690               0.999999984               0.000040116               0.001287652               0.999999984              -0.000259000               0.001236547               0.999999984              -0.000173076               0.001202976               0.999999984              -0.000139135               0.001183707               0.999999984              -0.000126926               0.001179043               0.999999984              -0.000124455               0.001185729               0.999999984              -0.000125772               0.001200481               0.999999984              -0.000127494               0.001220407               0.999999984              -0.000127539               0.001243506               0.999999984              -0.000124821               0.001268083               0.999999984              -0.000118591               0.001293011               0.999999984              -0.000108370               0.001317420               0.999999984              -0.000093369               0.001340596               0.999999984              -0.000073094               0.001361992               0.999999984              -0.000046904               0.001381414               0.999999984              -0.000014388               0.001398890               0.999999984               0.000024483               0.001414714               0.999999984               0.000069754               0.001429391               0.999999984              -0.000196506               0.001284381               0.999999984              -0.000127772               0.001273968               0.999999984              -0.000098229               0.001265407               0.999999984              -0.000086183               0.001265488               0.999999984              -0.000082429               0.001274106               0.999999984              -0.000082514               0.001289702               0.999999984              -0.000083489               0.001310531               0.999999984              -0.000083624               0.001335043               0.999999984              -0.000081812               0.001361916               0.999999984              -0.000077342               0.001389956               0.999999984              -0.000069752               0.001418229               0.999999984              -0.000058533               0.001446212               0.999999984              -0.000042777               0.001473191               0.999999984              -0.000021466               0.001498788               0.999999984               0.000006195               0.001522707               0.999999984               0.000041152               0.001544952               0.999999984               0.000084566               0.001565728               0.999999984              -0.000132105               0.001319076               0.999999984              -0.000084265               0.001327191               0.999999984              -0.000062344               0.001328550               0.999999984              -0.000052563               0.001333752               0.999999984              -0.000048864               0.001345086               0.999999984              -0.000048152               0.001362286               0.999999984              -0.000048523               0.001384432               0.999999984              -0.000048584               0.001410517               0.999999984              -0.000047364               0.001439499               0.999999984              -0.000044510               0.001470390               0.999999984              -0.000039595               0.001502178               0.999999984              -0.000032088               0.001534458               0.999999984              -0.000021225               0.001566708               0.999999984              -0.000006053               0.001598285               0.999999984               0.000014351               0.001628649               0.999999984               0.000041422               0.001657441               0.999999984               0.000077064               0.001684376               0.999999984              -0.000066384               0.001340190               0.999999984              -0.000041853               0.001360220               0.999999984              -0.000030179               0.001368549               0.999999984              -0.000024698               0.001377715               0.999999984              -0.000022344               0.001391349               0.999999984              -0.000021713               0.001409969               0.999999984              -0.000021769               0.001433244               0.999999984              -0.000021819               0.001460492               0.999999984              -0.000021161               0.001490946               0.999999984              -0.000019775               0.001523833               0.999999984              -0.000017439               0.001558287               0.999999984              -0.000013680               0.001593819               0.999999984              -0.000008055               0.001629977               0.999999984              -0.000000127               0.001666113               0.999999984               0.000010845               0.001701532               0.999999984               0.000025774               0.001735694               0.999999984               0.000046240               0.001767733               0.999999984               0.000000000               0.001347288               0.999999984              -0.000000000               0.001371436               0.999999984              -0.000000000               0.001382287               0.999999984              -0.000000000               0.001392999               0.999999984               0.000000000               0.001407564               0.999999984              -0.000000000               0.001426698               0.999999984              -0.000000000               0.001450392               0.999999984              -0.000000000               0.001478103               0.999999984              -0.000000000               0.001509027               0.999999984              -0.000000000               0.001542578               0.999999984              -0.000000000               0.001578051               0.999999984              -0.000000000               0.001614928               0.999999984               0.000000000               0.001652643               0.999999984              -0.000000000               0.001690580               0.999999984              -0.000000000               0.001728062               0.999999984               0.000000000               0.001764303               0.999999984              -0.000000000               0.001798318               0.999999984              -0.000701769               0.000000000               0.999999984              -0.000751872               0.000000000               0.999999984              -0.000773463               0.000000000               0.999999984              -0.000785285               0.000000000               0.999999984              -0.000794440               0.000000000               0.999999984              -0.000803570               0.000000000               0.999999984              -0.000813614              -0.000000000               0.999999984              -0.000824868               0.000000000               0.999999984              -0.000837307              -0.000000000               0.999999984              -0.000850759              -0.000000000               0.999999984              -0.000864846               0.000000000               0.999999984              -0.000879200               0.000000000               0.999999984              -0.000893603               0.000000000               0.999999984              -0.000907831              -0.000000000               0.999999984              -0.000921730               0.000000000               0.999999984              -0.000934787               0.000000000               0.999999984              -0.000946224               0.000000000               0.999999984              -0.000698050              -0.000129700               0.999999984              -0.000744421              -0.000105826               0.999999984              -0.000763645              -0.000095420               0.999999984              -0.000774019              -0.000092076               0.999999984              -0.000782250              -0.000092229               0.999999984              -0.000790761              -0.000094239               0.999999984              -0.000800311              -0.000097150               0.999999984              -0.000811056              -0.000100399               0.999999984              -0.000822929              -0.000103569               0.999999984              -0.000835593              -0.000106172               0.999999984              -0.000848758              -0.000107894               0.999999984              -0.000862138              -0.000108619               0.999999984              -0.000875490              -0.000108211               0.999999984              -0.000888561              -0.000106237               0.999999984              -0.000900884              -0.000102180               0.999999984              -0.000912055              -0.000095106               0.999999984              -0.000921523              -0.000083877               0.999999984              -0.000686525              -0.000258102               0.999999984              -0.000722003              -0.000210927               0.999999984              -0.000734661              -0.000191261               0.999999984              -0.000741156              -0.000185337               0.999999984              -0.000746938              -0.000186294               0.999999984              -0.000753850              -0.000190722               0.999999984              -0.000762056              -0.000196692               0.999999984              -0.000771302              -0.000203102               0.999999984              -0.000781461              -0.000209306               0.999999984              -0.000792183              -0.000214424               0.999999984              -0.000803066              -0.000217971               0.999999984              -0.000813799              -0.000219578               0.999999984              -0.000824060              -0.000218766               0.999999984              -0.000833337              -0.000214759               0.999999984              -0.000841252              -0.000206688               0.999999984              -0.000847448              -0.000193598               0.999999984              -0.000851597              -0.000173848               0.999999984              -0.000667519              -0.000383919               0.999999984              -0.000686022              -0.000314817               0.999999984              -0.000689182              -0.000287781               0.999999984              -0.000690421              -0.000280795               0.999999984              -0.000693252              -0.000283554               0.999999984              -0.000698053              -0.000290967               0.999999984              -0.000704448              -0.000300218               0.999999984              -0.000711980              -0.000309793               0.999999984              -0.000719960              -0.000318722               0.999999984              -0.000727869              -0.000326182               0.999999984              -0.000735234              -0.000331352               0.999999984              -0.000741669              -0.000333763               0.999999984              -0.000746722              -0.000332533               0.999999984              -0.000750005              -0.000326813               0.999999984              -0.000751256              -0.000315981               0.999999984              -0.000750293              -0.000299095               0.999999984              -0.000747313              -0.000275171               0.999999984              -0.000641527              -0.000506002               0.999999984              -0.000638122              -0.000417311               0.999999984              -0.000630618              -0.000385353               0.999999984              -0.000626766              -0.000379079               0.999999984              -0.000627020              -0.000384629               0.999999984              -0.000630227              -0.000395397               0.999999984              -0.000635188              -0.000407983               0.999999984              -0.000640846              -0.000420527               0.999999984              -0.000646219              -0.000431934               0.999999984              -0.000650634              -0.000441195               0.999999984              -0.000653527              -0.000447645               0.999999984              -0.000654474              -0.000450478               0.999999984              -0.000652956              -0.000448789               0.999999984              -0.000648727              -0.000441931               0.999999984              -0.000641891              -0.000429607               0.999999984              -0.000632806              -0.000411598               0.999999984              -0.000622120              -0.000388098               0.999999984              -0.000608861              -0.000623253               0.999999984              -0.000580656              -0.000518371               0.999999984              -0.000563412              -0.000484097               0.999999984              -0.000556023              -0.000479792               0.999999984              -0.000555056              -0.000488631               0.999999984              -0.000557539              -0.000502886               0.999999984              -0.000561310              -0.000518683               0.999999984              -0.000564911              -0.000533923               0.999999984              -0.000567230              -0.000547294               0.999999984              -0.000567525              -0.000557942               0.999999984              -0.000565117              -0.000564958               0.999999984              -0.000559483              -0.000567592               0.999999984              -0.000550399              -0.000565176               0.999999984              -0.000538120              -0.000557555               0.999999984              -0.000523190              -0.000545064               0.999999984              -0.000506324              -0.000528140               0.999999984              -0.000488368              -0.000507889               0.999999984              -0.000570103              -0.000734560               0.999999984              -0.000516816              -0.000617921               0.999999984              -0.000492224              -0.000583450               0.999999984              -0.000483524              -0.000581782               0.999999984              -0.000482934              -0.000593903               0.999999984              -0.000485353              -0.000611373               0.999999984              -0.000488071              -0.000629885               0.999999984              -0.000489303              -0.000647277               0.999999984              -0.000487921              -0.000662172               0.999999984              -0.000483245              -0.000673585               0.999999984              -0.000474588              -0.000680520               0.999999984              -0.000461688              -0.000682409               0.999999984              -0.000444846              -0.000679282               0.999999984              -0.000424680              -0.000671498               0.999999984              -0.000402079              -0.000659807               0.999999984              -0.000377865              -0.000645136               0.999999984              -0.000352659              -0.000628583               0.999999984              -0.000526241              -0.000838696               0.999999984              -0.000449646              -0.000715820               0.999999984              -0.000421104              -0.000682531               0.999999984              -0.000413745              -0.000683399               0.999999984              -0.000414568              -0.000698483               0.999999984              -0.000417308              -0.000718566               0.999999984              -0.000418715              -0.000739227               0.999999984              -0.000417032              -0.000758144               0.999999984              -0.000411275              -0.000774071               0.999999984              -0.000400728              -0.000785724               0.999999984              -0.000384969              -0.000792056               0.999999984              -0.000364188              -0.000793268               0.999999984              -0.000339159              -0.000789881               0.999999984              -0.000310832              -0.000782680               0.999999984              -0.000280198              -0.000772654               0.999999984              -0.000247964              -0.000760657               0.999999984              -0.000214822              -0.000747504               0.999999984              -0.000478728              -0.000933870               0.999999984              -0.000381476              -0.000811938               0.999999984              -0.000353806              -0.000780050               0.999999984              -0.000349377              -0.000783007               0.999999984              -0.000352244              -0.000800395               0.999999984              -0.000355022              -0.000822650               0.999999984              -0.000354645              -0.000844894               0.999999984              -0.000349473              -0.000864931               0.999999984              -0.000338470              -0.000881366               0.999999984              -0.000320951              -0.000892713               0.999999984              -0.000296914              -0.000898500               0.999999984              -0.000267248              -0.000899431               0.999999984              -0.000233111              -0.000896494               0.999999984              -0.000195827              -0.000890767               0.999999984              -0.000156392              -0.000883110               0.999999984              -0.000115731              -0.000874384               0.999999984              -0.000074558              -0.000865177               0.999999984              -0.000429712              -0.001023654               0.999999984              -0.000325000              -0.000918509               0.999999984              -0.000294132              -0.000882088               0.999999984              -0.000288353              -0.000878746               0.999999984              -0.000290946              -0.000891146               0.999999984              -0.000294379              -0.000910490               0.999999984              -0.000295384              -0.000931841               0.999999984              -0.000292188              -0.000952626               0.999999984              -0.000284103              -0.000971436               0.999999984              -0.000270291              -0.000987084               0.999999984              -0.000250124              -0.000998683               0.999999984              -0.000223846              -0.001006189               0.999999984              -0.000192324              -0.001010134               0.999999984              -0.000156745              -0.001011262               0.999999984              -0.000117983              -0.001010409               0.999999984              -0.000077098              -0.001008279               0.999999984              -0.000035288              -0.001005447               0.999999984              -0.000376067              -0.001105193               0.999999984              -0.000271440              -0.001021466               0.999999984              -0.000237526              -0.000986657               0.999999984              -0.000229425              -0.000979549               0.999999984              -0.000230841              -0.000988120               0.999999984              -0.000234204              -0.001004863               0.999999984              -0.000236055              -0.001025347               0.999999984              -0.000234483              -0.001046668               0.999999984              -0.000228709              -0.001067326               0.999999984              -0.000217965              -0.001086298               0.999999984              -0.000201410              -0.001102696               0.999999984              -0.000178890              -0.001115934               0.999999984              -0.000150668              -0.001126124               0.999999984              -0.000117422              -0.001133552               0.999999984              -0.000079973              -0.001138928               0.999999984              -0.000039267              -0.001142881               0.999999984               0.000003519              -0.001146147               0.999999984              -0.000319002              -0.001176513               0.999999984              -0.000220796              -0.001117615               0.999999984              -0.000185623              -0.001088904               0.999999984              -0.000175001              -0.001081464               0.999999984              -0.000174574              -0.001088035               0.999999984              -0.000177120              -0.001103150               0.999999984              -0.000179162              -0.001123007               0.999999984              -0.000178697              -0.001144980               0.999999984              -0.000174776              -0.001167424               0.999999984              -0.000166520              -0.001189337               0.999999984              -0.000153269              -0.001209886               0.999999984              -0.000134562              -0.001228192               0.999999984              -0.000110121              -0.001244051               0.999999984              -0.000079955              -0.001257523               0.999999984              -0.000044440              -0.001268878               0.999999984              -0.000004130              -0.001278690               0.999999984               0.000040116              -0.001287652               0.999999984              -0.000259000              -0.001236547               0.999999984              -0.000173076              -0.001202976               0.999999984              -0.000139135              -0.001183707               0.999999984              -0.000126926              -0.001179043               0.999999984              -0.000124455              -0.001185729               0.999999984              -0.000125772              -0.001200481               0.999999984              -0.000127494              -0.001220407               0.999999984              -0.000127539              -0.001243506               0.999999984              -0.000124821              -0.001268083               0.999999984              -0.000118591              -0.001293011               0.999999984              -0.000108370              -0.001317420               0.999999984              -0.000093369              -0.001340596               0.999999984              -0.000073094              -0.001361992               0.999999984              -0.000046904              -0.001381414               0.999999984              -0.000014388              -0.001398890               0.999999984               0.000024483              -0.001414714               0.999999984               0.000069754              -0.001429391               0.999999984              -0.000196506              -0.001284381               0.999999984              -0.000127772              -0.001273968               0.999999984              -0.000098229              -0.001265407               0.999999984              -0.000086183              -0.001265488               0.999999984              -0.000082429              -0.001274106               0.999999984              -0.000082514              -0.001289702               0.999999984              -0.000083489              -0.001310531               0.999999984              -0.000083624              -0.001335043               0.999999984              -0.000081812              -0.001361916               0.999999984              -0.000077342              -0.001389956               0.999999984              -0.000069752              -0.001418229               0.999999984              -0.000058533              -0.001446212               0.999999984              -0.000042777              -0.001473191               0.999999984              -0.000021466              -0.001498788               0.999999984               0.000006195              -0.001522707               0.999999984               0.000041152              -0.001544952               0.999999984               0.000084566              -0.001565728               0.999999984              -0.000132105              -0.001319076               0.999999984              -0.000084265              -0.001327191               0.999999984              -0.000062344              -0.001328550               0.999999984              -0.000052563              -0.001333752               0.999999984              -0.000048864              -0.001345086               0.999999984              -0.000048152              -0.001362286               0.999999984              -0.000048523              -0.001384432               0.999999984              -0.000048584              -0.001410517               0.999999984              -0.000047364              -0.001439499               0.999999984              -0.000044510              -0.001470390               0.999999984              -0.000039595              -0.001502178               0.999999984              -0.000032088              -0.001534458               0.999999984              -0.000021225              -0.001566708               0.999999984              -0.000006053              -0.001598285               0.999999984               0.000014351              -0.001628649               0.999999984               0.000041422              -0.001657441               0.999999984               0.000077064              -0.001684376               0.999999984              -0.000066384              -0.001340190               0.999999984              -0.000041853              -0.001360220               0.999999984              -0.000030179              -0.001368549               0.999999984              -0.000024698              -0.001377715               0.999999984              -0.000022344              -0.001391349               0.999999984              -0.000021713              -0.001409969               0.999999984              -0.000021769              -0.001433244               0.999999984              -0.000021819              -0.001460492               0.999999984              -0.000021161              -0.001490946               0.999999984              -0.000019775              -0.001523833               0.999999984              -0.000017439              -0.001558287               0.999999984              -0.000013680              -0.001593819               0.999999984              -0.000008055              -0.001629977               0.999999984              -0.000000127              -0.001666113               0.999999984               0.000010845              -0.001701532               0.999999984               0.000025774              -0.001735694               0.999999984               0.000046240              -0.001767733               0.999999984              -0.000000000              -0.001347288               0.999999984               0.000000000              -0.001371436               0.999999984              -0.000000000              -0.001382287               0.999999984              -0.000000000              -0.001392999               0.999999984              -0.000000000              -0.001407564               0.999999984               0.000000000              -0.001426698               0.999999984              -0.000000000              -0.001450392               0.999999984               0.000000000              -0.001478103               0.999999984               0.000000000              -0.001509027               0.999999984               0.000000000              -0.001542578               0.999999984              -0.000000000              -0.001578051               0.999999984              -0.000000000              -0.001614928               0.999999984               0.000000000              -0.001652643               0.999999984              -0.000000000              -0.001690580               0.999999984              -0.000000000              -0.001728062               0.999999984               0.000000000              -0.001764303               0.999999984               0.000000000              -0.001798318               0.999999984               0.000701769               0.000000000               0.999999984               0.000751872               0.000000000               0.999999984               0.000773463              -0.000000000               0.999999984               0.000785285              -0.000000000               0.999999984               0.000794440              -0.000000000               0.999999984               0.000803570               0.000000000               0.999999984               0.000813614              -0.000000000               0.999999984               0.000824868               0.000000000               0.999999984               0.000837307               0.000000000               0.999999984               0.000850759              -0.000000000               0.999999984               0.000864846              -0.000000000               0.999999984               0.000879200               0.000000000               0.999999984               0.000893603               0.000000000               0.999999984               0.000907831              -0.000000000               0.999999984               0.000921730               0.000000000               0.999999984               0.000934787               0.000000000               0.999999984               0.000946224               0.000000000               0.999999984               0.000698050              -0.000129700               0.999999984               0.000744421              -0.000105826               0.999999984               0.000763645              -0.000095420               0.999999984               0.000774019              -0.000092076               0.999999984               0.000782250              -0.000092229               0.999999984               0.000790761              -0.000094239               0.999999984               0.000800311              -0.000097150               0.999999984               0.000811056              -0.000100399               0.999999984               0.000822929              -0.000103569               0.999999984               0.000835593              -0.000106172               0.999999984               0.000848758              -0.000107894               0.999999984               0.000862138              -0.000108619               0.999999984               0.000875490              -0.000108211               0.999999984               0.000888561              -0.000106237               0.999999984               0.000900884              -0.000102180               0.999999984               0.000912055              -0.000095106               0.999999984               0.000921523              -0.000083877               0.999999984               0.000686525              -0.000258102               0.999999984               0.000722003              -0.000210927               0.999999984               0.000734661              -0.000191261               0.999999984               0.000741156              -0.000185337               0.999999984               0.000746938              -0.000186294               0.999999984               0.000753850              -0.000190722               0.999999984               0.000762056              -0.000196692               0.999999984               0.000771302              -0.000203102               0.999999984               0.000781461              -0.000209306               0.999999984               0.000792183              -0.000214424               0.999999984               0.000803066              -0.000217971               0.999999984               0.000813799              -0.000219578               0.999999984               0.000824060              -0.000218766               0.999999984               0.000833337              -0.000214759               0.999999984               0.000841252              -0.000206688               0.999999984               0.000847448              -0.000193598               0.999999984               0.000851597              -0.000173848               0.999999984               0.000667519              -0.000383919               0.999999984               0.000686022              -0.000314817               0.999999984               0.000689182              -0.000287781               0.999999984               0.000690421              -0.000280795               0.999999984               0.000693252              -0.000283554               0.999999984               0.000698053              -0.000290967               0.999999984               0.000704448              -0.000300218               0.999999984               0.000711980              -0.000309793               0.999999984               0.000719960              -0.000318722               0.999999984               0.000727869              -0.000326182               0.999999984               0.000735234              -0.000331352               0.999999984               0.000741669              -0.000333763               0.999999984               0.000746722              -0.000332533               0.999999984               0.000750005              -0.000326813               0.999999984               0.000751256              -0.000315981               0.999999984               0.000750293              -0.000299095               0.999999984               0.000747313              -0.000275171               0.999999984               0.000641527              -0.000506002               0.999999984               0.000638122              -0.000417311               0.999999984               0.000630618              -0.000385353               0.999999984               0.000626766              -0.000379079               0.999999984               0.000627020              -0.000384629               0.999999984               0.000630227              -0.000395397               0.999999984               0.000635188              -0.000407983               0.999999984               0.000640846              -0.000420527               0.999999984               0.000646219              -0.000431934               0.999999984               0.000650634              -0.000441195               0.999999984               0.000653527              -0.000447645               0.999999984               0.000654474              -0.000450478               0.999999984               0.000652956              -0.000448789               0.999999984               0.000648727              -0.000441931               0.999999984               0.000641891              -0.000429607               0.999999984               0.000632806              -0.000411598               0.999999984               0.000622120              -0.000388098               0.999999984               0.000608861              -0.000623253               0.999999984               0.000580656              -0.000518371               0.999999984               0.000563412              -0.000484097               0.999999984               0.000556023              -0.000479792               0.999999984               0.000555056              -0.000488631               0.999999984               0.000557539              -0.000502886               0.999999984               0.000561310              -0.000518683               0.999999984               0.000564911              -0.000533923               0.999999984               0.000567230              -0.000547294               0.999999984               0.000567525              -0.000557942               0.999999984               0.000565117              -0.000564958               0.999999984               0.000559483              -0.000567592               0.999999984               0.000550399              -0.000565176               0.999999984               0.000538120              -0.000557555               0.999999984               0.000523190              -0.000545064               0.999999984               0.000506324              -0.000528140               0.999999984               0.000488368              -0.000507889               0.999999984               0.000570103              -0.000734560               0.999999984               0.000516816              -0.000617921               0.999999984               0.000492224              -0.000583450               0.999999984               0.000483524              -0.000581782               0.999999984               0.000482934              -0.000593903               0.999999984               0.000485353              -0.000611373               0.999999984               0.000488071              -0.000629885               0.999999984               0.000489303              -0.000647277               0.999999984               0.000487921              -0.000662172               0.999999984               0.000483245              -0.000673585               0.999999984               0.000474588              -0.000680520               0.999999984               0.000461688              -0.000682409               0.999999984               0.000444846              -0.000679282               0.999999984               0.000424680              -0.000671498               0.999999984               0.000402079              -0.000659807               0.999999984               0.000377865              -0.000645136               0.999999984               0.000352659              -0.000628583               0.999999984               0.000526241              -0.000838696               0.999999984               0.000449646              -0.000715820               0.999999984               0.000421104              -0.000682531               0.999999984               0.000413745              -0.000683399               0.999999984               0.000414568              -0.000698483               0.999999984               0.000417308              -0.000718566               0.999999984               0.000418715              -0.000739227               0.999999984               0.000417032              -0.000758144               0.999999984               0.000411275              -0.000774071               0.999999984               0.000400728              -0.000785724               0.999999984               0.000384969              -0.000792056               0.999999984               0.000364188              -0.000793268               0.999999984               0.000339159              -0.000789881               0.999999984               0.000310832              -0.000782680               0.999999984               0.000280198              -0.000772654               0.999999984               0.000247964              -0.000760657               0.999999984               0.000214822              -0.000747504               0.999999984               0.000478728              -0.000933870               0.999999984               0.000381476              -0.000811938               0.999999984               0.000353806              -0.000780050               0.999999984               0.000349377              -0.000783007               0.999999984               0.000352244              -0.000800395               0.999999984               0.000355022              -0.000822650               0.999999984               0.000354645              -0.000844894               0.999999984               0.000349473              -0.000864931               0.999999984               0.000338470              -0.000881366               0.999999984               0.000320951              -0.000892713               0.999999984               0.000296914              -0.000898500               0.999999984               0.000267248              -0.000899431               0.999999984               0.000233111              -0.000896494               0.999999984               0.000195827              -0.000890767               0.999999984               0.000156392              -0.000883110               0.999999984               0.000115731              -0.000874384               0.999999984               0.000074558              -0.000865177               0.999999984               0.000429712              -0.001023654               0.999999984               0.000325000              -0.000918509               0.999999984               0.000294132              -0.000882088               0.999999984               0.000288353              -0.000878746               0.999999984               0.000290946              -0.000891146               0.999999984               0.000294379              -0.000910490               0.999999984               0.000295384              -0.000931841               0.999999984               0.000292188              -0.000952626               0.999999984               0.000284103              -0.000971436               0.999999984               0.000270291              -0.000987084               0.999999984               0.000250124              -0.000998683               0.999999984               0.000223846              -0.001006189               0.999999984               0.000192324              -0.001010134               0.999999984               0.000156745              -0.001011262               0.999999984               0.000117983              -0.001010409               0.999999984               0.000077098              -0.001008279               0.999999984               0.000035288              -0.001005447               0.999999984               0.000376067              -0.001105193               0.999999984               0.000271440              -0.001021466               0.999999984               0.000237526              -0.000986657               0.999999984               0.000229425              -0.000979549               0.999999984               0.000230841              -0.000988120               0.999999984               0.000234204              -0.001004863               0.999999984               0.000236055              -0.001025347               0.999999984               0.000234483              -0.001046668               0.999999984               0.000228709              -0.001067326               0.999999984               0.000217965              -0.001086298               0.999999984               0.000201410              -0.001102696               0.999999984               0.000178890              -0.001115934               0.999999984               0.000150668              -0.001126124               0.999999984               0.000117422              -0.001133552               0.999999984               0.000079973              -0.001138928               0.999999984               0.000039267              -0.001142881               0.999999984              -0.000003519              -0.001146147               0.999999984               0.000319002              -0.001176513               0.999999984               0.000220796              -0.001117615               0.999999984               0.000185623              -0.001088904               0.999999984               0.000175001              -0.001081464               0.999999984               0.000174574              -0.001088035               0.999999984               0.000177120              -0.001103150               0.999999984               0.000179162              -0.001123007               0.999999984               0.000178697              -0.001144980               0.999999984               0.000174776              -0.001167424               0.999999984               0.000166520              -0.001189337               0.999999984               0.000153269              -0.001209886               0.999999984               0.000134562              -0.001228192               0.999999984               0.000110121              -0.001244051               0.999999984               0.000079955              -0.001257523               0.999999984               0.000044440              -0.001268878               0.999999984               0.000004130              -0.001278690               0.999999984              -0.000040116              -0.001287652               0.999999984               0.000259000              -0.001236547               0.999999984               0.000173076              -0.001202976               0.999999984               0.000139135              -0.001183707               0.999999984               0.000126926              -0.001179043               0.999999984               0.000124455              -0.001185729               0.999999984               0.000125772              -0.001200481               0.999999984               0.000127494              -0.001220407               0.999999984               0.000127539              -0.001243506               0.999999984               0.000124821              -0.001268083               0.999999984               0.000118591              -0.001293011               0.999999984               0.000108370              -0.001317420               0.999999984               0.000093369              -0.001340596               0.999999984               0.000073094              -0.001361992               0.999999984               0.000046904              -0.001381414               0.999999984               0.000014388              -0.001398890               0.999999984              -0.000024483              -0.001414714               0.999999984              -0.000069754              -0.001429391               0.999999984               0.000196506              -0.001284381               0.999999984               0.000127772              -0.001273968               0.999999984               0.000098229              -0.001265407               0.999999984               0.000086183              -0.001265488               0.999999984               0.000082429              -0.001274106               0.999999984               0.000082514              -0.001289702               0.999999984               0.000083489              -0.001310531               0.999999984               0.000083624              -0.001335043               0.999999984               0.000081812              -0.001361916               0.999999984               0.000077342              -0.001389956               0.999999984               0.000069752              -0.001418229               0.999999984               0.000058533              -0.001446212               0.999999984               0.000042777              -0.001473191               0.999999984               0.000021466              -0.001498788               0.999999984              -0.000006195              -0.001522707               0.999999984              -0.000041152              -0.001544952               0.999999984              -0.000084566              -0.001565728               0.999999984               0.000132105              -0.001319076               0.999999984               0.000084265              -0.001327191               0.999999984               0.000062344              -0.001328550               0.999999984               0.000052563              -0.001333752               0.999999984               0.000048864              -0.001345086               0.999999984               0.000048152              -0.001362286               0.999999984               0.000048523              -0.001384432               0.999999984               0.000048584              -0.001410517               0.999999984               0.000047364              -0.001439499               0.999999984               0.000044510              -0.001470390               0.999999984               0.000039595              -0.001502178               0.999999984               0.000032088              -0.001534458               0.999999984               0.000021225              -0.001566708               0.999999984               0.000006053              -0.001598285               0.999999984              -0.000014351              -0.001628649               0.999999984              -0.000041422              -0.001657441               0.999999984              -0.000077064              -0.001684376               0.999999984               0.000066384              -0.001340190               0.999999984               0.000041853              -0.001360220               0.999999984               0.000030179              -0.001368549               0.999999984               0.000024698              -0.001377715               0.999999984               0.000022344              -0.001391349               0.999999984               0.000021713              -0.001409969               0.999999984               0.000021769              -0.001433244               0.999999984               0.000021819              -0.001460492               0.999999984               0.000021161              -0.001490946               0.999999984               0.000019775              -0.001523833               0.999999984               0.000017439              -0.001558287               0.999999984               0.000013680              -0.001593819               0.999999984               0.000008055              -0.001629977               0.999999984               0.000000127              -0.001666113               0.999999984              -0.000010845              -0.001701532               0.999999984              -0.000025774              -0.001735694               0.999999984              -0.000046240              -0.001767733               0.999999984              -0.000000000              -0.001347288               0.999999984               0.000000000              -0.001371436               0.999999984              -0.000000000              -0.001382287               0.999999984              -0.000000000              -0.001392999               0.999999984              -0.000000000              -0.001407564               0.999999984               0.000000000              -0.001426698               0.999999984              -0.000000000              -0.001450392               0.999999984               0.000000000              -0.001478103               0.999999984               0.000000000              -0.001509027               0.999999984               0.000000000              -0.001542578               0.999999984              -0.000000000              -0.001578051               0.999999984              -0.000000000              -0.001614928               0.999999984               0.000000000              -0.001652643               0.999999984              -0.000000000              -0.001690580               0.999999984              -0.000000000              -0.001728062               0.999999984               0.000000000              -0.001764303               0.999999984               0.000000000              -0.001798318               0.999999984               0.000701769               0.000000000               0.999999984               0.000751872               0.000000000               0.999999984               0.000773463              -0.000000000               0.999999984               0.000785285              -0.000000000               0.999999984               0.000794440              -0.000000000               0.999999984               0.000803570               0.000000000               0.999999984               0.000813614              -0.000000000               0.999999984               0.000824868               0.000000000               0.999999984               0.000837307               0.000000000               0.999999984               0.000850759              -0.000000000               0.999999984               0.000864846              -0.000000000               0.999999984               0.000879200               0.000000000               0.999999984               0.000893603               0.000000000               0.999999984               0.000907831              -0.000000000               0.999999984               0.000921730               0.000000000               0.999999984               0.000934787               0.000000000               0.999999984               0.000946224               0.000000000               0.999999984               0.000698050               0.000129700               0.999999984               0.000744421               0.000105826               0.999999984               0.000763645               0.000095420               0.999999984               0.000774019               0.000092076               0.999999984               0.000782250               0.000092229               0.999999984               0.000790761               0.000094239               0.999999984               0.000800311               0.000097150               0.999999984               0.000811056               0.000100399               0.999999984               0.000822929               0.000103569               0.999999984               0.000835593               0.000106172               0.999999984               0.000848758               0.000107894               0.999999984               0.000862138               0.000108619               0.999999984               0.000875490               0.000108211               0.999999984               0.000888561               0.000106237               0.999999984               0.000900884               0.000102180               0.999999984               0.000912055               0.000095106               0.999999984               0.000921523               0.000083877               0.999999984               0.000686525               0.000258102               0.999999984               0.000722003               0.000210927               0.999999984               0.000734661               0.000191261               0.999999984               0.000741156               0.000185337               0.999999984               0.000746938               0.000186294               0.999999984               0.000753850               0.000190722               0.999999984               0.000762056               0.000196692               0.999999984               0.000771302               0.000203102               0.999999984               0.000781461               0.000209306               0.999999984               0.000792183               0.000214424               0.999999984               0.000803066               0.000217971               0.999999984               0.000813799               0.000219578               0.999999984               0.000824060               0.000218766               0.999999984               0.000833337               0.000214759               0.999999984               0.000841252               0.000206688               0.999999984               0.000847448               0.000193598               0.999999984               0.000851597               0.000173848               0.999999984               0.000667519               0.000383919               0.999999984               0.000686022               0.000314817               0.999999984               0.000689182               0.000287781               0.999999984               0.000690421               0.000280795               0.999999984               0.000693252               0.000283554               0.999999984               0.000698053               0.000290967               0.999999984               0.000704448               0.000300218               0.999999984               0.000711980               0.000309793               0.999999984               0.000719960               0.000318722               0.999999984               0.000727869               0.000326182               0.999999984               0.000735234               0.000331352               0.999999984               0.000741669               0.000333763               0.999999984               0.000746722               0.000332533               0.999999984               0.000750005               0.000326813               0.999999984               0.000751256               0.000315981               0.999999984               0.000750293               0.000299095               0.999999984               0.000747313               0.000275171               0.999999984               0.000641527               0.000506002               0.999999984               0.000638122               0.000417311               0.999999984               0.000630618               0.000385353               0.999999984               0.000626766               0.000379079               0.999999984               0.000627020               0.000384629               0.999999984               0.000630227               0.000395397               0.999999984               0.000635188               0.000407983               0.999999984               0.000640846               0.000420527               0.999999984               0.000646219               0.000431934               0.999999984               0.000650634               0.000441195               0.999999984               0.000653527               0.000447645               0.999999984               0.000654474               0.000450478               0.999999984               0.000652956               0.000448789               0.999999984               0.000648727               0.000441931               0.999999984               0.000641891               0.000429607               0.999999984               0.000632806               0.000411598               0.999999984               0.000622120               0.000388098               0.999999984               0.000608861               0.000623253               0.999999984               0.000580656               0.000518371               0.999999984               0.000563412               0.000484097               0.999999984               0.000556023               0.000479792               0.999999984               0.000555056               0.000488631               0.999999984               0.000557539               0.000502886               0.999999984               0.000561310               0.000518683               0.999999984               0.000564911               0.000533923               0.999999984               0.000567230               0.000547294               0.999999984               0.000567525               0.000557942               0.999999984               0.000565117               0.000564958               0.999999984               0.000559483               0.000567592               0.999999984               0.000550399               0.000565176               0.999999984               0.000538120               0.000557555               0.999999984               0.000523190               0.000545064               0.999999984               0.000506324               0.000528140               0.999999984               0.000488368               0.000507889               0.999999984               0.000570103               0.000734560               0.999999984               0.000516816               0.000617921               0.999999984               0.000492224               0.000583450               0.999999984               0.000483524               0.000581782               0.999999984               0.000482934               0.000593903               0.999999984               0.000485353               0.000611373               0.999999984               0.000488071               0.000629885               0.999999984               0.000489303               0.000647277               0.999999984               0.000487921               0.000662172               0.999999984               0.000483245               0.000673585               0.999999984               0.000474588               0.000680520               0.999999984               0.000461688               0.000682409               0.999999984               0.000444846               0.000679282               0.999999984               0.000424680               0.000671498               0.999999984               0.000402079               0.000659807               0.999999984               0.000377865               0.000645136               0.999999984               0.000352659               0.000628583               0.999999984               0.000526241               0.000838696               0.999999984               0.000449646               0.000715820               0.999999984               0.000421104               0.000682531               0.999999984               0.000413745               0.000683399               0.999999984               0.000414568               0.000698483               0.999999984               0.000417308               0.000718566               0.999999984               0.000418715               0.000739227               0.999999984               0.000417032               0.000758144               0.999999984               0.000411275               0.000774071               0.999999984               0.000400728               0.000785724               0.999999984               0.000384969               0.000792056               0.999999984               0.000364188               0.000793268               0.999999984               0.000339159               0.000789881               0.999999984               0.000310832               0.000782680               0.999999984               0.000280198               0.000772654               0.999999984               0.000247964               0.000760657               0.999999984               0.000214822               0.000747504               0.999999984               0.000478728               0.000933870               0.999999984               0.000381476               0.000811938               0.999999984               0.000353806               0.000780050               0.999999984               0.000349377               0.000783007               0.999999984               0.000352244               0.000800395               0.999999984               0.000355022               0.000822650               0.999999984               0.000354645               0.000844894               0.999999984               0.000349473               0.000864931               0.999999984               0.000338470               0.000881366               0.999999984               0.000320951               0.000892713               0.999999984               0.000296914               0.000898500               0.999999984               0.000267248               0.000899431               0.999999984               0.000233111               0.000896494               0.999999984               0.000195827               0.000890767               0.999999984               0.000156392               0.000883110               0.999999984               0.000115731               0.000874384               0.999999984               0.000074558               0.000865177               0.999999984               0.000429712               0.001023654               0.999999984               0.000325000               0.000918509               0.999999984               0.000294132               0.000882088               0.999999984               0.000288353               0.000878746               0.999999984               0.000290946               0.000891146               0.999999984               0.000294379               0.000910490               0.999999984               0.000295384               0.000931841               0.999999984               0.000292188               0.000952626               0.999999984               0.000284103               0.000971436               0.999999984               0.000270291               0.000987084               0.999999984               0.000250124               0.000998683               0.999999984               0.000223846               0.001006189               0.999999984               0.000192324               0.001010134               0.999999984               0.000156745               0.001011262               0.999999984               0.000117983               0.001010409               0.999999984               0.000077098               0.001008279               0.999999984               0.000035288               0.001005447               0.999999984               0.000376067               0.001105193               0.999999984               0.000271440               0.001021466               0.999999984               0.000237526               0.000986657               0.999999984               0.000229425               0.000979549               0.999999984               0.000230841               0.000988120               0.999999984               0.000234204               0.001004863               0.999999984               0.000236055               0.001025347               0.999999984               0.000234483               0.001046668               0.999999984               0.000228709               0.001067326               0.999999984               0.000217965               0.001086298               0.999999984               0.000201410               0.001102696               0.999999984               0.000178890               0.001115934               0.999999984               0.000150668               0.001126124               0.999999984               0.000117422               0.001133552               0.999999984               0.000079973               0.001138928               0.999999984               0.000039267               0.001142881               0.999999984              -0.000003519               0.001146147               0.999999984               0.000319002               0.001176513               0.999999984               0.000220796               0.001117615               0.999999984               0.000185623               0.001088904               0.999999984               0.000175001               0.001081464               0.999999984               0.000174574               0.001088035               0.999999984               0.000177120               0.001103150               0.999999984               0.000179162               0.001123007               0.999999984               0.000178697               0.001144980               0.999999984               0.000174776               0.001167424               0.999999984               0.000166520               0.001189337               0.999999984               0.000153269               0.001209886               0.999999984               0.000134562               0.001228192               0.999999984               0.000110121               0.001244051               0.999999984               0.000079955               0.001257523               0.999999984               0.000044440               0.001268878               0.999999984               0.000004130               0.001278690               0.999999984              -0.000040116               0.001287652               0.999999984               0.000259000               0.001236547               0.999999984               0.000173076               0.001202976               0.999999984               0.000139135               0.001183707               0.999999984               0.000126926               0.001179043               0.999999984               0.000124455               0.001185729               0.999999984               0.000125772               0.001200481               0.999999984               0.000127494               0.001220407               0.999999984               0.000127539               0.001243506               0.999999984               0.000124821               0.001268083               0.999999984               0.000118591               0.001293011               0.999999984               0.000108370               0.001317420               0.999999984               0.000093369               0.001340596               0.999999984               0.000073094               0.001361992               0.999999984               0.000046904               0.001381414               0.999999984               0.000014388               0.001398890               0.999999984              -0.000024483               0.001414714               0.999999984              -0.000069754               0.001429391               0.999999984               0.000196506               0.001284381               0.999999984               0.000127772               0.001273968               0.999999984               0.000098229               0.001265407               0.999999984               0.000086183               0.001265488               0.999999984               0.000082429               0.001274106               0.999999984               0.000082514               0.001289702               0.999999984               0.000083489               0.001310531               0.999999984               0.000083624               0.001335043               0.999999984               0.000081812               0.001361916               0.999999984               0.000077342               0.001389956               0.999999984               0.000069752               0.001418229               0.999999984               0.000058533               0.001446212               0.999999984               0.000042777               0.001473191               0.999999984               0.000021466               0.001498788               0.999999984              -0.000006195               0.001522707               0.999999984              -0.000041152               0.001544952               0.999999984              -0.000084566               0.001565728               0.999999984               0.000132105               0.001319076               0.999999984               0.000084265               0.001327191               0.999999984               0.000062344               0.001328550               0.999999984               0.000052563               0.001333752               0.999999984               0.000048864               0.001345086               0.999999984               0.000048152               0.001362286               0.999999984               0.000048523               0.001384432               0.999999984               0.000048584               0.001410517               0.999999984               0.000047364               0.001439499               0.999999984               0.000044510               0.001470390               0.999999984               0.000039595               0.001502178               0.999999984               0.000032088               0.001534458               0.999999984               0.000021225               0.001566708               0.999999984               0.000006053               0.001598285               0.999999984              -0.000014351               0.001628649               0.999999984              -0.000041422               0.001657441               0.999999984              -0.000077064               0.001684376               0.999999984               0.000066384               0.001340190               0.999999984               0.000041853               0.001360220               0.999999984               0.000030179               0.001368549               0.999999984               0.000024698               0.001377715               0.999999984               0.000022344               0.001391349               0.999999984               0.000021713               0.001409969               0.999999984               0.000021769               0.001433244               0.999999984               0.000021819               0.001460492               0.999999984               0.000021161               0.001490946               0.999999984               0.000019775               0.001523833               0.999999984               0.000017439               0.001558287               0.999999984               0.000013680               0.001593819               0.999999984               0.000008055               0.001629977               0.999999984               0.000000127               0.001666113               0.999999984              -0.000010845               0.001701532               0.999999984              -0.000025774               0.001735694               0.999999984              -0.000046240               0.001767733               0.999999984               0.000000000               0.001347288               0.999999984              -0.000000000               0.001371436               0.999999984              -0.000000000               0.001382287               0.999999984              -0.000000000               0.001392999               0.999999984               0.000000000               0.001407564               0.999999984              -0.000000000               0.001426698               0.999999984              -0.000000000               0.001450392               0.999999984              -0.000000000               0.001478103               0.999999984              -0.000000000               0.001509027               0.999999984              -0.000000000               0.001542578               0.999999984              -0.000000000               0.001578051               0.999999984              -0.000000000               0.001614928               0.999999984               0.000000000               0.001652643               0.999999984              -0.000000000               0.001690580               0.999999984              -0.000000000               0.001728062               0.999999984               0.000000000               0.001764303               0.999999984              -0.000000000               0.001798318               0.999999984 </DataArray>
<DataArray type="Float64"                                    Name="defo"                                                      NumberOfComponents=" 3" format="ascii">
             -0.000701769               0.000000000               0.999999984              -0.000751872               0.000000000               0.999999984              -0.000773463               0.000000000               0.999999984              -0.000785285               0.000000000               0.999999984              -0.000794440               0.000000000               0.999999984              -0.000803570               0.000000000               0.999999984              -0.000813614              -0.000000000               0.999999984              -0.000824868               0.000000000               0.999999984              -0.000837307              -0.000000000               0.999999984              -0.000850759              -0.000000000               0.999999984              -0.000864846               0.000000000               0.999999984              -0.000879200               0.000000000               0.999999984              -0.000893603               0.000000000               0.999999984              -0.000907831              -0.000000000               0.999999984              -0.000921730               0.000000000               0.999999984              -0.000934787               0.000000000               0.999999984              -0.000946224               0.000000000               0.999999984              -0.000698050               0.000129700               0.999999984              -0.000744421               0.000105826               0.999999984              -0.000763645               0.000095420               0.999999984              -0.000774019               0.000092076               0.999999984              -0.000782250               0.000092229               0.999999984              -0.000790761               0.000094239               0.999999984              -0.000800311               0.000097150               0.999999984              -0.000811056               0.000100399               0.999999984              -0.000822929               0.000103569               0.999999984              -0.000835593               0.000106172               0.999999984              -0.000848758               0.000107894               0.999999984              -0.000862138               0.000108619               0.999999984              -0.000875490               0.000108211               0.999999984              -0.000888561               0.000106237               0.999999984              -0.000900884               0.000102180               0.999999984              -0.000912055               0.000095106               0.999999984              -0.000921523               0.000083877               0.999999984              -0.000686525               0.000258102               0.999999984              -0.000722003               0.000210927               0.999999984              -0.000734661               0.000191261               0.999999984              -0.000741156               0.000185337               0.999999984              -0.000746938               0.000186294               0.999999984              -0.000753850               0.000190722               0.999999984              -0.000762056               0.000196692               0.999999984              -0.000771302               0.000203102               0.999999984              -0.000781461               0.000209306               0.999999984              -0.000792183               0.000214424               0.999999984              -0.000803066               0.000217971               0.999999984              -0.000813799               0.000219578               0.999999984              -0.000824060               0.000218766               0.999999984              -0.000833337               0.000214759               0.999999984              -0.000841252               0.000206688               0.999999984              -0.000847448               0.000193598               0.999999984              -0.000851597               0.000173848               0.999999984              -0.000667519               0.000383919               0.999999984              -0.000686022               0.000314817               0.999999984              -0.000689182               0.000287781               0.999999984              -0.000690421               0.000280795               0.999999984              -0.000693252               0.000283554               0.999999984              -0.000698053               0.000290967               0.999999984              -0.000704448               0.000300218               0.999999984              -0.000711980               0.000309793               0.999999984              -0.000719960               0.000318722               0.999999984              -0.000727869               0.000326182               0.999999984              -0.000735234               0.000331352               0.999999984              -0.000741669               0.000333763               0.999999984              -0.000746722               0.000332533               0.999999984              -0.000750005               0.000326813               0.999999984              -0.000751256               0.000315981               0.999999984              -0.000750293               0.000299095               0.999999984              -0.000747313               0.000275171               0.999999984              -0.000641527               0.000506002               0.999999984              -0.000638122               0.000417311               0.999999984              -0.000630618               0.000385353               0.999999984              -0.000626766               0.000379079               0.999999984              -0.000627020               0.000384629               0.999999984              -0.000630227               0.000395397               0.999999984              -0.000635188               0.000407983               0.999999984              -0.000640846               0.000420527               0.999999984              -0.000646219               0.000431934               0.999999984              -0.000650634               0.000441195               0.999999984              -0.000653527               0.000447645               0.999999984              -0.000654474               0.000450478               0.999999984              -0.000652956               0.000448789               0.999999984              -0.000648727               0.000441931               0.999999984              -0.000641891               0.000429607               0.999999984              -0.000632806               0.000411598               0.999999984              -0.000622120               0.000388098               0.999999984              -0.000608861               0.000623253               0.999999984              -0.000580656               0.000518371               0.999999984              -0.000563412               0.000484097               0.999999984              -0.000556023               0.000479792               0.999999984              -0.000555056               0.000488631               0.999999984              -0.000557539               0.000502886               0.999999984              -0.000561310               0.000518683               0.999999984              -0.000564911               0.000533923               0.999999984              -0.000567230               0.000547294               0.999999984              -0.000567525               0.000557942               0.999999984              -0.000565117               0.000564958               0.999999984              -0.000559483               0.000567592               0.999999984              -0.000550399               0.000565176               0.999999984              -0.000538120               0.000557555               0.999999984              -0.000523190               0.000545064               0.999999984              -0.000506324               0.000528140               0.999999984              -0.000488368               0.000507889               0.999999984              -0.000570103               0.000734560               0.999999984              -0.000516816               0.000617921               0.999999984              -0.000492224               0.000583450               0.999999984              -0.000483524               0.000581782               0.999999984              -0.000482934               0.000593903               0.999999984              -0.000485353               0.000611373               0.999999984              -0.000488071               0.000629885               0.999999984              -0.000489303               0.000647277               0.999999984              -0.000487921               0.000662172               0.999999984              -0.000483245               0.000673585               0.999999984              -0.000474588               0.000680520               0.999999984              -0.000461688               0.000682409               0.999999984              -0.000444846               0.000679282               0.999999984              -0.000424680               0.000671498               0.999999984              -0.000402079               0.000659807               0.999999984              -0.000377865               0.000645136               0.999999984              -0.000352659               0.000628583               0.999999984              -0.000526241               0.000838696               0.999999984              -0.000449646               0.000715820               0.999999984              -0.000421104               0.000682531               0.999999984              -0.000413745               0.000683399               0.999999984              -0.000414568               0.000698483               0.999999984              -0.000417308               0.000718566               0.999999984              -0.000418715               0.000739227               0.999999984              -0.000417032               0.000758144               0.999999984              -0.000411275               0.000774071               0.999999984              -0.000400728               0.000785724               0.999999984              -0.000384969               0.000792056               0.999999984              -0.000364188               0.000793268               0.999999984              -0.000339159               0.000789881               0.999999984              -0.000310832               0.000782680               0.999999984              -0.000280198               0.000772654               0.999999984              -0.000247964               0.000760657               0.999999984              -0.000214822               0.000747504               0.999999984              -0.000478728               0.000933870               0.999999984              -0.000381476               0.000811938               0.999999984              -0.000353806               0.000780050               0.999999984              -0.000349377               0.000783007               0.999999984              -0.000352244               0.000800395               0.999999984              -0.000355022               0.000822650               0.999999984              -0.000354645               0.000844894               0.999999984              -0.000349473               0.000864931               0.999999984              -0.000338470               0.000881366               0.999999984              -0.000320951               0.000892713               0.999999984              -0.000296914               0.000898500               0.999999984              -0.000267248               0.000899431               0.999999984              -0.000233111               0.000896494               0.999999984              -0.000195827               0.000890767               0.999999984              -0.000156392               0.000883110               0.999999984              -0.000115731               0.000874384               0.999999984              -0.000074558               0.000865177               0.999999984              -0.000429712               0.001023654               0.999999984              -0.000325000               0.000918509               0.999999984              -0.000294132               0.000882088               0.999999984              -0.000288353               0.000878746               0.999999984              -0.000290946               0.000891146               0.999999984              -0.000294379               0.000910490               0.999999984              -0.000295384               0.000931841               0.999999984              -0.000292188               0.000952626               0.999999984              -0.000284103               0.000971436               0.999999984              -0.000270291               0.000987084               0.999999984              -0.000250124               0.000998683               0.999999984              -0.000223846               0.001006189               0.999999984              -0.000192324               0.001010134               0.999999984              -0.000156745               0.001011262               0.999999984              -0.000117983               0.001010409               0.999999984              -0.000077098               0.001008279               0.999999984              -0.000035288               0.001005447               0.999999984              -0.000376067               0.001105193               0.999999984              -0.000271440               0.001021466               0.999999984              -0.000237526               0.000986657               0.999999984              -0.000229425               0.000979549               0.999999984              -0.000230841               0.000988120               0.999999984              -0.000234204               0.001004863               0.999999984              -0.000236055               0.001025347               0.999999984              -0.000234483               0.001046668               0.999999984              -0.000228709               0.001067326               0.999999984              -0.000217965               0.001086298               0.999999984              -0.000201410               0.001102696               0.999999984              -0.000178890               0.001115934               0.999999984              -0.000150668               0.001126124               0.999999984              -0.000117422               0.001133552               0.999999984              -0.000079973               0.001138928               0.999999984              -0.000039267               0.001142881               0.999999984               0.000003519               0.001146147               0.999999984              -0.000319002               0.001176513               0.999999984              -0.000220796               0.001117615               0.999999984              -0.000185623               0.001088904               0.999999984              -0.000175001               0.001081464               0.999999984              -0.000174574               0.001088035               0.999999984              -0.000177120               0.001103150               0.999999984              -0.000179162               0.001123007               0.999999984              -0.000178697               0.001144980               0.999999984              -0.000174776               0.001167424               0.999999984              -0.000166520               0.001189337               0.999999984              -0.000153269               0.001209886               0.999999984              -0.000134562               0.001228192               0.999999984              -0.000110121               0.001244051               0.999999984              -0.000079955               0.001257523               0.999999984              -0.000044440               0.001268878               0.999999984              -0.000004130               0.001278690               0.999999984               0.000040116               0.001287652               0.999999984              -0.000259000               0.001236547               0.999999984              -0.000173076               0.001202976               0.999999984              -0.000139135               0.001183707               0.999999984              -0.000126926               0.001179043               0.999999984              -0.000124455               0.001185729               0.999999984              -0.000125772               0.001200481               0.999999984              -0.000127494               0.001220407               0.999999984              -0.000127539               0.001243506               0.999999984              -0.000124821               0.001268083               0.999999984              -0.000118591               0.001293011               0.999999984              -0.000108370               0.001317420               0.999999984              -0.000093369               0.001340596               0.999999984              -0.000073094               0.001361992               0.999999984              -0.000046904               0.001381414               0.999999984              -0.000014388               0.001398890               0.999999984               0.000024483               0.001414714               0.999999984               0.000069754               0.001429391               0.999999984              -0.000196506               0.001284381               0.999999984              -0.000127772               0.001273968               0.999999984              -0.000098229               0.001265407               0.999999984              -0.000086183               0.001265488               0.999999984              -0.000082429               0.001274106               0.999999984              -0.000082514               0.001289702               0.999999984              -0.000083489               0.001310531               0.999999984              -0.000083624               0.001335043               0.999999984              -0.000081812               0.001361916               0.999999984              -0.000077342               0.001389956               0.999999984              -0.000069752               0.001418229               0.999999984              -0.000058533               0.001446212               0.999999984              -0.000042777               0.001473191               0.999999984              -0.000021466               0.001498788               0.999999984               0.000006195               0.001522707               0.999999984               0.000041152               0.001544952               0.999999984               0.000084566               0.001565728               0.999999984              -0.000132105               0.001319076               0.999999984              -0.000084265               0.001327191               0.999999984              -0.000062344               0.001328550               0.999999984              -0.000052563               0.001333752               0.999999984              -0.000048864               0.001345086               0.999999984              -0.000048152               0.001362286               0.999999984              -0.000048523               0.001384432               0.999999984              -0.000048584               0.001410517               0.999999984              -0.000047364               0.001439499               0.999999984              -0.000044510               0.001470390               0.999999984              -0.000039595               0.001502178               0.999999984              -0.000032088               0.001534458               0.999999984              -0.000021225               0.001566708               0.999999984              -0.000006053               0.001598285               0.999999984               0.000014351               0.001628649               0.999999984               0.000041422               0.001657441               0.999999984               0.000077064               0.001684376               0.999999984              -0.000066384               0.001340190               0.999999984              -0.000041853               0.001360220               0.999999984              -0.000030179               0.001368549               0.999999984              -0.000024698               0.001377715               0.999999984              -0.000022344               0.001391349               0.999999984              -0.000021713               0.001409969               0.999999984              -0.000021769               0.001433244               0.999999984              -0.000021819               0.001460492               0.999999984              -0.000021161               0.001490946               0.999999984              -0.000019775               0.001523833               0.999999984              -0.000017439               0.001558287               0.999999984              -0.000013680               0.001593819               0.999999984              -0.000008055               0.001629977               0.999999984              -0.000000127               0.001666113               0.999999984               0.000010845               0.001701532               0.999999984               0.000025774               0.001735694               0.999999984               0.000046240               0.001767733               0.999999984               0.000000000               0.001347288               0.999999984              -0.000000000               0.001371436               0.999999984              -0.000000000               0.001382287               0.999999984              -0.000000000               0.001392999               0.999999984               0.000000000               0.001407564               0.999999984              -0.000000000               0.001426698               0.999999984              -0.000000000               0.001450392               0.999999984              -0.000000000               0.001478103               0.999999984              -0.000000000               0.001509027               0.999999984              -0.000000000               0.001542578               0.999999984              -0.000000000               0.001578051               0.999999984              -0.000000000               0.001614928               0.999999984               0.000000000               0.001652643               0.999999984              -0.000000000               0.001690580               0.999999984              -0.000000000               0.001728062               0.999999984               0.000000000               0.001764303               0.999999984              -0.000000000               0.001798318               0.999999984              -0.000701769               0.000000000               0.999999984              -0.000751872               0.000000000               0.999999984              -0.000773463               0.000000000               0.999999984              -0.000785285               0.000000000               0.999999984              -0.000794440               0.000000000               0.999999984              -0.000803570               0.000000000               0.999999984              -0.000813614              -0.000000000               0.999999984              -0.000824868               0.000000000               0.999999984              -0.000837307              -0.000000000               0.999999984              -0.000850759              -0.000000000               0.999999984              -0.000864846               0.000000000               0.999999984              -0.000879200               0.000000000               0.999999984              -0.000893603               0.000000000               0.999999984              -0.000907831              -0.000000000               0.999999984              -0.000921730               0.000000000               0.999999984              -0.000934787               0.000000000               0.999999984              -0.000946224               0.000000000               0.999999984              -0.000698050              -0.000129700               0.999999984              -0.000744421              -0.000105826               0.999999984              -0.000763645              -0.000095420               0.999999984              -0.000774019              -0.000092076               0.999999984              -0.000782250              -0.000092229               0.999999984              -0.000790761              -0.000094239               0.999999984              -0.000800311              -0.000097150               0.999999984              -0.000811056              -0.000100399               0.999999984              -0.000822929              -0.000103569               0.999999984              -0.000835593              -0.000106172               0.999999984              -0.000848758              -0.000107894               0.999999984              -0.000862138              -0.000108619               0.999999984              -0.000875490              -0.000108211               0.999999984              -0.000888561              -0.000106237               0.999999984              -0.000900884              -0.000102180               0.999999984              -0.000912055              -0.000095106               0.999999984              -0.000921523              -0.000083877               0.999999984              -0.000686525              -0.000258102               0.999999984              -0.000722003              -0.000210927               0.999999984              -0.000734661              -0.000191261               0.999999984              -0.000741156              -0.000185337               0.999999984              -0.000746938              -0.000186294               0.999999984              -0.000753850              -0.000190722               0.999999984              -0.000762056              -0.000196692               0.999999984              -0.000771302              -0.000203102               0.999999984              -0.000781461              -0.000209306               0.999999984              -0.000792183              -0.000214424               0.999999984              -0.000803066              -0.000217971               0.999999984              -0.000813799              -0.000219578               0.999999984              -0.000824060              -0.000218766               0.999999984              -0.000833337              -0.000214759               0.999999984              -0.000841252              -0.000206688               0.999999984              -0.000847448              -0.000193598               0.999999984              -0.000851597              -0.000173848               0.999999984              -0.000667519              -0.000383919               0.999999984              -0.000686022              -0.000314817               0.999999984              -0.000689182              -0.000287781               0.999999984              -0.000690421              -0.000280795               0.999999984              -0.000693252              -0.000283554               0.999999984              -0.000698053              -0.000290967               0.999999984              -0.000704448              -0.000300218               0.999999984              -0.000711980              -0.000309793               0.999999984              -0.000719960              -0.000318722               0.999999984              -0.000727869              -0.000326182               0.999999984              -0.000735234              -0.000331352               0.999999984              -0.000741669              -0.000333763               0.999999984              -0.000746722              -0.000332533               0.999999984              -0.000750005              -0.000326813               0.999999984              -0.000751256              -0.000315981               0.999999984              -0.000750293              -0.000299095               0.999999984              -0.000747313              -0.000275171               0.999999984              -0.000641527              -0.000506002               0.999999984              -0.000638122              -0.000417311               0.999999984              -0.000630618              -0.000385353               0.999999984              -0.000626766              -0.000379079               0.999999984              -0.000627020              -0.000384629               0.999999984              -0.000630227              -0.000395397               0.999999984              -0.000635188              -0.000407983               0.999999984              -0.000640846              -0.000420527               0.999999984              -0.000646219              -0.000431934               0.999999984              -0.000650634              -0.000441195               0.999999984              -0.000653527              -0.000447645               0.999999984              -0.000654474              -0.000450478               0.999999984              -0.000652956              -0.000448789               0.999999984              -0.000648727              -0.000441931               0.999999984              -0.000641891              -0.000429607               0.999999984              -0.000632806              -0.000411598               0.999999984              -0.000622120              -0.000388098               0.999999984              -0.000608861              -0.000623253               0.999999984              -0.000580656              -0.000518371               0.999999984              -0.000563412              -0.000484097               0.999999984              -0.000556023              -0.000479792               0.999999984              -0.000555056              -0.000488631               0.999999984              -0.000557539              -0.000502886               0.999999984              -0.000561310              -0.000518683               0.999999984              -0.000564911              -0.000533923               0.999999984              -0.000567230              -0.000547294               0.999999984              -0.000567525              -0.000557942               0.999999984              -0.000565117              -0.000564958               0.999999984              -0.000559483              -0.000567592               0.999999984              -0.000550399              -0.000565176               0.999999984              -0.000538120              -0.000557555               0.999999984              -0.000523190              -0.000545064               0.999999984              -0.000506324              -0.000528140               0.999999984              -0.000488368              -0.000507889               0.999999984              -0.000570103              -0.000734560               0.999999984              -0.000516816              -0.000617921               0.999999984              -0.000492224              -0.000583450               0.999999984              -0.000483524              -0.000581782               0.999999984              -0.000482934              -0.000593903               0.999999984              -0.000485353              -0.000611373               0.999999984              -0.000488071              -0.000629885               0.999999984              -0.000489303              -0.000647277               0.999999984              -0.000487921              -0.000662172               0.999999984              -0.000483245              -0.000673585               0.999999984              -0.000474588              -0.000680520               0.999999984              -0.000461688              -0.000682409               0.999999984              -0.000444846              -0.000679282               0.999999984              -0.000424680              -0.000671498               0.999999984              -0.000402079              -0.000659807               0.999999984              -0.000377865              -0.000645136               0.999999984              -0.000352659              -0.000628583               0.999999984              -0.000526241              -0.000838696               0.999999984              -0.000449646              -0.000715820               0.999999984              -0.000421104              -0.000682531               0.999999984              -0.000413745              -0.000683399               0.999999984              -0.000414568              -0.000698483               0.999999984              -0.000417308              -0.000718566               0.999999984              -0.000418715              -0.000739227               0.999999984              -0.000417032              -0.000758144               0.999999984              -0.000411275              -0.000774071               0.999999984              -0.000400728              -0.000785724               0.999999984              -0.000384969              -0.000792056               0.999999984              -0.000364188              -0.000793268               0.999999984              -0.000339159              -0.000789881               0.999999984              -0.000310832              -0.000782680               0.999999984              -0.000280198              -0.000772654               0.999999984              -0.000247964              -0.000760657               0.999999984              -0.000214822              -0.000747504               0.999999984              -0.000478728              -0.000933870               0.999999984              -0.000381476              -0.000811938               0.999999984              -0.000353806              -0.000780050               0.999999984              -0.000349377              -0.000783007               0.999999984              -0.000352244              -0.000800395               0.999999984              -0.000355022              -0.000822650               0.999999984              -0.000354645              -0.000844894               0.999999984              -0.000349473              -0.000864931               0.999999984              -0.000338470              -0.000881366               0.999999984              -0.000320951              -0.000892713               0.999999984              -0.000296914              -0.000898500               0.999999984              -0.000267248              -0.000899431               0.999999984              -0.000233111              -0.000896494               0.999999984              -0.000195827              -0.000890767               0.999999984              -0.000156392              -0.000883110               0.999999984              -0.000115731              -0.000874384               0.999999984              -0.000074558              -0.000865177               0.999999984              -0.000429712              -0.001023654               0.999999984              -0.000325000              -0.000918509               0.999999984              -0.000294132              -0.000882088               0.999999984              -0.000288353              -0.000878746               0.999999984              -0.000290946              -0.000891146               0.999999984              -0.000294379              -0.000910490               0.999999984              -0.000295384              -0.000931841               0.999999984              -0.000292188              -0.000952626               0.999999984              -0.000284103              -0.000971436               0.999999984              -0.000270291              -0.000987084               0.999999984              -0.000250124              -0.000998683               0.999999984              -0.000223846              -0.001006189               0.999999984              -0.000192324              -0.001010134               0.999999984              -0.000156745              -0.001011262               0.999999984              -0.000117983              -0.001010409               0.999999984              -0.000077098              -0.001008279               0.999999984              -0.000035288              -0.001005447               0.999999984              -0.000376067              -0.001105193               0.999999984              -0.000271440              -0.001021466               0.999999984              -0.000237526              -0.000986657               0.999999984              -0.000229425              -0.000979549               0.999999984              -0.000230841              -0.000988120               0.999999984              -0.000234204              -0.001004863               0.999999984              -0.000236055              -0.001025347               0.999999984              -0.000234483              -0.001046668               0.999999984              -0.000228709              -0.001067326               0.999999984              -0.000217965              -0.001086298               0.999999984              -0.000201410              -0.001102696               0.999999984              -0.000178890              -0.001115934               0.999999984              -0.000150668              -0.001126124               0.999999984              -0.000117422              -0.001133552               0.999999984              -0.000079973              -0.001138928               0.999999984              -0.000039267              -0.001142881               0.999999984               0.000003519              -0.001146147               0.999999984              -0.000319002              -0.001176513               0.999999984              -0.000220796              -0.001117615               0.999999984              -0.000185623              -0.001088904               0.999999984              -0.000175001              -0.001081464               0.999999984              -0.000174574              -0.001088035               0.999999984              -0.000177120              -0.001103150               0.999999984              -0.000179162              -0.001123007               0.999999984              -0.000178697              -0.001144980               0.999999984              -0.000174776              -0.001167424               0.999999984              -0.000166520              -0.001189337               0.999999984              -0.000153269              -0.001209886               0.999999984              -0.000134562              -0.001228192               0.999999984              -0.000110121              -0.001244051               0.999999984              -0.000079955              -0.001257523               0.999999984              -0.000044440              -0.001268878               0.999999984              -0.000004130              -0.001278690               0.999999984               0.000040116              -0.001287652               0.999999984              -0.000259000              -0.001236547               0.999999984              -0.000173076              -0.001202976               0.999999984              -0.000139135              -0.001183707               0.999999984              -0.000126926              -0.001179043               0.999999984              -0.000124455              -0.001185729               0.999999984              -0.000125772              -0.001200481               0.999999984              -0.000127494              -0.001220407               0.999999984              -0.000127539              -0.001243506               0.999999984              -0.000124821              -0.001268083               0.999999984              -0.000118591              -0.001293011               0.999999984              -0.000108370              -0.001317420               0.999999984              -0.000093369              -0.001340596               0.999999984              -0.000073094              -0.001361992               0.999999984              -0.000046904              -0.001381414               0.999999984              -0.000014388              -0.001398890               0.999999984               0.000024483              -0.001414714               0.999999984               0.000069754              -0.001429391               0.999999984              -0.000196506              -0.001284381               0.999999984              -0.000127772              -0.001273968               0.999999984              -0.000098229              -0.001265407               0.999999984              -0.000086183              -0.001265488               0.999999984              -0.000082429              -0.001274106               0.999999984              -0.000082514              -0.001289702               0.999999984              -0.000083489              -0.001310531               0.999999984              -0.000083624              -0.001335043               0.999999984              -0.000081812              -0.001361916               0.999999984              -0.000077342              -0.001389956               0.999999984              -0.000069752              -0.001418229               0.999999984              -0.000058533              -0.001446212               0.999999984              -0.000042777              -0.001473191               0.999999984              -0.000021466              -0.001498788               0.999999984               0.000006195              -0.001522707               0.999999984               0.000041152              -0.001544952               0.999999984               0.000084566              -0.001565728               0.999999984              -0.000132105              -0.001319076               0.999999984              -0.000084265              -0.001327191               0.999999984              -0.000062344              -0.001328550               0.999999984              -0.000052563              -0.001333752               0.999999984              -0.000048864              -0.001345086               0.999999984              -0.000048152              -0.001362286               0.999999984              -0.000048523              -0.001384432               0.999999984              -0.000048584              -0.001410517               0.999999984              -0.000047364              -0.001439499               0.999999984              -0.000044510              -0.001470390               0.999999984              -0.000039595              -0.001502178               0.999999984              -0.000032088              -0.001534458               0.999999984              -0.000021225              -0.001566708               0.999999984              -0.000006053              -0.001598285               0.999999984               0.000014351              -0.001628649               0.999999984               0.000041422              -0.001657441               0.999999984               0.000077064              -0.001684376               0.999999984              -0.000066384              -0.001340190               0.999999984              -0.000041853              -0.001360220               0.999999984              -0.000030179              -0.001368549               0.999999984              -0.000024698              -0.001377715               0.999999984              -0.000022344              -0.001391349               0.999999984              -0.000021713              -0.001409969               0.999999984              -0.000021769              -0.001433244               0.999999984              -0.000021819              -0.001460492               0.999999984              -0.000021161              -0.001490946               0.999999984              -0.000019775              -0.001523833               0.999999984              -0.000017439              -0.001558287               0.999999984              -0.000013680              -0.001593819               0.999999984              -0.000008055              -0.001629977               0.999999984              -0.000000127              -0.001666113               0.999999984               0.000010845              -0.001701532               0.999999984               0.000025774              -0.001735694               0.999999984               0.000046240              -0.001767733               0.999999984              -0.000000000              -0.001347288               0.999999984               0.000000000              -0.001371436               0.999999984              -0.000000000              -0.001382287               0.999999984              -0.000000000              -0.001392999               0.999999984              -0.000000000              -0.001407564               0.999999984               0.000000000              -0.001426698               0.999999984              -0.000000000              -0.001450392               0.999999984               0.000000000              -0.001478103               0.999999984               0.000000000              -0.001509027               0.999999984               0.000000000              -0.001542578               0.999999984              -0.000000000              -0.001578051               0.999999984              -0.000000000              -0.001614928               0.999999984               0.000000000              -0.001652643               0.999999984              -0.000000000              -0.001690580               0.999999984              -0.000000000              -0.001728062               0.999999984               0.000000000              -0.001764303               0.999999984               0.000000000              -0.001798318               0.999999984               0.000701769               0.000000000               0.999999984               0.000751872               0.000000000               0.999999984               0.000773463              -0.000000000               0.999999984               0.000785285              -0.000000000               0.999999984               0.000794440              -0.000000000               0.999999984               0.000803570               0.000000000               0.999999984               0.000813614              -0.000000000               0.999999984               0.000824868               0.000000000               0.999999984               0.000837307               0.000000000               0.999999984               0.000850759              -0.000000000               0.999999984               0.000864846              -0.000000000               0.999999984               0.000879200               0.000000000               0.999999984               0.000893603               0.000000000               0.999999984               0.000907831              -0.000000000               0.999999984               0.000921730               0.000000000               0.999999984               0.000934787               0.000000000               0.999999984               0.000946224               0.000000000               0.999999984               0.000698050              -0.000129700               0.999999984               0.000744421              -0.000105826               0.999999984               0.000763645              -0.000095420               0.999999984               0.000774019              -0.000092076               0.999999984               0.000782250              -0.000092229               0.999999984               0.000790761              -0.000094239               0.999999984               0.000800311              -0.000097150               0.999999984               0.000811056              -0.000100399               0.999999984               0.000822929              -0.000103569               0.999999984               0.000835593              -0.000106172               0.999999984               0.000848758              -0.000107894               0.999999984               0.000862138              -0.000108619               0.999999984               0.000875490              -0.000108211               0.999999984               0.000888561              -0.000106237               0.999999984               0.000900884              -0.000102180               0.999999984               0.000912055              -0.000095106               0.999999984               0.000921523              -0.000083877               0.999999984               0.000686525              -0.000258102               0.999999984               0.000722003              -0.000210927               0.999999984               0.000734661              -0.000191261               0.999999984               0.000741156              -0.000185337               0.999999984               0.000746938              -0.000186294               0.999999984               0.000753850              -0.000190722               0.999999984               0.000762056              -0.000196692               0.999999984               0.000771302              -0.000203102               0.999999984               0.000781461              -0.000209306               0.999999984               0.000792183              -0.000214424               0.999999984               0.000803066              -0.000217971               0.999999984               0.000813799              -0.000219578               0.999999984               0.000824060              -0.000218766               0.999999984               0.000833337              -0.000214759               0.999999984               0.000841252              -0.000206688               0.999999984               0.000847448              -0.000193598               0.999999984               0.000851597              -0.000173848               0.999999984               0.000667519              -0.000383919               0.999999984               0.000686022              -0.000314817               0.999999984               0.000689182              -0.000287781               0.999999984               0.000690421              -0.000280795               0.999999984               0.000693252              -0.000283554               0.999999984               0.000698053              -0.000290967               0.999999984               0.000704448              -0.000300218               0.999999984               0.000711980              -0.000309793               0.999999984               0.000719960              -0.000318722               0.999999984               0.000727869              -0.000326182               0.999999984               0.000735234              -0.000331352               0.999999984               0.000741669              -0.000333763               0.999999984               0.000746722              -0.000332533               0.999999984               0.000750005              -0.000326813               0.999999984               0.000751256              -0.000315981               0.999999984               0.000750293              -0.000299095               0.999999984               0.000747313              -0.000275171               0.999999984               0.000641527              -0.000506002               0.999999984               0.000638122              -0.000417311               0.999999984               0.000630618              -0.000385353               0.999999984               0.000626766              -0.000379079               0.999999984               0.000627020              -0.000384629               0.999999984               0.000630227              -0.000395397               0.999999984               0.000635188              -0.000407983               0.999999984               0.000640846              -0.000420527               0.999999984               0.000646219              -0.000431934               0.999999984               0.000650634              -0.000441195               0.999999984               0.000653527              -0.000447645               0.999999984               0.000654474              -0.000450478               0.999999984               0.000652956              -0.000448789               0.999999984               0.000648727              -0.000441931               0.999999984               0.000641891              -0.000429607               0.999999984               0.000632806              -0.000411598               0.999999984               0.000622120              -0.000388098               0.999999984               0.000608861              -0.000623253               0.999999984               0.000580656              -0.000518371               0.999999984               0.000563412              -0.000484097               0.999999984               0.000556023              -0.000479792               0.999999984               0.000555056              -0.000488631               0.999999984               0.000557539              -0.000502886               0.999999984               0.000561310              -0.000518683               0.999999984               0.000564911              -0.000533923               0.999999984               0.000567230              -0.000547294               0.999999984               0.000567525              -0.000557942               0.999999984               0.000565117              -0.000564958               0.999999984               0.000559483              -0.000567592               0.999999984               0.000550399              -0.000565176               0.999999984               0.000538120              -0.000557555               0.999999984               0.000523190              -0.000545064               0.999999984               0.000506324              -0.000528140               0.999999984               0.000488368              -0.000507889               0.999999984               0.000570103              -0.000734560               0.999999984               0.000516816              -0.000617921               0.999999984               0.000492224              -0.000583450               0.999999984               0.000483524              -0.000581782               0.999999984               0.000482934              -0.000593903               0.999999984               0.000485353              -0.000611373               0.999999984               0.000488071              -0.000629885               0.999999984               0.000489303              -0.000647277               0.999999984               0.000487921              -0.000662172               0.999999984               0.000483245              -0.000673585               0.999999984               0.000474588              -0.000680520               0.999999984               0.000461688              -0.000682409               0.999999984               0.000444846              -0.000679282               0.999999984               0.000424680              -0.000671498               0.999999984               0.000402079              -0.000659807               0.999999984               0.000377865              -0.000645136               0.999999984               0.000352659              -0.000628583               0.999999984               0.000526241              -0.000838696               0.999999984               0.000449646              -0.000715820               0.999999984               0.000421104              -0.000682531               0.999999984               0.000413745              -0.000683399               0.999999984               0.000414568              -0.000698483               0.999999984               0.000417308              -0.000718566               0.999999984               0.000418715              -0.000739227               0.999999984               0.000417032              -0.000758144               0.999999984               0.000411275              -0.000774071               0.999999984               0.000400728              -0.000785724               0.999999984               0.000384969              -0.000792056               0.999999984               0.000364188              -0.000793268               0.999999984               0.000339159              -0.000789881               0.999999984               0.000310832              -0.000782680               0.999999984               0.000280198              -0.000772654               0.999999984               0.000247964              -0.000760657               0.999999984               0.000214822              -0.000747504               0.999999984               0.000478728              -0.000933870               0.999999984               0.000381476              -0.000811938               0.999999984               0.000353806              -0.000780050               0.999999984               0.000349377              -0.000783007               0.999999984               0.000352244              -0.000800395               0.999999984               0.000355022              -0.000822650               0.999999984               0.000354645              -0.000844894               0.999999984               0.000349473              -0.000864931               0.999999984               0.000338470              -0.000881366               0.999999984               0.000320951              -0.000892713               0.999999984               0.000296914              -0.000898500               0.999999984               0.000267248              -0.000899431               0.999999984               0.000233111              -0.000896494               0.999999984               0.000195827              -0.000890767               0.999999984               0.000156392              -0.000883110               0.999999984               0.000115731              -0.000874384               0.999999984               0.000074558              -0.000865177               0.999999984               0.000429712              -0.001023654               0.999999984               0.000325000              -0.000918509               0.999999984               0.000294132              -0.000882088               0.999999984               0.000288353              -0.000878746               0.999999984               0.000290946              -0.000891146               0.999999984               0.000294379              -0.000910490               0.999999984               0.000295384              -0.000931841               0.999999984               0.000292188              -0.000952626               0.999999984               0.000284103              -0.000971436               0.999999984               0.000270291              -0.000987084               0.999999984               0.000250124              -0.000998683               0.999999984               0.000223846              -0.001006189               0.999999984               0.000192324              -0.001010134               0.999999984               0.000156745              -0.001011262               0.999999984               0.000117983              -0.001010409               0.999999984               0.000077098              -0.001008279               0.999999984               0.000035288              -0.001005447               0.999999984               0.000376067              -0.001105193               0.999999984               0.000271440              -0.001021466               0.999999984               0.000237526              -0.000986657               0.999999984               0.000229425              -0.000979549               0.999999984               0.000230841              -0.000988120               0.999999984               0.000234204              -0.001004863               0.999999984               0.000236055              -0.001025347               0.999999984               0.000234483              -0.001046668               0.999999984               0.000228709              -0.001067326               0.999999984               0.000217965              -0.001086298               0.999999984               0.000201410              -0.001102696               0.999999984               0.000178890              -0.001115934               0.999999984               0.000150668              -0.001126124               0.999999984               0.000117422              -0.001133552               0.999999984               0.000079973              -0.001138928               0.999999984               0.000039267              -0.001142881               0.999999984              -0.000003519              -0.001146147               0.999999984               0.000319002              -0.001176513               0.999999984               0.000220796              -0.001117615               0.999999984               0.000185623              -0.001088904               0.999999984               0.000175001              -0.001081464               0.999999984               0.000174574              -0.001088035               0.999999984               0.000177120              -0.001103150               0.999999984               0.000179162              -0.001123007               0.999999984               0.000178697              -0.001144980               0.999999984               0.000174776              -0.001167424               0.999999984               0.000166520              -0.001189337               0.999999984               0.000153269              -0.001209886               0.999999984               0.000134562              -0.001228192               0.999999984               0.000110121              -0.001244051               0.999999984               0.000079955              -0.001257523               0.999999984               0.000044440              -0.001268878               0.999999984               0.000004130              -0.001278690               0.999999984              -0.000040116              -0.001287652               0.999999984               0.000259000              -0.001236547               0.999999984               0.000173076              -0.001202976               0.999999984               0.000139135              -0.001183707               0.999999984               0.000126926              -0.001179043               0.999999984               0.000124455              -0.001185729               0.999999984               0.000125772              -0.001200481               0.999999984               0.000127494              -0.001220407               0.999999984               0.000127539              -0.001243506               0.999999984               0.000124821              -0.001268083               0.999999984               0.000118591              -0.001293011               0.999999984               0.000108370              -0.001317420               0.999999984               0.000093369              -0.001340596               0.999999984               0.000073094              -0.001361992               0.999999984               0.000046904              -0.001381414               0.999999984               0.000014388              -0.001398890               0.999999984              -0.000024483              -0.001414714               0.999999984              -0.000069754              -0.001429391               0.999999984               0.000196506              -0.001284381               0.999999984               0.000127772              -0.001273968               0.999999984               0.000098229              -0.001265407               0.999999984               0.000086183              -0.001265488               0.999999984               0.000082429              -0.001274106               0.999999984               0.000082514              -0.001289702               0.999999984               0.000083489              -0.001310531               0.999999984               0.000083624              -0.001335043               0.999999984               0.000081812              -0.001361916               0.999999984               0.000077342              -0.001389956               0.999999984               0.000069752              -0.001418229               0.999999984               0.000058533              -0.001446212               0.999999984               0.000042777              -0.001473191               0.999999984               0.000021466              -0.001498788               0.999999984              -0.000006195              -0.001522707               0.999999984              -0.000041152              -0.001544952               0.999999984              -0.000084566              -0.001565728               0.999999984               0.000132105              -0.001319076               0.999999984               0.000084265              -0.001327191               0.999999984               0.000062344              -0.001328550               0.999999984               0.000052563              -0.001333752               0.999999984               0.000048864              -0.001345086               0.999999984               0.000048152              -0.001362286               0.999999984               0.000048523              -0.001384432               0.999999984               0.000048584              -0.001410517               0.999999984               0.000047364              -0.001439499               0.999999984               0.000044510              -0.001470390               0.999999984               0.000039595              -0.001502178               0.999999984               0.000032088              -0.001534458               0.999999984               0.000021225              -0.001566708               0.999999984               0.000006053              -0.001598285               0.999999984              -0.000014351              -0.001628649               0.999999984              -0.000041422              -0.001657441               0.999999984              -0.000077064              -0.001684376               0.999999984               0.000066384              -0.001340190               0.999999984               0.000041853              -0.001360220               0.999999984               0.000030179              -0.001368549               0.999999984               0.000024698              -0.001377715               0.999999984               0.000022344              -0.001391349               0.999999984               0.000021713              -0.001409969               0.999999984               0.000021769              -0.001433244               0.999999984               0.000021819              -0.001460492               0.999999984               0.000021161              -0.001490946               0.999999984               0.000019775              -0.001523833               0.999999984               0.000017439              -0.001558287               0.999999984               0.000013680              -0.001593819               0.999999984               0.000008055              -0.001629977               0.999999984               0.000000127              -0.001666113               0.999999984              -0.000010845              -0.001701532               0.999999984              -0.000025774              -0.001735694               0.999999984              -0.000046240              -0.001767733               0.999999984              -0.000000000              -0.001347288               0.999999984               0.000000000              -0.001371436               0.999999984              -0.000000000              -0.001382287               0.999999984              -0.000000000              -0.001392999               0.999999984              -0.000000000              -0.001407564               0.999999984               0.000000000              -0.001426698               0.999999984              -0.000000000              -0.001450392               0.999999984               0.000000000              -0.001478103               0.999999984               0.000000000              -0.001509027               0.999999984               0.000000000              -0.001542578               0.999999984              -0.000000000              -0.001578051               0.999999984              -0.000000000              -0.001614928               0.999999984               0.000000000              -0.001652643               0.999999984              -0.000000000              -0.001690580               0.999999984              -0.000000000              -0.001728062               0.999999984               0.000000000              -0.001764303               0.999999984               0.000000000              -0.001798318               0.999999984               0.000701769               0.000000000               0.999999984               0.000751872               0.000000000               0.999999984               0.000773463              -0.000000000               0.999999984               0.000785285              -0.000000000               0.999999984               0.000794440              -0.000000000               0.999999984               0.000803570               0.000000000               0.999999984               0.000813614              -0.000000000               0.999999984               0.000824868               0.000000000               0.999999984               0.000837307               0.000000000               0.999999984               0.000850759              -0.000000000               0.999999984               0.000864846              -0.000000000               0.999999984               0.000879200               0.000000000               0.999999984               0.000893603               0.000000000               0.999999984               0.000907831              -0.000000000               0.999999984               0.000921730               0.000000000               0.999999984               0.000934787               0.000000000               0.999999984               0.000946224               0.000000000               0.999999984               0.000698050               0.000129700               0.999999984               0.000744421               0.000105826               0.999999984               0.000763645               0.000095420               0.999999984               0.000774019               0.000092076               0.999999984               0.000782250               0.000092229               0.999999984               0.000790761               0.000094239               0.999999984               0.000800311               0.000097150               0.999999984               0.000811056               0.000100399               0.999999984               0.000822929               0.000103569               0.999999984               0.000835593               0.000106172               0.999999984               0.000848758               0.000107894               0.999999984               0.000862138               0.000108619               0.999999984               0.000875490               0.000108211               0.999999984               0.000888561               0.000106237               0.999999984               0.000900884               0.000102180               0.999999984               0.000912055               0.000095106               0.999999984               0.000921523               0.000083877               0.999999984               0.000686525               0.000258102               0.999999984               0.000722003               0.000210927               0.999999984               0.000734661               0.000191261               0.999999984               0.000741156               0.000185337               0.999999984               0.000746938               0.000186294               0.999999984               0.000753850               0.000190722               0.999999984               0.000762056               0.000196692               0.999999984               0.000771302               0.000203102               0.999999984               0.000781461               0.000209306               0.999999984               0.000792183               0.000214424               0.999999984               0.000803066               0.000217971               0.999999984               0.000813799               0.000219578               0.999999984               0.000824060               0.000218766               0.999999984               0.000833337               0.000214759               0.999999984               0.000841252               0.000206688               0.999999984               0.000847448               0.000193598               0.999999984               0.000851597               0.000173848               0.999999984               0.000667519               0.000383919               0.999999984               0.000686022               0.000314817               0.999999984               0.000689182               0.000287781               0.999999984               0.000690421               0.000280795               0.999999984               0.000693252               0.000283554               0.999999984               0.000698053               0.000290967               0.999999984               0.000704448               0.000300218               0.999999984               0.000711980               0.000309793               0.999999984               0.000719960               0.000318722               0.999999984               0.000727869               0.000326182               0.999999984               0.000735234               0.000331352               0.999999984               0.000741669               0.000333763               0.999999984               0.000746722               0.000332533               0.999999984               0.000750005               0.000326813               0.999999984               0.000751256               0.000315981               0.999999984               0.000750293               0.000299095               0.999999984               0.000747313               0.000275171               0.999999984               0.000641527               0.000506002               0.999999984               0.000638122               0.000417311               0.999999984               0.000630618               0.000385353               0.999999984               0.000626766               0.000379079               0.999999984               0.000627020               0.000384629               0.999999984               0.000630227               0.000395397               0.999999984               0.000635188               0.000407983               0.999999984               0.000640846               0.000420527               0.999999984               0.000646219               0.000431934               0.999999984               0.000650634               0.000441195               0.999999984               0.000653527               0.000447645               0.999999984               0.000654474               0.000450478               0.999999984               0.000652956               0.000448789               0.999999984               0.000648727               0.000441931               0.999999984               0.000641891               0.000429607               0.999999984               0.000632806               0.000411598               0.999999984               0.000622120               0.000388098               0.999999984               0.000608861               0.000623253               0.999999984               0.000580656               0.000518371               0.999999984               0.000563412               0.000484097               0.999999984               0.000556023               0.000479792               0.999999984               0.000555056               0.000488631               0.999999984               0.000557539               0.000502886               0.999999984               0.000561310               0.000518683               0.999999984               0.000564911               0.000533923               0.999999984               0.000567230               0.000547294               0.999999984               0.000567525               0.000557942               0.999999984               0.000565117               0.000564958               0.999999984               0.000559483               0.000567592               0.999999984               0.000550399               0.000565176               0.999999984               0.000538120               0.000557555               0.999999984               0.000523190               0.000545064               0.999999984               0.000506324               0.000528140               0.999999984               0.000488368               0.000507889               0.999999984               0.000570103               0.000734560               0.999999984               0.000516816               0.000617921               0.999999984               0.000492224               0.000583450               0.999999984               0.000483524               0.000581782               0.999999984               0.000482934               0.000593903               0.999999984               0.000485353               0.000611373               0.999999984               0.000488071               0.000629885               0.999999984               0.000489303               0.000647277               0.999999984               0.000487921               0.000662172               0.999999984               0.000483245               0.000673585               0.999999984               0.000474588               0.000680520               0.999999984               0.000461688               0.000682409               0.999999984               0.000444846               0.000679282               0.999999984               0.000424680               0.000671498               0.999999984               0.000402079               0.000659807               0.999999984               0.000377865               0.000645136               0.999999984               0.000352659               0.000628583               0.999999984               0.000526241               0.000838696               0.999999984               0.000449646               0.000715820               0.999999984               0.000421104               0.000682531               0.999999984               0.000413745               0.000683399               0.999999984               0.000414568               0.000698483               0.999999984               0.000417308               0.000718566               0.999999984               0.000418715               0.000739227               0.999999984               0.000417032               0.000758144               0.999999984               0.000411275               0.000774071               0.999999984               0.000400728               0.000785724               0.999999984               0.000384969               0.000792056               0.999999984               0.000364188               0.000793268               0.999999984               0.000339159               0.000789881               0.999999984               0.000310832               0.000782680               0.999999984               0.000280198               0.000772654               0.999999984               0.000247964               0.000760657               0.999999984               0.000214822               0.000747504               0.999999984               0.000478728               0.000933870               0.999999984               0.000381476               0.000811938               0.999999984               0.000353806               0.000780050               0.999999984               0.000349377               0.000783007               0.999999984               0.000352244               0.000800395               0.999999984               0.000355022               0.000822650               0.999999984               0.000354645               0.000844894               0.999999984               0.000349473               0.000864931               0.999999984               0.000338470               0.000881366               0.999999984               0.000320951               0.000892713               0.999999984               0.000296914               0.000898500               0.999999984               0.000267248               0.000899431               0.999999984               0.000233111               0.000896494               0.999999984               0.000195827               0.000890767               0.999999984               0.000156392               0.000883110               0.999999984               0.000115731               0.000874384               0.999999984               0.000074558               0.000865177               0.999999984               0.000429712               0.001023654               0.999999984               0.000325000               0.000918509               0.999999984               0.000294132               0.000882088               0.999999984               0.000288353               0.000878746               0.999999984               0.000290946               0.000891146               0.999999984               0.000294379               0.000910490               0.999999984               0.000295384               0.000931841               0.999999984               0.000292188               0.000952626               0.999999984               0.000284103               0.000971436               0.999999984               0.000270291               0.000987084               0.999999984               0.000250124               0.000998683               0.999999984               0.000223846               0.001006189               0.999999984               0.000192324               0.001010134               0.999999984               0.000156745               0.001011262               0.999999984               0.000117983               0.001010409               0.999999984               0.000077098               0.001008279               0.999999984               0.000035288               0.001005447               0.999999984               0.000376067               0.001105193               0.999999984               0.000271440               0.001021466               0.999999984               0.000237526               0.000986657               0.999999984               0.000229425               0.000979549               0.999999984               0.000230841               0.000988120               0.999999984               0.000234204               0.001004863               0.999999984               0.000236055               0.001025347               0.999999984               0.000234483               0.001046668               0.999999984               0.000228709               0.001067326               0.999999984               0.000217965               0.001086298               0.999999984               0.000201410               0.001102696               0.999999984               0.000178890               0.001115934               0.999999984               0.000150668               0.001126124               0.999999984               0.000117422               0.001133552               0.999999984               0.000079973               0.001138928               0.999999984               0.000039267               0.001142881               0.999999984              -0.000003519               0.001146147               0.999999984               0.000319002               0.001176513               0.999999984               0.000220796               0.001117615               0.999999984               0.000185623               0.001088904               0.999999984               0.000175001               0.001081464               0.999999984               0.000174574               0.001088035               0.999999984               0.000177120               0.001103150               0.999999984               0.000179162               0.001123007               0.999999984               0.000178697               0.001144980               0.999999984               0.000174776               0.001167424               0.999999984               0.000166520               0.001189337               0.999999984               0.000153269               0.001209886               0.999999984               0.000134562               0.001228192               0.999999984               0.000110121               0.001244051               0.999999984               0.000079955               0.001257523               0.999999984               0.000044440               0.001268878               0.999999984               0.000004130               0.001278690               0.999999984              -0.000040116               0.001287652               0.999999984               0.000259000               0.001236547               0.999999984               0.000173076               0.001202976               0.999999984               0.000139135               0.001183707               0.999999984               0.000126926               0.001179043               0.999999984               0.000124455               0.001185729               0.999999984               0.000125772               0.001200481               0.999999984               0.000127494               0.001220407               0.999999984               0.000127539               0.001243506               0.999999984               0.000124821               0.001268083               0.999999984               0.000118591               0.001293011               0.999999984               0.000108370               0.001317420               0.999999984               0.000093369               0.001340596               0.999999984               0.000073094               0.001361992               0.999999984               0.000046904               0.001381414               0.999999984               0.000014388               0.001398890               0.999999984              -0.000024483               0.001414714               0.999999984              -0.000069754               0.001429391               0.999999984               0.000196506               0.001284381               0.999999984               0.000127772               0.001273968               0.999999984               0.000098229               0.001265407               0.999999984               0.000086183               0.001265488               0.999999984               0.000082429               0.001274106               0.999999984               0.000082514               0.001289702               0.999999984               0.000083489               0.001310531               0.999999984               0.000083624               0.001335043               0.999999984               0.000081812               0.001361916               0.999999984               0.000077342               0.001389956               0.999999984               0.000069752               0.001418229               0.999999984               0.000058533               0.001446212               0.999999984               0.000042777               0.001473191               0.999999984               0.000021466               0.001498788               0.999999984              -0.000006195               0.001522707               0.999999984              -0.000041152               0.001544952               0.999999984              -0.000084566               0.001565728               0.999999984               0.000132105               0.001319076               0.999999984               0.000084265               0.001327191               0.999999984               0.000062344               0.001328550               0.999999984               0.000052563               0.001333752               0.999999984               0.000048864               0.001345086               0.999999984               0.000048152               0.001362286               0.999999984               0.000048523               0.001384432               0.999999984               0.000048584               0.001410517               0.999999984               0.000047364               0.001439499               0.999999984               0.000044510               0.001470390               0.999999984               0.000039595               0.001502178               0.999999984               0.000032088               0.001534458               0.999999984               0.000021225               0.001566708               0.999999984               0.000006053               0.001598285               0.999999984              -0.000014351               0.001628649               0.999999984              -0.000041422               0.001657441               0.999999984              -0.000077064               0.001684376               0.999999984               0.000066384               0.001340190               0.999999984               0.000041853               0.001360220               0.999999984               0.000030179               0.001368549               0.999999984               0.000024698               0.001377715               0.999999984               0.000022344               0.001391349               0.999999984               0.000021713               0.001409969               0.999999984               0.000021769               0.001433244               0.999999984               0.000021819               0.001460492               0.999999984               0.000021161               0.001490946               0.999999984               0.000019775               0.001523833               0.999999984               0.000017439               0.001558287               0.999999984               0.000013680               0.001593819               0.999999984               0.000008055               0.001629977               0.999999984               0.000000127               0.001666113               0.999999984              -0.000010845               0.001701532               0.999999984              -0.000025774               0.001735694               0.999999984              -0.000046240               0.001767733               0.999999984               0.000000000               0.001347288               0.999999984              -0.000000000               0.001371436               0.999999984              -0.000000000               0.001382287               0.999999984              -0.000000000               0.001392999               0.999999984               0.000000000               0.001407564               0.999999984              -0.000000000               0.001426698               0.999999984              -0.000000000               0.001450392               0.999999984              -0.000000000               0.001478103               0.999999984              -0.000000000               0.001509027               0.999999984              -0.000000000               0.001542578               0.999999984              -0.000000000               0.001578051               0.999999984              -0.000000000               0.001614928               0.999999984               0.000000000               0.001652643               0.999999984              -0.000000000               0.001690580               0.999999984              -0.000000000               0.001728062               0.999999984               0.000000000               0.001764303               0.999999984              -0.000000000               0.001798318               0.999999984 </DataArray>
<DataArray type="Float64"                                    Name="stress"                                                      NumberOfComponents="10" format="ascii">
              0.002200733               0.023725401              -0.000000000              -0.002140395               0.008621853               0.006481458               0.000000000               0.000000000               0.000000000               0.000000000               0.002191969               0.018545226              -0.000000000              -0.001496161               0.006680401               0.005184239               0.000000000               0.000000000               0.000000000               0.000000000               0.002884119               0.014338978               0.000000000              -0.000710826               0.005016553               0.004305728               0.000000000               0.000000000               0.000000000               0.000000000               0.002770413               0.011985491              -0.000000000              -0.000459280               0.004148217               0.003688937               0.000000000               0.000000000               0.000000000               0.000000000               0.002415230               0.010512203               0.000000000              -0.000408313               0.003640137               0.003231824               0.000000000               0.000000000               0.000000000               0.000000000               0.002020184               0.009502517               0.000000000              -0.000430245               0.003310889               0.002880644               0.000000000               0.000000000               0.000000000               0.000000000               0.001647794               0.008753123              -0.000000000              -0.000476216               0.003076417               0.002600201               0.000000000               0.000000000               0.000000000               0.000000000               0.001313776               0.008155457              -0.000000000              -0.000526765               0.002894047               0.002367282               0.000000000               0.000000000               0.000000000               0.000000000               0.001023976               0.007645523              -0.000000000              -0.000571698               0.002739048               0.002167350               0.000000000               0.000000000               0.000000000               0.000000000               0.000781182               0.007178534               0.000000000              -0.000604372               0.002594278               0.001989906               0.000000000               0.000000000               0.000000000               0.000000000               0.000583823               0.006729536               0.000000000              -0.000622257               0.002450575               0.001828318               0.000000000               0.000000000               0.000000000               0.000000000               0.000420609               0.006285616              -0.000000000              -0.000627972               0.002304508               0.001676536               0.000000000               0.000000000               0.000000000               0.000000000               0.000281575               0.005834872              -0.000000000              -0.000623767               0.002152860               0.001529094               0.000000000               0.000000000               0.000000000               0.000000000               0.000162244               0.005358549               0.000000000              -0.000608976               0.001989157               0.001380181               0.000000000               0.000000000               0.000000000               0.000000000               0.000070143               0.004837351               0.000000000              -0.000578364               0.001805222               0.001226858               0.000000000               0.000000000               0.000000000               0.000000000               0.000022565               0.004245146              -0.000000000              -0.000522180               0.001589094               0.001066914               0.000000000               0.000000000               0.000000000               0.000000000              -0.000036487               0.003788873               0.000000000              -0.000487291               0.001425375               0.000938085               0.000000000               0.000000000               0.000000000               0.000000000               0.002278186               0.023232331              -0.001624380              -0.002049717               0.008427272               0.006377555               0.000000000               0.000000000               0.000000000               0.000000000               0.002146931               0.018220870              -0.000811803              -0.001472506               0.006564398               0.005091892               0.000000000               0.000000000               0.000000000               0.000000000               0.002707194               0.014193746              -0.000001024              -0.000759019               0.004984207               0.004225189               0.000000000               0.000000000               0.000000000               0.000000000               0.002539810               0.011926528               0.000339089              -0.000538386               0.004154932               0.003616546               0.000000000               0.000000000               0.000000000               0.000000000               0.002170743               0.010498746               0.000472764              -0.000498313               0.003665651               0.003167338               0.000000000               0.000000000               0.000000000               0.000000000               0.001781517               0.009511552               0.000515423              -0.000520874               0.003344110               0.002823236               0.000000000               0.000000000               0.000000000               0.000000000               0.001427128               0.008770072               0.000518363              -0.000561085               0.003110356               0.002549272               0.000000000               0.000000000               0.000000000               0.000000000               0.001113399               0.008170870               0.000505642              -0.000603833               0.002924874               0.002321041               0.000000000               0.000000000               0.000000000               0.000000000               0.000846466               0.007658204               0.000481680              -0.000639849               0.002765992               0.002126143               0.000000000               0.000000000               0.000000000               0.000000000               0.000627576               0.007191632               0.000449951              -0.000663612               0.002618391               0.001954779               0.000000000               0.000000000               0.000000000               0.000000000               0.000448556               0.006746522               0.000416909              -0.000675105               0.002473853               0.001798748               0.000000000               0.000000000               0.000000000               0.000000000               0.000300712               0.006307036               0.000383820              -0.000675611               0.002327528               0.001651917               0.000000000               0.000000000               0.000000000               0.000000000               0.000178717               0.005858745               0.000345087              -0.000665323               0.002174670               0.001509347               0.000000000               0.000000000               0.000000000               0.000000000               0.000085817               0.005387236               0.000295801              -0.000641222               0.002009468               0.001368246               0.000000000               0.000000000               0.000000000               0.000000000               0.000024734               0.004878501               0.000228772              -0.000600536               0.001826329               0.001225793               0.000000000               0.000000000               0.000000000               0.000000000               0.000000663               0.004318346               0.000130359              -0.000539544               0.001619282               0.001079739               0.000000000               0.000000000               0.000000000               0.000000000              -0.000046031               0.003897744               0.000082125              -0.000504478               0.001467395               0.000962916               0.000000000               0.000000000               0.000000000               0.000000000               0.002463110               0.021820314              -0.003010609              -0.001803870               0.007874655               0.006070785               0.000000000               0.000000000               0.000000000               0.000000000               0.001997242               0.017301231              -0.001502326              -0.001413685               0.006238248               0.004824563               0.000000000               0.000000000               0.000000000               0.000000000               0.002195358               0.013779573              -0.000011337              -0.000899185               0.004892873               0.003993688               0.000000000               0.000000000               0.000000000               0.000000000               0.001894681               0.011760902               0.000595243              -0.000759606               0.004173463               0.003413858               0.000000000               0.000000000               0.000000000               0.000000000               0.001501631               0.010458452               0.000825876              -0.000744193               0.003734180               0.002989987               0.000000000               0.000000000               0.000000000               0.000000000               0.001137764               0.009530231               0.000895297              -0.000764616               0.003431584               0.002666968               0.000000000               0.000000000               0.000000000               0.000000000               0.000837651               0.008811912               0.000894923              -0.000787368               0.003199731               0.002412362               0.000000000               0.000000000               0.000000000               0.000000000               0.000588529               0.008215663               0.000866615              -0.000806258               0.003007280               0.002201022               0.000000000               0.000000000               0.000000000               0.000000000               0.000382001               0.007694765               0.000822632              -0.000818593               0.002837760               0.002019167               0.000000000               0.000000000               0.000000000               0.000000000               0.000221614               0.007224963               0.000766972              -0.000820013               0.002681635               0.001861621               0.000000000               0.000000000               0.000000000               0.000000000               0.000098323               0.006783521               0.000708968              -0.000811067               0.002531507               0.001720440               0.000000000               0.000000000               0.000000000               0.000000000               0.000004449               0.006352784               0.000648245              -0.000792428               0.002381716               0.001589288               0.000000000               0.000000000               0.000000000               0.000000000              -0.000056619               0.005917331               0.000576868              -0.000760897               0.002226056               0.001465159               0.000000000               0.000000000               0.000000000               0.000000000              -0.000083399               0.005470387               0.000487734              -0.000715071               0.002061801               0.001346730               0.000000000               0.000000000               0.000000000               0.000000000              -0.000079552               0.005011863               0.000372262              -0.000656313               0.001889375               0.001233062               0.000000000               0.000000000               0.000000000               0.000000000              -0.000046344               0.004545491               0.000211063              -0.000585564               0.001710337               0.001124773               0.000000000               0.000000000               0.000000000               0.000000000              -0.000058592               0.004219533               0.000130791              -0.000549412               0.001589634               0.001040222               0.000000000               0.000000000               0.000000000               0.000000000               0.002643166               0.019682964              -0.004001927              -0.001469182               0.007050649               0.005581467               0.000000000               0.000000000               0.000000000               0.000000000               0.001712690               0.015933366              -0.002004666              -0.001349410               0.005760872               0.004411462               0.000000000               0.000000000               0.000000000               0.000000000               0.001412790               0.013172999              -0.000056358              -0.001116826               0.004763231               0.003646405               0.000000000               0.000000000               0.000000000               0.000000000               0.000957747               0.011518344               0.000696964              -0.001080635               0.004199621               0.003118986               0.000000000               0.000000000               0.000000000               0.000000000               0.000566474               0.010388600               0.000967754              -0.001086145               0.003824880               0.002738736               0.000000000               0.000000000               0.000000000               0.000000000               0.000269319               0.009536512               0.001039643              -0.001091067               0.003542495               0.002451428               0.000000000               0.000000000               0.000000000               0.000000000               0.000049920               0.008844684               0.001028399              -0.001086863               0.003310486               0.002223623               0.000000000               0.000000000               0.000000000               0.000000000              -0.000104941               0.008254267               0.000986211              -0.001071134               0.003108439               0.002037305               0.000000000               0.000000000               0.000000000               0.000000000              -0.000208774               0.007730780               0.000932428              -0.001044635               0.002925113               0.001880477               0.000000000               0.000000000               0.000000000               0.000000000              -0.000273257               0.007255399               0.000869997              -0.001009394               0.002754907               0.001745513               0.000000000               0.000000000               0.000000000               0.000000000              -0.000305844               0.006814114               0.000803454              -0.000966453               0.002593500               0.001627046               0.000000000               0.000000000               0.000000000               0.000000000              -0.000309130               0.006391571               0.000729114              -0.000914868               0.002435458               0.001520590               0.000000000               0.000000000               0.000000000               0.000000000              -0.000282629               0.005978176               0.000638963              -0.000853256               0.002277124               0.001423868               0.000000000               0.000000000               0.000000000               0.000000000              -0.000232123               0.005576336               0.000531220              -0.000784086               0.002120122               0.001336036               0.000000000               0.000000000               0.000000000               0.000000000              -0.000161393               0.005197670               0.000396599              -0.000710230               0.001969283               0.001259053               0.000000000               0.000000000               0.000000000               0.000000000              -0.000080993               0.004857071               0.000218882              -0.000637505               0.001831509               0.001194004               0.000000000               0.000000000               0.000000000               0.000000000              -0.000063269               0.004649137               0.000129951              -0.000604867               0.001751319               0.001146452               0.000000000               0.000000000               0.000000000               0.000000000               0.002691145               0.017084730              -0.004502838              -0.001126412               0.006070323               0.004943911               0.000000000               0.000000000               0.000000000               0.000000000               0.001269010               0.014303184              -0.002286817              -0.001312017               0.005205019               0.003893002               0.000000000               0.000000000               0.000000000               0.000000000               0.000449427               0.012458744              -0.000161090              -0.001388805               0.004615808               0.003227003               0.000000000               0.000000000               0.000000000               0.000000000              -0.000108269               0.011203074               0.000610328              -0.001440981               0.004214648               0.002773666               0.000000000               0.000000000               0.000000000               0.000000000              -0.000447089               0.010248731               0.000869198              -0.001448746               0.003899125               0.002450379               0.000000000               0.000000000               0.000000000               0.000000000              -0.000636927               0.009473530               0.000928190              -0.001423036               0.003632157               0.002209121               0.000000000               0.000000000               0.000000000               0.000000000              -0.000734885               0.008814215               0.000911936              -0.001377355               0.003397161               0.002019805               0.000000000               0.000000000               0.000000000               0.000000000              -0.000766803               0.008235547               0.000872875              -0.001316992               0.003184152               0.001867161               0.000000000               0.000000000               0.000000000               0.000000000              -0.000751138               0.007713745               0.000825866              -0.001245892               0.002986520               0.001740628               0.000000000               0.000000000               0.000000000               0.000000000              -0.000702761               0.007235849               0.000772791              -0.001168014               0.002801264               0.001633250               0.000000000               0.000000000               0.000000000               0.000000000              -0.000629592               0.006791801               0.000713784              -0.001085070               0.002625601               0.001540531               0.000000000               0.000000000               0.000000000               0.000000000              -0.000532771               0.006373183               0.000642219              -0.000996435               0.002456518               0.001460083               0.000000000               0.000000000               0.000000000               0.000000000              -0.000414940               0.005983477               0.000553020              -0.000903535               0.002295651               0.001392116               0.000000000               0.000000000               0.000000000               0.000000000              -0.000292537               0.005631974               0.000447230              -0.000813696               0.002148538               0.001334842               0.000000000               0.000000000               0.000000000               0.000000000              -0.000177482               0.005333134               0.000320238              -0.000733196               0.002022092               0.001288896               0.000000000               0.000000000               0.000000000               0.000000000              -0.000081193               0.005107316               0.000168903              -0.000668860               0.001925375               0.001256515               0.000000000               0.000000000               0.000000000               0.000000000              -0.000049592               0.004998185               0.000094364              -0.000643368               0.001880501               0.001237133               0.000000000               0.000000000               0.000000000               0.000000000               0.002475829               0.014282531              -0.004525166              -0.000856882               0.005046423               0.004189540               0.000000000               0.000000000               0.000000000               0.000000000               0.000666174               0.012576623              -0.002385834              -0.001322261               0.004632919               0.003310658               0.000000000               0.000000000               0.000000000               0.000000000              -0.000582026               0.011678245              -0.000358995              -0.001678036               0.004452055               0.002774018               0.000000000               0.000000000               0.000000000               0.000000000              -0.001149071               0.010791504               0.000335461              -0.001779835               0.004190411               0.002410575               0.000000000               0.000000000               0.000000000               0.000000000              -0.001367503               0.009994048               0.000561898              -0.001762065               0.003918671               0.002156606               0.000000000               0.000000000               0.000000000               0.000000000              -0.001407934               0.009292127               0.000619611              -0.001689487               0.003660507               0.001971020               0.000000000               0.000000000               0.000000000               0.000000000              -0.001360247               0.008666645               0.000619036              -0.001593419               0.003419993               0.001826573               0.000000000               0.000000000               0.000000000               0.000000000              -0.001261975               0.008103460               0.000601015              -0.001486169               0.003196516               0.001710347               0.000000000               0.000000000               0.000000000               0.000000000              -0.001132907               0.007588466               0.000577149              -0.001373395               0.002987262               0.001613867               0.000000000               0.000000000               0.000000000               0.000000000              -0.000979189               0.007113763               0.000545822              -0.001256413               0.002790035               0.001533622               0.000000000               0.000000000               0.000000000               0.000000000              -0.000804915               0.006669524               0.000504956              -0.001135531               0.002601663               0.001466132               0.000000000               0.000000000               0.000000000               0.000000000              -0.000620034               0.006258169               0.000450299              -0.001014781               0.002424296               0.001409515               0.000000000               0.000000000               0.000000000               0.000000000              -0.000438237               0.005894524               0.000377683              -0.000901152               0.002265206               0.001364054               0.000000000               0.000000000               0.000000000               0.000000000              -0.000278329               0.005591102               0.000291402              -0.000803259               0.002131435               0.001328176               0.000000000               0.000000000               0.000000000               0.000000000              -0.000150031               0.005359282               0.000193190              -0.000726170               0.002028466               0.001302296               0.000000000               0.000000000               0.000000000               0.000000000              -0.000060320               0.005208334               0.000091937              -0.000673660               0.001960647               0.001286987               0.000000000               0.000000000               0.000000000               0.000000000              -0.000031722               0.005146672               0.000046728              -0.000655228               0.001933949               0.001278721               0.000000000               0.000000000               0.000000000               0.000000000               0.001926591               0.011501936              -0.004158670              -0.000715273               0.004072363               0.003357091               0.000000000               0.000000000               0.000000000               0.000000000              -0.000064594               0.010887426              -0.002360574              -0.001385149               0.004090822               0.002705672               0.000000000               0.000000000               0.000000000               0.000000000              -0.001563999               0.010858007              -0.000654501              -0.001943746               0.004267215               0.002323469               0.000000000               0.000000000               0.000000000               0.000000000              -0.002029789               0.010282301              -0.000081680              -0.002046453               0.004109550               0.002063097               0.000000000               0.000000000               0.000000000               0.000000000              -0.002074536               0.009621656               0.000125722              -0.001980653               0.003867404               0.001886751               0.000000000               0.000000000               0.000000000               0.000000000              -0.001946402               0.008983508               0.000205859              -0.001852835               0.003612084               0.001759250               0.000000000               0.000000000               0.000000000               0.000000000              -0.001755547               0.008389329               0.000241797              -0.001706992               0.003365412               0.001658420               0.000000000               0.000000000               0.000000000               0.000000000              -0.001536565               0.007844927               0.000262951              -0.001556824               0.003133891               0.001577067               0.000000000               0.000000000               0.000000000               0.000000000              -0.001306025               0.007346353               0.000272900              -0.001408050               0.002918110               0.001510060               0.000000000               0.000000000               0.000000000               0.000000000              -0.001066240               0.006880552               0.000269434              -0.001259906               0.002713463               0.001453557               0.000000000               0.000000000               0.000000000               0.000000000              -0.000819640               0.006445930               0.000252500              -0.001113103               0.002519656               0.001406553               0.000000000               0.000000000               0.000000000               0.000000000              -0.000585183               0.006058318               0.000222741              -0.000976731               0.002344996               0.001368265               0.000000000               0.000000000               0.000000000               0.000000000              -0.000379563               0.005734707               0.000178930              -0.000859172               0.002197941               0.001338768               0.000000000               0.000000000               0.000000000               0.000000000              -0.000217884               0.005481864               0.000126173              -0.000766938               0.002082916               0.001315978               0.000000000               0.000000000               0.000000000               0.000000000              -0.000105289               0.005299638               0.000072011              -0.000701936               0.002000507               0.001298571               0.000000000               0.000000000               0.000000000               0.000000000              -0.000037213               0.005182637               0.000027078              -0.000661783               0.001948123               0.001286340               0.000000000               0.000000000               0.000000000               0.000000000              -0.000022393               0.005128125               0.000013699              -0.000649411               0.001925828               0.001276417               0.000000000               0.000000000               0.000000000               0.000000000               0.001080908               0.008925337              -0.003501368              -0.000710328               0.003211858               0.002501529               0.000000000               0.000000000               0.000000000               0.000000000              -0.000881421               0.009333609              -0.002257342              -0.001497232               0.003610248               0.002113017               0.000000000               0.000000000               0.000000000               0.000000000              -0.002403784               0.010016618              -0.001035710              -0.002153491               0.004056669               0.001903178               0.000000000               0.000000000               0.000000000               0.000000000              -0.002666844               0.009692696              -0.000573667              -0.002211648               0.003968082               0.001756434               0.000000000               0.000000000               0.000000000               0.000000000              -0.002514532               0.009151938              -0.000352998              -0.002086937               0.003746261               0.001659324               0.000000000               0.000000000               0.000000000               0.000000000              -0.002231181               0.008576791              -0.000227689              -0.001908787               0.003495164               0.001586377               0.000000000               0.000000000               0.000000000               0.000000000              -0.001916306               0.008020328              -0.000141020              -0.001721151               0.003247133               0.001525982               0.000000000               0.000000000               0.000000000               0.000000000              -0.001597026               0.007504204              -0.000072817              -0.001536906               0.003013678               0.001476772               0.000000000               0.000000000               0.000000000               0.000000000              -0.001283135               0.007026781              -0.000023099              -0.001359520               0.002795410               0.001435890               0.000000000               0.000000000               0.000000000               0.000000000              -0.000980741               0.006576813               0.000005319              -0.001189877               0.002588875               0.001398998               0.000000000               0.000000000               0.000000000               0.000000000              -0.000699195               0.006168565               0.000020099              -0.001033266               0.002400590               0.001367324               0.000000000               0.000000000               0.000000000               0.000000000              -0.000457213               0.005823109               0.000026115              -0.000899341               0.002240797               0.001341456               0.000000000               0.000000000               0.000000000               0.000000000              -0.000269156               0.005548546               0.000022175              -0.000794500               0.002114330               0.001319830               0.000000000               0.000000000               0.000000000               0.000000000              -0.000136931               0.005345208               0.000012235              -0.000719498               0.002021551               0.001302053               0.000000000               0.000000000               0.000000000               0.000000000              -0.000054969               0.005203473               0.000003047              -0.000671046               0.001958155               0.001287110               0.000000000               0.000000000               0.000000000               0.000000000              -0.000015562               0.005109781              -0.000000657              -0.000644557               0.001918096               0.001273539               0.000000000               0.000000000               0.000000000               0.000000000              -0.000015971               0.005061863               0.000004568              -0.000638720               0.001900177               0.001261457               0.000000000               0.000000000               0.000000000               0.000000000               0.000055475               0.006740284              -0.002674151              -0.000821732               0.002520649               0.001698916               0.000000000               0.000000000               0.000000000               0.000000000              -0.001671886               0.007942271              -0.002127857              -0.001619738               0.003187309               0.001567571               0.000000000               0.000000000               0.000000000               0.000000000              -0.003041949               0.009195410              -0.001483385              -0.002290152               0.003828490               0.001538338               0.000000000               0.000000000               0.000000000               0.000000000              -0.003088388               0.009132047              -0.001092238              -0.002299646               0.003810534               0.001510888               0.000000000               0.000000000               0.000000000               0.000000000              -0.002773435               0.008731562              -0.000834047              -0.002131478               0.003620984               0.001489506               0.000000000               0.000000000               0.000000000               0.000000000              -0.002368361               0.008239484              -0.000652193              -0.001918066               0.003385823               0.001467757               0.000000000               0.000000000               0.000000000               0.000000000              -0.001961525               0.007739593              -0.000514132              -0.001703017               0.003147511               0.001444494               0.000000000               0.000000000               0.000000000               0.000000000              -0.001568655               0.007268008              -0.000399811              -0.001496743               0.002921559               0.001424816               0.000000000               0.000000000               0.000000000               0.000000000              -0.001193127               0.006816113              -0.000308013              -0.001299434               0.002705159               0.001405726               0.000000000               0.000000000               0.000000000               0.000000000              -0.000846732               0.006383837              -0.000236823              -0.001115501               0.002499758               0.001384257               0.000000000               0.000000000               0.000000000               0.000000000              -0.000549847               0.006001561              -0.000178427              -0.000956385               0.002319295               0.001362910               0.000000000               0.000000000               0.000000000               0.000000000              -0.000318818               0.005686764              -0.000128252              -0.000830400               0.002172369               0.001341969               0.000000000               0.000000000               0.000000000               0.000000000              -0.000157521               0.005441944              -0.000087725              -0.000739311               0.002060400               0.001321089               0.000000000               0.000000000               0.000000000               0.000000000              -0.000057581               0.005262197              -0.000055318              -0.000679366               0.001980503               0.001301138               0.000000000               0.000000000               0.000000000               0.000000000              -0.000008833               0.005138117              -0.000027604              -0.000645575               0.001927880               0.001282305               0.000000000               0.000000000               0.000000000               0.000000000               0.000002470               0.005059442              -0.000006798              -0.000631503               0.001896965               0.001265462               0.000000000               0.000000000               0.000000000               0.000000000              -0.000002911               0.005025544               0.000003385              -0.000629283               0.001884925               0.001255643               0.000000000               0.000000000               0.000000000               0.000000000              -0.001164091               0.004706086              -0.001793698              -0.001024793               0.001910277               0.000885483               0.000000000               0.000000000               0.000000000               0.000000000              -0.002322051               0.006352086              -0.001977335              -0.001664777               0.002672266               0.001007489               0.000000000               0.000000000               0.000000000               0.000000000              -0.003395831               0.008011770              -0.001951336              -0.002274903               0.003428864               0.001153961               0.000000000               0.000000000               0.000000000               0.000000000              -0.003334889               0.008315935              -0.001647077              -0.002290070               0.003535307               0.001245237               0.000000000               0.000000000               0.000000000               0.000000000              -0.002965179               0.008171653              -0.001358006              -0.002133394               0.003434988               0.001301594               0.000000000               0.000000000               0.000000000               0.000000000              -0.002518848               0.007862090              -0.001120868              -0.001927325               0.003263112               0.001335787               0.000000000               0.000000000               0.000000000               0.000000000              -0.002077454               0.007498718              -0.000931020              -0.001716381               0.003071674               0.001355294               0.000000000               0.000000000               0.000000000               0.000000000              -0.001663857               0.007128431              -0.000772444              -0.001514997               0.002881119               0.001366122               0.000000000               0.000000000               0.000000000               0.000000000              -0.001276738               0.006760231              -0.000637248              -0.001323803               0.002694655               0.001370853               0.000000000               0.000000000               0.000000000               0.000000000              -0.000919215               0.006394822              -0.000515451              -0.001144056               0.002512938               0.001368882               0.000000000               0.000000000               0.000000000               0.000000000              -0.000607729               0.006050695              -0.000404456              -0.000984233               0.002344956               0.001360723               0.000000000               0.000000000               0.000000000               0.000000000              -0.000357235               0.005749956              -0.000305241              -0.000852706               0.002200868               0.001348162               0.000000000               0.000000000               0.000000000               0.000000000              -0.000175330               0.005501063              -0.000219422              -0.000753380               0.002084796               0.001331416               0.000000000               0.000000000               0.000000000               0.000000000              -0.000060569               0.005304445              -0.000142411              -0.000685767               0.001996720               0.001310952               0.000000000               0.000000000               0.000000000               0.000000000              -0.000002203               0.005160846              -0.000074711              -0.000645930               0.001935575               0.001289645               0.000000000               0.000000000               0.000000000               0.000000000               0.000011868               0.005063220              -0.000025953              -0.000628450               0.001897206               0.001268756               0.000000000               0.000000000               0.000000000               0.000000000               0.000007741               0.005023972              -0.000006874              -0.000625092               0.001883005               0.001257913               0.000000000               0.000000000               0.000000000               0.000000000              -0.002730618               0.002866552              -0.000915643              -0.001382298               0.001416273               0.000033975               0.000000000               0.000000000               0.000000000               0.000000000              -0.003054181               0.004762959              -0.001749983              -0.001740684               0.002167864               0.000427180               0.000000000               0.000000000               0.000000000               0.000000000              -0.003646307               0.006639992              -0.002315991              -0.002197359               0.002945761               0.000748402               0.000000000               0.000000000               0.000000000               0.000000000              -0.003488188               0.007291972              -0.002171283              -0.002219562               0.003170487               0.000950924               0.000000000               0.000000000               0.000000000               0.000000000              -0.003098904               0.007442831              -0.001895727              -0.002092438               0.003178398               0.001085960               0.000000000               0.000000000               0.000000000               0.000000000              -0.002644885               0.007364295              -0.001626496              -0.001912365               0.003092195               0.001179830               0.000000000               0.000000000               0.000000000               0.000000000              -0.002194171               0.007173706              -0.001393871              -0.001719524               0.002964386               0.001244862               0.000000000               0.000000000               0.000000000               0.000000000              -0.001769861               0.006932107              -0.001196320              -0.001530208               0.002820748               0.001290540               0.000000000               0.000000000               0.000000000               0.000000000              -0.001376718               0.006673720              -0.001022869              -0.001350481               0.002674711               0.001324230               0.000000000               0.000000000               0.000000000               0.000000000              -0.001013376               0.006402755              -0.000859224              -0.001180358               0.002527683               0.001347325               0.000000000               0.000000000               0.000000000               0.000000000              -0.000683431               0.006120651              -0.000705835              -0.001021366               0.002380652               0.001359286               0.000000000               0.000000000               0.000000000               0.000000000              -0.000397664               0.005847148              -0.000563519              -0.000880015               0.002242368               0.001362353               0.000000000               0.000000000               0.000000000               0.000000000              -0.000171960               0.005599206              -0.000430376              -0.000764384               0.002121178               0.001356794               0.000000000               0.000000000               0.000000000               0.000000000              -0.000017939               0.005385630              -0.000304133              -0.000679929               0.002021835               0.001341906               0.000000000               0.000000000               0.000000000               0.000000000               0.000067148               0.005214823              -0.000185528              -0.000626671               0.001947147               0.001320476               0.000000000               0.000000000               0.000000000               0.000000000               0.000087722               0.005089996              -0.000082918              -0.000603352               0.001897766               0.001294414               0.000000000               0.000000000               0.000000000               0.000000000               0.000073390               0.005034943              -0.000033986              -0.000601845               0.001878912               0.001277067               0.000000000               0.000000000               0.000000000               0.000000000              -0.004535387               0.001363986              -0.000115753              -0.001871266               0.001078410              -0.000792856               0.000000000               0.000000000               0.000000000               0.000000000              -0.003917069               0.003263672              -0.001424739              -0.001876856               0.001713497              -0.000163359               0.000000000               0.000000000               0.000000000               0.000000000              -0.003835207               0.005094671              -0.002461674              -0.002075032               0.002389883               0.000314851               0.000000000               0.000000000               0.000000000               0.000000000              -0.003492710               0.005987962              -0.002517458              -0.002058257               0.002682052               0.000623795               0.000000000               0.000000000               0.000000000               0.000000000              -0.003071265               0.006406174              -0.002310142              -0.001952492               0.002786200               0.000833708               0.000000000               0.000000000               0.000000000               0.000000000              -0.002619326               0.006566177              -0.002050551              -0.001803016               0.002789708               0.000986693               0.000000000               0.000000000               0.000000000               0.000000000              -0.002174461               0.006574567              -0.001802642              -0.001637241               0.002737247               0.001100006               0.000000000               0.000000000               0.000000000               0.000000000              -0.001753708               0.006498656              -0.001583796              -0.001469969               0.002656186               0.001186217               0.000000000               0.000000000               0.000000000               0.000000000              -0.001363048               0.006377149              -0.001387721              -0.001308284               0.002561789               0.001253506               0.000000000               0.000000000               0.000000000               0.000000000              -0.000997496               0.006224651              -0.001203202              -0.001152140               0.002458909               0.001306770               0.000000000               0.000000000               0.000000000               0.000000000              -0.000655260               0.006035272              -0.001028314              -0.001000130               0.002345114               0.001344984               0.000000000               0.000000000               0.000000000               0.000000000              -0.000345267               0.005824564              -0.000858712              -0.000857544               0.002227350               0.001369806               0.000000000               0.000000000               0.000000000               0.000000000              -0.000078411               0.005617285              -0.000688775              -0.000731563               0.002116264               0.001384701               0.000000000               0.000000000               0.000000000               0.000000000               0.000124202               0.005421179              -0.000516259              -0.000631070               0.002017398               0.001386328               0.000000000               0.000000000               0.000000000               0.000000000               0.000248577               0.005247308              -0.000341184              -0.000562696               0.001936650               0.001373955               0.000000000               0.000000000               0.000000000               0.000000000               0.000288876               0.005108912              -0.000167473              -0.000530284               0.001879715               0.001349431               0.000000000               0.000000000               0.000000000               0.000000000               0.000272237               0.005040988              -0.000077535              -0.000528033               0.001856324               0.001328290               0.000000000               0.000000000               0.000000000               0.000000000              -0.006464876               0.000268284               0.000487809              -0.002457862               0.000908709              -0.001549153               0.000000000               0.000000000               0.000000000               0.000000000              -0.004864798               0.001942482              -0.001052083              -0.002067106               0.001336520              -0.000730586               0.000000000               0.000000000               0.000000000               0.000000000              -0.003993230               0.003513957              -0.002361275              -0.001936702               0.001816873              -0.000119829               0.000000000               0.000000000               0.000000000               0.000000000              -0.003379902               0.004513209              -0.002595224              -0.001831611               0.002114924               0.000283313               0.000000000               0.000000000               0.000000000               0.000000000              -0.002885614               0.005131943              -0.002487119              -0.001723595               0.002285161               0.000561566               0.000000000               0.000000000               0.000000000               0.000000000              -0.002431452               0.005506126              -0.002276334              -0.001600057               0.002368708               0.000768651               0.000000000               0.000000000               0.000000000               0.000000000              -0.002001711               0.005721829              -0.002045687              -0.001465867               0.002395879               0.000930012               0.000000000               0.000000000               0.000000000               0.000000000              -0.001595047               0.005831680              -0.001828091              -0.001327100               0.002386240               0.001059140               0.000000000               0.000000000               0.000000000               0.000000000              -0.001215329               0.005862721              -0.001630881              -0.001188586               0.002350416               0.001161830               0.000000000               0.000000000               0.000000000               0.000000000              -0.000855417               0.005836314              -0.001449913              -0.001050319               0.002295524               0.001245206               0.000000000               0.000000000               0.000000000               0.000000000              -0.000509020               0.005762579              -0.001276772              -0.000911203               0.002224575               0.001313371               0.000000000               0.000000000               0.000000000               0.000000000              -0.000176846               0.005653410              -0.001104434              -0.000772992               0.002142115               0.001369123               0.000000000               0.000000000               0.000000000               0.000000000               0.000128555               0.005521615              -0.000922378              -0.000641992               0.002054517               0.001412525               0.000000000               0.000000000               0.000000000               0.000000000               0.000388747               0.005379621              -0.000722212              -0.000526672               0.001968746               0.001442075               0.000000000               0.000000000               0.000000000               0.000000000               0.000584622               0.005238781              -0.000503518              -0.000435613               0.001891447               0.001455834               0.000000000               0.000000000               0.000000000               0.000000000               0.000695335               0.005111500              -0.000261799              -0.000378186               0.001829878               0.001451692               0.000000000               0.000000000               0.000000000               0.000000000               0.000720307               0.005048098              -0.000133182              -0.000360896               0.001802981               0.001442085               0.000000000               0.000000000               0.000000000               0.000000000              -0.008331547              -0.000442484               0.000802125              -0.003069018               0.000875505              -0.002193512               0.000000000               0.000000000               0.000000000               0.000000000              -0.005815922               0.000866880              -0.000691573              -0.002289328               0.001052062              -0.001237266               0.000000000               0.000000000               0.000000000               0.000000000              -0.004134886               0.002043640              -0.002018403              -0.001806035               0.001283215              -0.000522819               0.000000000               0.000000000               0.000000000               0.000000000              -0.003200055               0.003030346              -0.002351085              -0.001578811               0.001536374              -0.000042437               0.000000000               0.000000000               0.000000000               0.000000000              -0.002586419               0.003771691              -0.002334931              -0.001441366               0.001737672               0.000296306               0.000000000               0.000000000               0.000000000               0.000000000              -0.002113178               0.004313294              -0.002191700              -0.001331601               0.001881616               0.000550015               0.000000000               0.000000000               0.000000000               0.000000000              -0.001697910               0.004707955              -0.002006674              -0.001225209               0.001977705               0.000752496               0.000000000               0.000000000               0.000000000               0.000000000              -0.001311058               0.004989838              -0.001818626              -0.001115375               0.002035054               0.000919679               0.000000000               0.000000000               0.000000000               0.000000000              -0.000946398               0.005175683              -0.001643744              -0.001001858               0.002059163               0.001057305               0.000000000               0.000000000               0.000000000               0.000000000              -0.000594935               0.005280320              -0.001485821              -0.000883139               0.002054469               0.001171329               0.000000000               0.000000000               0.000000000               0.000000000              -0.000247007               0.005332023              -0.001337504              -0.000759129               0.002030366               0.001271237               0.000000000               0.000000000               0.000000000               0.000000000               0.000102233               0.005343149              -0.001186937              -0.000629555               0.001990884               0.001361328               0.000000000               0.000000000               0.000000000               0.000000000               0.000444438               0.005313890              -0.001019477              -0.000497571               0.001937136               0.001439565               0.000000000               0.000000000               0.000000000               0.000000000               0.000772161               0.005254781              -0.000827338              -0.000367287               0.001874005               0.001506718               0.000000000               0.000000000               0.000000000               0.000000000               0.001073468               0.005176192              -0.000602255              -0.000244473               0.001806871               0.001562398               0.000000000               0.000000000               0.000000000               0.000000000               0.001324190               0.005089144              -0.000326015              -0.000139572               0.001742888               0.001603316               0.000000000               0.000000000               0.000000000               0.000000000               0.001461402               0.005054187              -0.000178618              -0.000083748               0.001712628               0.001628880               0.000000000               0.000000000               0.000000000               0.000000000              -0.009902336              -0.000836796               0.000785723              -0.003608774               0.000923986              -0.002684788               0.000000000               0.000000000               0.000000000               0.000000000              -0.006644895               0.000085717              -0.000391954              -0.002502548               0.000862749              -0.001639799               0.000000000               0.000000000               0.000000000               0.000000000              -0.004259822               0.000846658              -0.001469633              -0.001703264               0.000849967              -0.000853296               0.000000000               0.000000000               0.000000000               0.000000000              -0.003011898               0.001749091              -0.001789040              -0.001348096               0.001032388              -0.000315708               0.000000000               0.000000000               0.000000000               0.000000000              -0.002264409               0.002545608              -0.001822887              -0.001167352               0.001237644               0.000070291               0.000000000               0.000000000               0.000000000               0.000000000              -0.001750232               0.003197271              -0.001744125              -0.001055994               0.001417744               0.000361750               0.000000000               0.000000000               0.000000000               0.000000000              -0.001337402               0.003723362              -0.001620769              -0.000966945               0.001563422               0.000596478               0.000000000               0.000000000               0.000000000               0.000000000              -0.000968595               0.004141232              -0.001482963              -0.000880876               0.001674022               0.000793146               0.000000000               0.000000000               0.000000000               0.000000000              -0.000622872               0.004459889              -0.001352067              -0.000791062               0.001750302               0.000959240               0.000000000               0.000000000               0.000000000               0.000000000              -0.000283674               0.004685808              -0.001237545              -0.000692103               0.001792621               0.001100518               0.000000000               0.000000000               0.000000000               0.000000000               0.000062902               0.004851590              -0.001130466              -0.000582860               0.001811467               0.001228607               0.000000000               0.000000000               0.000000000               0.000000000               0.000422918               0.004980035              -0.001018904              -0.000463909               0.001814632               0.001350722               0.000000000               0.000000000               0.000000000               0.000000000               0.000798775               0.005060917              -0.000893082              -0.000333074               0.001797980               0.001464906               0.000000000               0.000000000               0.000000000               0.000000000               0.001195683               0.005093175              -0.000745373              -0.000188266               0.001760463               0.001572197               0.000000000               0.000000000               0.000000000               0.000000000               0.001613859               0.005088265              -0.000560902              -0.000030837               0.001706350               0.001675514               0.000000000               0.000000000               0.000000000               0.000000000               0.002048537               0.005052802              -0.000313898               0.000136600               0.001638717               0.001775317               0.000000000               0.000000000               0.000000000               0.000000000               0.002353727               0.005057832              -0.000182807               0.000250416               0.001602455               0.001852871               0.000000000               0.000000000               0.000000000               0.000000000              -0.010954358              -0.001013770               0.000476318              -0.003981160               0.000989123              -0.002992037               0.000000000               0.000000000               0.000000000               0.000000000              -0.007213709              -0.000381654              -0.000171476              -0.002657432               0.000758588              -0.001898845               0.000000000               0.000000000               0.000000000               0.000000000              -0.004350351               0.000066013              -0.000774986              -0.001639632               0.000568544              -0.001071088               0.000000000               0.000000000               0.000000000               0.000000000              -0.002869674               0.000879320              -0.000970028              -0.001186041               0.000688449              -0.000497593               0.000000000               0.000000000               0.000000000               0.000000000              -0.002011412               0.001687350              -0.001004438              -0.000965197               0.000884176              -0.000081021               0.000000000               0.000000000               0.000000000               0.000000000              -0.001454982               0.002395766              -0.000972119              -0.000845087               0.001080276               0.000235189               0.000000000               0.000000000               0.000000000               0.000000000              -0.001041538               0.002998719              -0.000911369              -0.000765415               0.001254701               0.000489286               0.000000000               0.000000000               0.000000000               0.000000000              -0.000688480               0.003500031              -0.000837769              -0.000695683               0.001398559               0.000702877               0.000000000               0.000000000               0.000000000               0.000000000              -0.000354035               0.003909994              -0.000766536              -0.000621511               0.001510488               0.000888977               0.000000000               0.000000000               0.000000000               0.000000000              -0.000025867               0.004229917              -0.000707202              -0.000538439               0.001589438               0.001050999               0.000000000               0.000000000               0.000000000               0.000000000               0.000311747               0.004482360              -0.000651954              -0.000443389               0.001641901               0.001198512               0.000000000               0.000000000               0.000000000               0.000000000               0.000676684               0.004693130              -0.000593072              -0.000332884               0.001675322               0.001342438               0.000000000               0.000000000               0.000000000               0.000000000               0.001078812               0.004855000              -0.000527315              -0.000202320               0.001685757               0.001483437               0.000000000               0.000000000               0.000000000               0.000000000               0.001529032               0.004960258              -0.000448512              -0.000046645               0.001668951               0.001622306               0.000000000               0.000000000               0.000000000               0.000000000               0.002043271               0.005018512              -0.000345766               0.000138911               0.001626517               0.001765428               0.000000000               0.000000000               0.000000000               0.000000000               0.002639786               0.005026693              -0.000199616               0.000361580               0.001555021               0.001916601               0.000000000               0.000000000               0.000000000               0.000000000               0.003103242               0.005065857              -0.000122065               0.000530478               0.001511776               0.002042254               0.000000000               0.000000000               0.000000000               0.000000000              -0.011323993              -0.001061713              -0.000000000              -0.004113781               0.001017349              -0.003096431               0.000000000               0.000000000               0.000000000               0.000000000              -0.007414897              -0.000536253              -0.000000000              -0.002713553               0.000725762              -0.001987791               0.000000000               0.000000000               0.000000000               0.000000000              -0.004382977              -0.000203555              -0.000000000              -0.001618171               0.000471535              -0.001146636               0.000000000               0.000000000               0.000000000               0.000000000              -0.002816788               0.000572356               0.000000000              -0.001127839               0.000566728              -0.000561111               0.000000000               0.000000000               0.000000000               0.000000000              -0.001913493               0.001377472              -0.000000000              -0.000889742               0.000755733              -0.000134009               0.000000000               0.000000000               0.000000000               0.000000000              -0.001340768               0.002101236              -0.000000000              -0.000765441               0.000955552               0.000190111               0.000000000               0.000000000               0.000000000               0.000000000              -0.000926341               0.002731414               0.000000000              -0.000688803               0.001140063               0.000451260               0.000000000               0.000000000               0.000000000               0.000000000              -0.000581493               0.003259303               0.000000000              -0.000625471               0.001294914               0.000669442               0.000000000               0.000000000               0.000000000               0.000000000              -0.000251285               0.003700018              -0.000000000              -0.000556733               0.001418904               0.000862171               0.000000000               0.000000000               0.000000000               0.000000000               0.000073405               0.004058373               0.000000000              -0.000479769               0.001512700               0.001032932               0.000000000               0.000000000               0.000000000               0.000000000               0.000406423               0.004347664               0.000000000              -0.000391049               0.001579556               0.001188508               0.000000000               0.000000000               0.000000000               0.000000000               0.000772678               0.004588797               0.000000000              -0.000283845               0.001624199               0.001340354               0.000000000               0.000000000               0.000000000               0.000000000               0.001185884               0.004779129               0.000000000              -0.000152684               0.001643922               0.001491238               0.000000000               0.000000000               0.000000000               0.000000000               0.001657629               0.004913328               0.000000000               0.000007444               0.001635278               0.001642723               0.000000000               0.000000000               0.000000000               0.000000000               0.002210198               0.004994314              -0.000000000               0.000204533               0.001596577               0.001801110               0.000000000               0.000000000               0.000000000               0.000000000               0.002870494               0.005015180               0.000000000               0.000449533               0.001521865               0.001971399               0.000000000               0.000000000               0.000000000               0.000000000               0.003399219               0.005067025               0.000000000               0.000641323               0.001475217               0.002116540               0.000000000               0.000000000               0.000000000               0.000000000               0.000000000               0.000000000               0.000000000               0.000000000               0.000000000               0.000000000               0.000000000               0.000000000               0.000000000               0.000000000               0.000000000               0.000000000               0.000000000               0.000000000               0.000000000               0.000000000               0.000000000               0.000000000               0.000000000               0.000000000               0.000000000               0.000000000               0.000000000               0.000000000               0.000000000               0.000000000               0.000000000               0.000000000               0.000000000               0.000000000               0.000000000               0.000000000               0.000000000               0.000000000               0.000000000               0.000000000               0.000000000               0.000000000               0.000000000               0.000000000               0.000000000               0.000000000               0.000000000               0.000000000               0.000000000               0.000000000               0.000000000               0.000000000               0.000000000               0.000000000               0.000000000               0.000000000               0.000000000               0.000000000               0.000000000               0.000000000               0.000000000               0.000000000               0.000000000               0.000000000               0.000000000               0.000000000               0.000000000               0.000000000               0.000000000               0.000000000               0.000000000               0.000000000               0.000000000               0.000000000               0.000000000               0.000000000               0.000000000               0.000000000               0.000000000               0.000000000               0.000000000               0.000000000               0.000000000               0.000000000               0.000000000               0.000000000               0.000000000               0.000000000               0.000000000               0.000000000               0.000000000               0.000000000               0.000000000               0.000000000               0.000000000               0.000000000               0.000000000               0.000000000               0.000000000               0.000000000               0.000000000               0.000000000               0.000000000               0.000000000               0.000000000               0.000000000               0.000000000               0.000000000               0.000000000               0.000000000               0.000000000               0.000000000               0.000000000               0.000000000               0.000000000               0.000000000               0.000000000               0.000000000               0.000000000               0.000000000               0.000000000               0.000000000               0.000000000               0.000000000               0.000000000               0.000000000               0.000000000               0.000000000               0.000000000               0.000000000               0.000000000               0.000000000               0.000000000               0.000000000               0.000000000               0.000000000               0.000000000               0.000000000               0.000000000               0.000000000               0.000000000               0.000000000               0.000000000               0.000000000               0.000000000               0.000000000               0.000000000               0.000000000               0.000000000               0.000000000               0.000000000               0.000000000               0.000000000               0.000000000               0.000000000               0.000000000               0.000000000               0.000000000               0.000000000               0.000000000               0.000000000               0.000000000               0.000000000               0.000000000               0.000000000               0.000000000               0.000000000               0.000000000               0.000000000               0.000000000               0.000000000               0.000000000               0.000000000               0.000000000               0.002278186               0.023232331               0.001624380              -0.002049717               0.008427272               0.006377555               0.000000000               0.000000000               0.000000000               0.000000000               0.002146931               0.018220870               0.000811803              -0.001472506               0.006564398               0.005091892               0.000000000               0.000000000               0.000000000               0.000000000               0.002707194               0.014193746               0.000001024              -0.000759019               0.004984207               0.004225189               0.000000000               0.000000000               0.000000000               0.000000000               0.002539810               0.011926528              -0.000339089              -0.000538386               0.004154932               0.003616546               0.000000000               0.000000000               0.000000000               0.000000000               0.002170743               0.010498746              -0.000472764              -0.000498313               0.003665651               0.003167338               0.000000000               0.000000000               0.000000000               0.000000000               0.001781517               0.009511552              -0.000515423              -0.000520874               0.003344110               0.002823236               0.000000000               0.000000000               0.000000000               0.000000000               0.001427128               0.008770072              -0.000518363              -0.000561085               0.003110356               0.002549272               0.000000000               0.000000000               0.000000000               0.000000000               0.001113399               0.008170870              -0.000505642              -0.000603833               0.002924874               0.002321041               0.000000000               0.000000000               0.000000000               0.000000000               0.000846466               0.007658204              -0.000481680              -0.000639849               0.002765992               0.002126143               0.000000000               0.000000000               0.000000000               0.000000000               0.000627576               0.007191632              -0.000449951              -0.000663612               0.002618391               0.001954779               0.000000000               0.000000000               0.000000000               0.000000000               0.000448556               0.006746522              -0.000416909              -0.000675105               0.002473853               0.001798748               0.000000000               0.000000000               0.000000000               0.000000000               0.000300712               0.006307036              -0.000383820              -0.000675611               0.002327528               0.001651917               0.000000000               0.000000000               0.000000000               0.000000000               0.000178717               0.005858745              -0.000345087              -0.000665323               0.002174670               0.001509347               0.000000000               0.000000000               0.000000000               0.000000000               0.000085817               0.005387236              -0.000295801              -0.000641222               0.002009468               0.001368246               0.000000000               0.000000000               0.000000000               0.000000000               0.000024734               0.004878501              -0.000228772              -0.000600536               0.001826329               0.001225793               0.000000000               0.000000000               0.000000000               0.000000000               0.000000663               0.004318346              -0.000130359              -0.000539544               0.001619282               0.001079739               0.000000000               0.000000000               0.000000000               0.000000000              -0.000046031               0.003897744              -0.000082125              -0.000504478               0.001467395               0.000962916               0.000000000               0.000000000               0.000000000               0.000000000               0.002463110               0.021820314               0.003010609              -0.001803870               0.007874655               0.006070785               0.000000000               0.000000000               0.000000000               0.000000000               0.001997242               0.017301231               0.001502326              -0.001413685               0.006238248               0.004824563               0.000000000               0.000000000               0.000000000               0.000000000               0.002195358               0.013779573               0.000011337              -0.000899185               0.004892873               0.003993688               0.000000000               0.000000000               0.000000000               0.000000000               0.001894681               0.011760902              -0.000595243              -0.000759606               0.004173463               0.003413858               0.000000000               0.000000000               0.000000000               0.000000000               0.001501631               0.010458452              -0.000825876              -0.000744193               0.003734180               0.002989987               0.000000000               0.000000000               0.000000000               0.000000000               0.001137764               0.009530231              -0.000895297              -0.000764616               0.003431584               0.002666968               0.000000000               0.000000000               0.000000000               0.000000000               0.000837651               0.008811912              -0.000894923              -0.000787368               0.003199731               0.002412362               0.000000000               0.000000000               0.000000000               0.000000000               0.000588529               0.008215663              -0.000866615              -0.000806258               0.003007280               0.002201022               0.000000000               0.000000000               0.000000000               0.000000000               0.000382001               0.007694765              -0.000822632              -0.000818593               0.002837760               0.002019167               0.000000000               0.000000000               0.000000000               0.000000000               0.000221614               0.007224963              -0.000766972              -0.000820013               0.002681635               0.001861621               0.000000000               0.000000000               0.000000000               0.000000000               0.000098323               0.006783521              -0.000708968              -0.000811067               0.002531507               0.001720440               0.000000000               0.000000000               0.000000000               0.000000000               0.000004449               0.006352784              -0.000648245              -0.000792428               0.002381716               0.001589288               0.000000000               0.000000000               0.000000000               0.000000000              -0.000056619               0.005917331              -0.000576868              -0.000760897               0.002226056               0.001465159               0.000000000               0.000000000               0.000000000               0.000000000              -0.000083399               0.005470387              -0.000487734              -0.000715071               0.002061801               0.001346730               0.000000000               0.000000000               0.000000000               0.000000000              -0.000079552               0.005011863              -0.000372262              -0.000656313               0.001889375               0.001233062               0.000000000               0.000000000               0.000000000               0.000000000              -0.000046344               0.004545491              -0.000211063              -0.000585564               0.001710337               0.001124773               0.000000000               0.000000000               0.000000000               0.000000000              -0.000058592               0.004219533              -0.000130791              -0.000549412               0.001589634               0.001040222               0.000000000               0.000000000               0.000000000               0.000000000               0.002643166               0.019682964               0.004001927              -0.001469182               0.007050649               0.005581467               0.000000000               0.000000000               0.000000000               0.000000000               0.001712690               0.015933366               0.002004666              -0.001349410               0.005760872               0.004411462               0.000000000               0.000000000               0.000000000               0.000000000               0.001412790               0.013172999               0.000056358              -0.001116826               0.004763231               0.003646405               0.000000000               0.000000000               0.000000000               0.000000000               0.000957747               0.011518344              -0.000696964              -0.001080635               0.004199621               0.003118986               0.000000000               0.000000000               0.000000000               0.000000000               0.000566474               0.010388600              -0.000967754              -0.001086145               0.003824880               0.002738736               0.000000000               0.000000000               0.000000000               0.000000000               0.000269319               0.009536512              -0.001039643              -0.001091067               0.003542495               0.002451428               0.000000000               0.000000000               0.000000000               0.000000000               0.000049920               0.008844684              -0.001028399              -0.001086863               0.003310486               0.002223623               0.000000000               0.000000000               0.000000000               0.000000000              -0.000104941               0.008254267              -0.000986211              -0.001071134               0.003108439               0.002037305               0.000000000               0.000000000               0.000000000               0.000000000              -0.000208774               0.007730780              -0.000932428              -0.001044635               0.002925113               0.001880477               0.000000000               0.000000000               0.000000000               0.000000000              -0.000273257               0.007255399              -0.000869997              -0.001009394               0.002754907               0.001745513               0.000000000               0.000000000               0.000000000               0.000000000              -0.000305844               0.006814114              -0.000803454              -0.000966453               0.002593500               0.001627046               0.000000000               0.000000000               0.000000000               0.000000000              -0.000309130               0.006391571              -0.000729114              -0.000914868               0.002435458               0.001520590               0.000000000               0.000000000               0.000000000               0.000000000              -0.000282629               0.005978176              -0.000638963              -0.000853256               0.002277124               0.001423868               0.000000000               0.000000000               0.000000000               0.000000000              -0.000232123               0.005576336              -0.000531220              -0.000784086               0.002120122               0.001336036               0.000000000               0.000000000               0.000000000               0.000000000              -0.000161393               0.005197670              -0.000396599              -0.000710230               0.001969283               0.001259053               0.000000000               0.000000000               0.000000000               0.000000000              -0.000080993               0.004857071              -0.000218882              -0.000637505               0.001831509               0.001194004               0.000000000               0.000000000               0.000000000               0.000000000              -0.000063269               0.004649137              -0.000129951              -0.000604867               0.001751319               0.001146452               0.000000000               0.000000000               0.000000000               0.000000000               0.002691145               0.017084730               0.004502838              -0.001126412               0.006070323               0.004943911               0.000000000               0.000000000               0.000000000               0.000000000               0.001269010               0.014303184               0.002286817              -0.001312017               0.005205019               0.003893002               0.000000000               0.000000000               0.000000000               0.000000000               0.000449427               0.012458744               0.000161090              -0.001388805               0.004615808               0.003227003               0.000000000               0.000000000               0.000000000               0.000000000              -0.000108269               0.011203074              -0.000610328              -0.001440981               0.004214648               0.002773666               0.000000000               0.000000000               0.000000000               0.000000000              -0.000447089               0.010248731              -0.000869198              -0.001448746               0.003899125               0.002450379               0.000000000               0.000000000               0.000000000               0.000000000              -0.000636927               0.009473530              -0.000928190              -0.001423036               0.003632157               0.002209121               0.000000000               0.000000000               0.000000000               0.000000000              -0.000734885               0.008814215              -0.000911936              -0.001377355               0.003397161               0.002019805               0.000000000               0.000000000               0.000000000               0.000000000              -0.000766803               0.008235547              -0.000872875              -0.001316992               0.003184152               0.001867161               0.000000000               0.000000000               0.000000000               0.000000000              -0.000751138               0.007713745              -0.000825866              -0.001245892               0.002986520               0.001740628               0.000000000               0.000000000               0.000000000               0.000000000              -0.000702761               0.007235849              -0.000772791              -0.001168014               0.002801264               0.001633250               0.000000000               0.000000000               0.000000000               0.000000000              -0.000629592               0.006791801              -0.000713784              -0.001085070               0.002625601               0.001540531               0.000000000               0.000000000               0.000000000               0.000000000              -0.000532771               0.006373183              -0.000642219              -0.000996435               0.002456518               0.001460083               0.000000000               0.000000000               0.000000000               0.000000000              -0.000414940               0.005983477              -0.000553020              -0.000903535               0.002295651               0.001392116               0.000000000               0.000000000               0.000000000               0.000000000              -0.000292537               0.005631974              -0.000447230              -0.000813696               0.002148538               0.001334842               0.000000000               0.000000000               0.000000000               0.000000000              -0.000177482               0.005333134              -0.000320238              -0.000733196               0.002022092               0.001288896               0.000000000               0.000000000               0.000000000               0.000000000              -0.000081193               0.005107316              -0.000168903              -0.000668860               0.001925375               0.001256515               0.000000000               0.000000000               0.000000000               0.000000000              -0.000049592               0.004998185              -0.000094364              -0.000643368               0.001880501               0.001237133               0.000000000               0.000000000               0.000000000               0.000000000               0.002475829               0.014282531               0.004525166              -0.000856882               0.005046423               0.004189540               0.000000000               0.000000000               0.000000000               0.000000000               0.000666174               0.012576623               0.002385834              -0.001322261               0.004632919               0.003310658               0.000000000               0.000000000               0.000000000               0.000000000              -0.000582026               0.011678245               0.000358995              -0.001678036               0.004452055               0.002774018               0.000000000               0.000000000               0.000000000               0.000000000              -0.001149071               0.010791504              -0.000335461              -0.001779835               0.004190411               0.002410575               0.000000000               0.000000000               0.000000000               0.000000000              -0.001367503               0.009994048              -0.000561898              -0.001762065               0.003918671               0.002156606               0.000000000               0.000000000               0.000000000               0.000000000              -0.001407934               0.009292127              -0.000619611              -0.001689487               0.003660507               0.001971020               0.000000000               0.000000000               0.000000000               0.000000000              -0.001360247               0.008666645              -0.000619036              -0.001593419               0.003419993               0.001826573               0.000000000               0.000000000               0.000000000               0.000000000              -0.001261975               0.008103460              -0.000601015              -0.001486169               0.003196516               0.001710347               0.000000000               0.000000000               0.000000000               0.000000000              -0.001132907               0.007588466              -0.000577149              -0.001373395               0.002987262               0.001613867               0.000000000               0.000000000               0.000000000               0.000000000              -0.000979189               0.007113763              -0.000545822              -0.001256413               0.002790035               0.001533622               0.000000000               0.000000000               0.000000000               0.000000000              -0.000804915               0.006669524              -0.000504956              -0.001135531               0.002601663               0.001466132               0.000000000               0.000000000               0.000000000               0.000000000              -0.000620034               0.006258169              -0.000450299              -0.001014781               0.002424296               0.001409515               0.000000000               0.000000000               0.000000000               0.000000000              -0.000438237               0.005894524              -0.000377683              -0.000901152               0.002265206               0.001364054               0.000000000               0.000000000               0.000000000               0.000000000              -0.000278329               0.005591102              -0.000291402              -0.000803259               0.002131435               0.001328176               0.000000000               0.000000000               0.000000000               0.000000000              -0.000150031               0.005359282              -0.000193190              -0.000726170               0.002028466               0.001302296               0.000000000               0.000000000               0.000000000               0.000000000              -0.000060320               0.005208334              -0.000091937              -0.000673660               0.001960647               0.001286987               0.000000000               0.000000000               0.000000000               0.000000000              -0.000031722               0.005146672              -0.000046728              -0.000655228               0.001933949               0.001278721               0.000000000               0.000000000               0.000000000               0.000000000               0.001926591               0.011501936               0.004158670              -0.000715273               0.004072363               0.003357091               0.000000000               0.000000000               0.000000000               0.000000000              -0.000064594               0.010887426               0.002360574              -0.001385149               0.004090822               0.002705672               0.000000000               0.000000000               0.000000000               0.000000000              -0.001563999               0.010858007               0.000654501              -0.001943746               0.004267215               0.002323469               0.000000000               0.000000000               0.000000000               0.000000000              -0.002029789               0.010282301               0.000081680              -0.002046453               0.004109550               0.002063097               0.000000000               0.000000000               0.000000000               0.000000000              -0.002074536               0.009621656              -0.000125722              -0.001980653               0.003867404               0.001886751               0.000000000               0.000000000               0.000000000               0.000000000              -0.001946402               0.008983508              -0.000205859              -0.001852835               0.003612084               0.001759250               0.000000000               0.000000000               0.000000000               0.000000000              -0.001755547               0.008389329              -0.000241797              -0.001706992               0.003365412               0.001658420               0.000000000               0.000000000               0.000000000               0.000000000              -0.001536565               0.007844927              -0.000262951              -0.001556824               0.003133891               0.001577067               0.000000000               0.000000000               0.000000000               0.000000000              -0.001306025               0.007346353              -0.000272900              -0.001408050               0.002918110               0.001510060               0.000000000               0.000000000               0.000000000               0.000000000              -0.001066240               0.006880552              -0.000269434              -0.001259906               0.002713463               0.001453557               0.000000000               0.000000000               0.000000000               0.000000000              -0.000819640               0.006445930              -0.000252500              -0.001113103               0.002519656               0.001406553               0.000000000               0.000000000               0.000000000               0.000000000              -0.000585183               0.006058318              -0.000222741              -0.000976731               0.002344996               0.001368265               0.000000000               0.000000000               0.000000000               0.000000000              -0.000379563               0.005734707              -0.000178930              -0.000859172               0.002197941               0.001338768               0.000000000               0.000000000               0.000000000               0.000000000              -0.000217884               0.005481864              -0.000126173              -0.000766938               0.002082916               0.001315978               0.000000000               0.000000000               0.000000000               0.000000000              -0.000105289               0.005299638              -0.000072011              -0.000701936               0.002000507               0.001298571               0.000000000               0.000000000               0.000000000               0.000000000              -0.000037213               0.005182637              -0.000027078              -0.000661783               0.001948123               0.001286340               0.000000000               0.000000000               0.000000000               0.000000000              -0.000022393               0.005128125              -0.000013699              -0.000649411               0.001925828               0.001276417               0.000000000               0.000000000               0.000000000               0.000000000               0.001080908               0.008925337               0.003501368              -0.000710328               0.003211858               0.002501529               0.000000000               0.000000000               0.000000000               0.000000000              -0.000881421               0.009333609               0.002257342              -0.001497232               0.003610248               0.002113017               0.000000000               0.000000000               0.000000000               0.000000000              -0.002403784               0.010016618               0.001035710              -0.002153491               0.004056669               0.001903178               0.000000000               0.000000000               0.000000000               0.000000000              -0.002666844               0.009692696               0.000573667              -0.002211648               0.003968082               0.001756434               0.000000000               0.000000000               0.000000000               0.000000000              -0.002514532               0.009151938               0.000352998              -0.002086937               0.003746261               0.001659324               0.000000000               0.000000000               0.000000000               0.000000000              -0.002231181               0.008576791               0.000227689              -0.001908787               0.003495164               0.001586377               0.000000000               0.000000000               0.000000000               0.000000000              -0.001916306               0.008020328               0.000141020              -0.001721151               0.003247133               0.001525982               0.000000000               0.000000000               0.000000000               0.000000000              -0.001597026               0.007504204               0.000072817              -0.001536906               0.003013678               0.001476772               0.000000000               0.000000000               0.000000000               0.000000000              -0.001283135               0.007026781               0.000023099              -0.001359520               0.002795410               0.001435890               0.000000000               0.000000000               0.000000000               0.000000000              -0.000980741               0.006576813              -0.000005319              -0.001189877               0.002588875               0.001398998               0.000000000               0.000000000               0.000000000               0.000000000              -0.000699195               0.006168565              -0.000020099              -0.001033266               0.002400590               0.001367324               0.000000000               0.000000000               0.000000000               0.000000000              -0.000457213               0.005823109              -0.000026115              -0.000899341               0.002240797               0.001341456               0.000000000               0.000000000               0.000000000               0.000000000              -0.000269156               0.005548546              -0.000022175              -0.000794500               0.002114330               0.001319830               0.000000000               0.000000000               0.000000000               0.000000000              -0.000136931               0.005345208              -0.000012235              -0.000719498               0.002021551               0.001302053               0.000000000               0.000000000               0.000000000               0.000000000              -0.000054969               0.005203473              -0.000003047              -0.000671046               0.001958155               0.001287110               0.000000000               0.000000000               0.000000000               0.000000000              -0.000015562               0.005109781               0.000000657              -0.000644557               0.001918096               0.001273539               0.000000000               0.000000000               0.000000000               0.000000000              -0.000015971               0.005061863              -0.000004568              -0.000638720               0.001900177               0.001261457               0.000000000               0.000000000               0.000000000               0.000000000               0.000055475               0.006740284               0.002674151              -0.000821732               0.002520649               0.001698916               0.000000000               0.000000000               0.000000000               0.000000000              -0.001671886               0.007942271               0.002127857              -0.001619738               0.003187309               0.001567571               0.000000000               0.000000000               0.000000000               0.000000000              -0.003041949               0.009195410               0.001483385              -0.002290152               0.003828490               0.001538338               0.000000000               0.000000000               0.000000000               0.000000000              -0.003088388               0.009132047               0.001092238              -0.002299646               0.003810534               0.001510888               0.000000000               0.000000000               0.000000000               0.000000000              -0.002773435               0.008731562               0.000834047              -0.002131478               0.003620984               0.001489506               0.000000000               0.000000000               0.000000000               0.000000000              -0.002368361               0.008239484               0.000652193              -0.001918066               0.003385823               0.001467757               0.000000000               0.000000000               0.000000000               0.000000000              -0.001961525               0.007739593               0.000514132              -0.001703017               0.003147511               0.001444494               0.000000000               0.000000000               0.000000000               0.000000000              -0.001568655               0.007268008               0.000399811              -0.001496743               0.002921559               0.001424816               0.000000000               0.000000000               0.000000000               0.000000000              -0.001193127               0.006816113               0.000308013              -0.001299434               0.002705159               0.001405726               0.000000000               0.000000000               0.000000000               0.000000000              -0.000846732               0.006383837               0.000236823              -0.001115501               0.002499758               0.001384257               0.000000000               0.000000000               0.000000000               0.000000000              -0.000549847               0.006001561               0.000178427              -0.000956385               0.002319295               0.001362910               0.000000000               0.000000000               0.000000000               0.000000000              -0.000318818               0.005686764               0.000128252              -0.000830400               0.002172369               0.001341969               0.000000000               0.000000000               0.000000000               0.000000000              -0.000157521               0.005441944               0.000087725              -0.000739311               0.002060400               0.001321089               0.000000000               0.000000000               0.000000000               0.000000000              -0.000057581               0.005262197               0.000055318              -0.000679366               0.001980503               0.001301138               0.000000000               0.000000000               0.000000000               0.000000000              -0.000008833               0.005138117               0.000027604              -0.000645575               0.001927880               0.001282305               0.000000000               0.000000000               0.000000000               0.000000000               0.000002470               0.005059442               0.000006798              -0.000631503               0.001896965               0.001265462               0.000000000               0.000000000               0.000000000               0.000000000              -0.000002911               0.005025544              -0.000003385              -0.000629283               0.001884925               0.001255643               0.000000000               0.000000000               0.000000000               0.000000000              -0.001164091               0.004706086               0.001793698              -0.001024793               0.001910277               0.000885483               0.000000000               0.000000000               0.000000000               0.000000000              -0.002322051               0.006352086               0.001977335              -0.001664777               0.002672266               0.001007489               0.000000000               0.000000000               0.000000000               0.000000000              -0.003395831               0.008011770               0.001951336              -0.002274903               0.003428864               0.001153961               0.000000000               0.000000000               0.000000000               0.000000000              -0.003334889               0.008315935               0.001647077              -0.002290070               0.003535307               0.001245237               0.000000000               0.000000000               0.000000000               0.000000000              -0.002965179               0.008171653               0.001358006              -0.002133394               0.003434988               0.001301594               0.000000000               0.000000000               0.000000000               0.000000000              -0.002518848               0.007862090               0.001120868              -0.001927325               0.003263112               0.001335787               0.000000000               0.000000000               0.000000000               0.000000000              -0.002077454               0.007498718               0.000931020              -0.001716381               0.003071674               0.001355294               0.000000000               0.000000000               0.000000000               0.000000000              -0.001663857               0.007128431               0.000772444              -0.001514997               0.002881119               0.001366122               0.000000000               0.000000000               0.000000000               0.000000000              -0.001276738               0.006760231               0.000637248              -0.001323803               0.002694655               0.001370853               0.000000000               0.000000000               0.000000000               0.000000000              -0.000919215               0.006394822               0.000515451              -0.001144056               0.002512938               0.001368882               0.000000000               0.000000000               0.000000000               0.000000000              -0.000607729               0.006050695               0.000404456              -0.000984233               0.002344956               0.001360723               0.000000000               0.000000000               0.000000000               0.000000000              -0.000357235               0.005749956               0.000305241              -0.000852706               0.002200868               0.001348162               0.000000000               0.000000000               0.000000000               0.000000000              -0.000175330               0.005501063               0.000219422              -0.000753380               0.002084796               0.001331416               0.000000000               0.000000000               0.000000000               0.000000000              -0.000060569               0.005304445               0.000142411              -0.000685767               0.001996720               0.001310952               0.000000000               0.000000000               0.000000000               0.000000000              -0.000002203               0.005160846               0.000074711              -0.000645930               0.001935575               0.001289645               0.000000000               0.000000000               0.000000000               0.000000000               0.000011868               0.005063220               0.000025953              -0.000628450               0.001897206               0.001268756               0.000000000               0.000000000               0.000000000               0.000000000               0.000007741               0.005023972               0.000006874              -0.000625092               0.001883005               0.001257913               0.000000000               0.000000000               0.000000000               0.000000000              -0.002730618               0.002866552               0.000915643              -0.001382298               0.001416273               0.000033975               0.000000000               0.000000000               0.000000000               0.000000000              -0.003054181               0.004762959               0.001749983              -0.001740684               0.002167864               0.000427180               0.000000000               0.000000000               0.000000000               0.000000000              -0.003646307               0.006639992               0.002315991              -0.002197359               0.002945761               0.000748402               0.000000000               0.000000000               0.000000000               0.000000000              -0.003488188               0.007291972               0.002171283              -0.002219562               0.003170487               0.000950924               0.000000000               0.000000000               0.000000000               0.000000000              -0.003098904               0.007442831               0.001895727              -0.002092438               0.003178398               0.001085960               0.000000000               0.000000000               0.000000000               0.000000000              -0.002644885               0.007364295               0.001626496              -0.001912365               0.003092195               0.001179830               0.000000000               0.000000000               0.000000000               0.000000000              -0.002194171               0.007173706               0.001393871              -0.001719524               0.002964386               0.001244862               0.000000000               0.000000000               0.000000000               0.000000000              -0.001769861               0.006932107               0.001196320              -0.001530208               0.002820748               0.001290540               0.000000000               0.000000000               0.000000000               0.000000000              -0.001376718               0.006673720               0.001022869              -0.001350481               0.002674711               0.001324230               0.000000000               0.000000000               0.000000000               0.000000000              -0.001013376               0.006402755               0.000859224              -0.001180358               0.002527683               0.001347325               0.000000000               0.000000000               0.000000000               0.000000000              -0.000683431               0.006120651               0.000705835              -0.001021366               0.002380652               0.001359286               0.000000000               0.000000000               0.000000000               0.000000000              -0.000397664               0.005847148               0.000563519              -0.000880015               0.002242368               0.001362353               0.000000000               0.000000000               0.000000000               0.000000000              -0.000171960               0.005599206               0.000430376              -0.000764384               0.002121178               0.001356794               0.000000000               0.000000000               0.000000000               0.000000000              -0.000017939               0.005385630               0.000304133              -0.000679929               0.002021835               0.001341906               0.000000000               0.000000000               0.000000000               0.000000000               0.000067148               0.005214823               0.000185528              -0.000626671               0.001947147               0.001320476               0.000000000               0.000000000               0.000000000               0.000000000               0.000087722               0.005089996               0.000082918              -0.000603352               0.001897766               0.001294414               0.000000000               0.000000000               0.000000000               0.000000000               0.000073390               0.005034943               0.000033986              -0.000601845               0.001878912               0.001277067               0.000000000               0.000000000               0.000000000               0.000000000              -0.004535387               0.001363986               0.000115753              -0.001871266               0.001078410              -0.000792856               0.000000000               0.000000000               0.000000000               0.000000000              -0.003917069               0.003263672               0.001424739              -0.001876856               0.001713497              -0.000163359               0.000000000               0.000000000               0.000000000               0.000000000              -0.003835207               0.005094671               0.002461674              -0.002075032               0.002389883               0.000314851               0.000000000               0.000000000               0.000000000               0.000000000              -0.003492710               0.005987962               0.002517458              -0.002058257               0.002682052               0.000623795               0.000000000               0.000000000               0.000000000               0.000000000              -0.003071265               0.006406174               0.002310142              -0.001952492               0.002786200               0.000833708               0.000000000               0.000000000               0.000000000               0.000000000              -0.002619326               0.006566177               0.002050551              -0.001803016               0.002789708               0.000986693               0.000000000               0.000000000               0.000000000               0.000000000              -0.002174461               0.006574567               0.001802642              -0.001637241               0.002737247               0.001100006               0.000000000               0.000000000               0.000000000               0.000000000              -0.001753708               0.006498656               0.001583796              -0.001469969               0.002656186               0.001186217               0.000000000               0.000000000               0.000000000               0.000000000              -0.001363048               0.006377149               0.001387721              -0.001308284               0.002561789               0.001253506               0.000000000               0.000000000               0.000000000               0.000000000              -0.000997496               0.006224651               0.001203202              -0.001152140               0.002458909               0.001306770               0.000000000               0.000000000               0.000000000               0.000000000              -0.000655260               0.006035272               0.001028314              -0.001000130               0.002345114               0.001344984               0.000000000               0.000000000               0.000000000               0.000000000              -0.000345267               0.005824564               0.000858712              -0.000857544               0.002227350               0.001369806               0.000000000               0.000000000               0.000000000               0.000000000              -0.000078411               0.005617285               0.000688775              -0.000731563               0.002116264               0.001384701               0.000000000               0.000000000               0.000000000               0.000000000               0.000124202               0.005421179               0.000516259              -0.000631070               0.002017398               0.001386328               0.000000000               0.000000000               0.000000000               0.000000000               0.000248577               0.005247308               0.000341184              -0.000562696               0.001936650               0.001373955               0.000000000               0.000000000               0.000000000               0.000000000               0.000288876               0.005108912               0.000167473              -0.000530284               0.001879715               0.001349431               0.000000000               0.000000000               0.000000000               0.000000000               0.000272237               0.005040988               0.000077535              -0.000528033               0.001856324               0.001328290               0.000000000               0.000000000               0.000000000               0.000000000              -0.006464876               0.000268284              -0.000487809              -0.002457862               0.000908709              -0.001549153               0.000000000               0.000000000               0.000000000               0.000000000              -0.004864798               0.001942482               0.001052083              -0.002067106               0.001336520              -0.000730586               0.000000000               0.000000000               0.000000000               0.000000000              -0.003993230               0.003513957               0.002361275              -0.001936702               0.001816873              -0.000119829               0.000000000               0.000000000               0.000000000               0.000000000              -0.003379902               0.004513209               0.002595224              -0.001831611               0.002114924               0.000283313               0.000000000               0.000000000               0.000000000               0.000000000              -0.002885614               0.005131943               0.002487119              -0.001723595               0.002285161               0.000561566               0.000000000               0.000000000               0.000000000               0.000000000              -0.002431452               0.005506126               0.002276334              -0.001600057               0.002368708               0.000768651               0.000000000               0.000000000               0.000000000               0.000000000              -0.002001711               0.005721829               0.002045687              -0.001465867               0.002395879               0.000930012               0.000000000               0.000000000               0.000000000               0.000000000              -0.001595047               0.005831680               0.001828091              -0.001327100               0.002386240               0.001059140               0.000000000               0.000000000               0.000000000               0.000000000              -0.001215329               0.005862721               0.001630881              -0.001188586               0.002350416               0.001161830               0.000000000               0.000000000               0.000000000               0.000000000              -0.000855417               0.005836314               0.001449913              -0.001050319               0.002295524               0.001245206               0.000000000               0.000000000               0.000000000               0.000000000              -0.000509020               0.005762579               0.001276772              -0.000911203               0.002224575               0.001313371               0.000000000               0.000000000               0.000000000               0.000000000              -0.000176846               0.005653410               0.001104434              -0.000772992               0.002142115               0.001369123               0.000000000               0.000000000               0.000000000               0.000000000               0.000128555               0.005521615               0.000922378              -0.000641992               0.002054517               0.001412525               0.000000000               0.000000000               0.000000000               0.000000000               0.000388747               0.005379621               0.000722212              -0.000526672               0.001968746               0.001442075               0.000000000               0.000000000               0.000000000               0.000000000               0.000584622               0.005238781               0.000503518              -0.000435613               0.001891447               0.001455834               0.000000000               0.000000000               0.000000000               0.000000000               0.000695335               0.005111500               0.000261799              -0.000378186               0.001829878               0.001451692               0.000000000               0.000000000               0.000000000               0.000000000               0.000720307               0.005048098               0.000133182              -0.000360896               0.001802981               0.001442085               0.000000000               0.000000000               0.000000000               0.000000000              -0.008331547              -0.000442484              -0.000802125              -0.003069018               0.000875505              -0.002193512               0.000000000               0.000000000               0.000000000               0.000000000              -0.005815922               0.000866880               0.000691573              -0.002289328               0.001052062              -0.001237266               0.000000000               0.000000000               0.000000000               0.000000000              -0.004134886               0.002043640               0.002018403              -0.001806035               0.001283215              -0.000522819               0.000000000               0.000000000               0.000000000               0.000000000              -0.003200055               0.003030346               0.002351085              -0.001578811               0.001536374              -0.000042437               0.000000000               0.000000000               0.000000000               0.000000000              -0.002586419               0.003771691               0.002334931              -0.001441366               0.001737672               0.000296306               0.000000000               0.000000000               0.000000000               0.000000000              -0.002113178               0.004313294               0.002191700              -0.001331601               0.001881616               0.000550015               0.000000000               0.000000000               0.000000000               0.000000000              -0.001697910               0.004707955               0.002006674              -0.001225209               0.001977705               0.000752496               0.000000000               0.000000000               0.000000000               0.000000000              -0.001311058               0.004989838               0.001818626              -0.001115375               0.002035054               0.000919679               0.000000000               0.000000000               0.000000000               0.000000000              -0.000946398               0.005175683               0.001643744              -0.001001858               0.002059163               0.001057305               0.000000000               0.000000000               0.000000000               0.000000000              -0.000594935               0.005280320               0.001485821              -0.000883139               0.002054469               0.001171329               0.000000000               0.000000000               0.000000000               0.000000000              -0.000247007               0.005332023               0.001337504              -0.000759129               0.002030366               0.001271237               0.000000000               0.000000000               0.000000000               0.000000000               0.000102233               0.005343149               0.001186937              -0.000629555               0.001990884               0.001361328               0.000000000               0.000000000               0.000000000               0.000000000               0.000444438               0.005313890               0.001019477              -0.000497571               0.001937136               0.001439565               0.000000000               0.000000000               0.000000000               0.000000000               0.000772161               0.005254781               0.000827338              -0.000367287               0.001874005               0.001506718               0.000000000               0.000000000               0.000000000               0.000000000               0.001073468               0.005176192               0.000602255              -0.000244473               0.001806871               0.001562398               0.000000000               0.000000000               0.000000000               0.000000000               0.001324190               0.005089144               0.000326015              -0.000139572               0.001742888               0.001603316               0.000000000               0.000000000               0.000000000               0.000000000               0.001461402               0.005054187               0.000178618              -0.000083748               0.001712628               0.001628880               0.000000000               0.000000000               0.000000000               0.000000000              -0.009902336              -0.000836796              -0.000785723              -0.003608774               0.000923986              -0.002684788               0.000000000               0.000000000               0.000000000               0.000000000              -0.006644895               0.000085717               0.000391954              -0.002502548               0.000862749              -0.001639799               0.000000000               0.000000000               0.000000000               0.000000000              -0.004259822               0.000846658               0.001469633              -0.001703264               0.000849967              -0.000853296               0.000000000               0.000000000               0.000000000               0.000000000              -0.003011898               0.001749091               0.001789040              -0.001348096               0.001032388              -0.000315708               0.000000000               0.000000000               0.000000000               0.000000000              -0.002264409               0.002545608               0.001822887              -0.001167352               0.001237644               0.000070291               0.000000000               0.000000000               0.000000000               0.000000000              -0.001750232               0.003197271               0.001744125              -0.001055994               0.001417744               0.000361750               0.000000000               0.000000000               0.000000000               0.000000000              -0.001337402               0.003723362               0.001620769              -0.000966945               0.001563422               0.000596478               0.000000000               0.000000000               0.000000000               0.000000000              -0.000968595               0.004141232               0.001482963              -0.000880876               0.001674022               0.000793146               0.000000000               0.000000000               0.000000000               0.000000000              -0.000622872               0.004459889               0.001352067              -0.000791062               0.001750302               0.000959240               0.000000000               0.000000000               0.000000000               0.000000000              -0.000283674               0.004685808               0.001237545              -0.000692103               0.001792621               0.001100518               0.000000000               0.000000000               0.000000000               0.000000000               0.000062902               0.004851590               0.001130466              -0.000582860               0.001811467               0.001228607               0.000000000               0.000000000               0.000000000               0.000000000               0.000422918               0.004980035               0.001018904              -0.000463909               0.001814632               0.001350722               0.000000000               0.000000000               0.000000000               0.000000000               0.000798775               0.005060917               0.000893082              -0.000333074               0.001797980               0.001464906               0.000000000               0.000000000               0.000000000               0.000000000               0.001195683               0.005093175               0.000745373              -0.000188266               0.001760463               0.001572197               0.000000000               0.000000000               0.000000000               0.000000000               0.001613859               0.005088265               0.000560902              -0.000030837               0.001706350               0.001675514               0.000000000               0.000000000               0.000000000               0.000000000               0.002048537               0.005052802               0.000313898               0.000136600               0.001638717               0.001775317               0.000000000               0.000000000               0.000000000               0.000000000               0.002353727               0.005057832               0.000182807               0.000250416               0.001602455               0.001852871               0.000000000               0.000000000               0.000000000               0.000000000              -0.010954358              -0.001013770              -0.000476318              -0.003981160               0.000989123              -0.002992037               0.000000000               0.000000000               0.000000000               0.000000000              -0.007213709              -0.000381654               0.000171476              -0.002657432               0.000758588              -0.001898845               0.000000000               0.000000000               0.000000000               0.000000000              -0.004350351               0.000066013               0.000774986              -0.001639632               0.000568544              -0.001071088               0.000000000               0.000000000               0.000000000               0.000000000              -0.002869674               0.000879320               0.000970028              -0.001186041               0.000688449              -0.000497593               0.000000000               0.000000000               0.000000000               0.000000000              -0.002011412               0.001687350               0.001004438              -0.000965197               0.000884176              -0.000081021               0.000000000               0.000000000               0.000000000               0.000000000              -0.001454982               0.002395766               0.000972119              -0.000845087               0.001080276               0.000235189               0.000000000               0.000000000               0.000000000               0.000000000              -0.001041538               0.002998719               0.000911369              -0.000765415               0.001254701               0.000489286               0.000000000               0.000000000               0.000000000               0.000000000              -0.000688480               0.003500031               0.000837769              -0.000695683               0.001398559               0.000702877               0.000000000               0.000000000               0.000000000               0.000000000              -0.000354035               0.003909994               0.000766536              -0.000621511               0.001510488               0.000888977               0.000000000               0.000000000               0.000000000               0.000000000              -0.000025867               0.004229917               0.000707202              -0.000538439               0.001589438               0.001050999               0.000000000               0.000000000               0.000000000               0.000000000               0.000311747               0.004482360               0.000651954              -0.000443389               0.001641901               0.001198512               0.000000000               0.000000000               0.000000000               0.000000000               0.000676684               0.004693130               0.000593072              -0.000332884               0.001675322               0.001342438               0.000000000               0.000000000               0.000000000               0.000000000               0.001078812               0.004855000               0.000527315              -0.000202320               0.001685757               0.001483437               0.000000000               0.000000000               0.000000000               0.000000000               0.001529032               0.004960258               0.000448512              -0.000046645               0.001668951               0.001622306               0.000000000               0.000000000               0.000000000               0.000000000               0.002043271               0.005018512               0.000345766               0.000138911               0.001626517               0.001765428               0.000000000               0.000000000               0.000000000               0.000000000               0.002639786               0.005026693               0.000199616               0.000361580               0.001555021               0.001916601               0.000000000               0.000000000               0.000000000               0.000000000               0.003103242               0.005065857               0.000122065               0.000530478               0.001511776               0.002042254               0.000000000               0.000000000               0.000000000               0.000000000              -0.011323993              -0.001061713              -0.000000000              -0.004113781               0.001017349              -0.003096431               0.000000000               0.000000000               0.000000000               0.000000000              -0.007414897              -0.000536253               0.000000000              -0.002713553               0.000725762              -0.001987791               0.000000000               0.000000000               0.000000000               0.000000000              -0.004382977              -0.000203555               0.000000000              -0.001618171               0.000471535              -0.001146636               0.000000000               0.000000000               0.000000000               0.000000000              -0.002816788               0.000572356              -0.000000000              -0.001127839               0.000566728              -0.000561111               0.000000000               0.000000000               0.000000000               0.000000000              -0.001913493               0.001377472              -0.000000000              -0.000889742               0.000755733              -0.000134009               0.000000000               0.000000000               0.000000000               0.000000000              -0.001340768               0.002101236              -0.000000000              -0.000765441               0.000955552               0.000190111               0.000000000               0.000000000               0.000000000               0.000000000              -0.000926341               0.002731414              -0.000000000              -0.000688803               0.001140063               0.000451260               0.000000000               0.000000000               0.000000000               0.000000000              -0.000581493               0.003259303              -0.000000000              -0.000625471               0.001294914               0.000669442               0.000000000               0.000000000               0.000000000               0.000000000              -0.000251285               0.003700018              -0.000000000              -0.000556733               0.001418904               0.000862171               0.000000000               0.000000000               0.000000000               0.000000000               0.000073405               0.004058373              -0.000000000              -0.000479769               0.001512700               0.001032932               0.000000000               0.000000000               0.000000000               0.000000000               0.000406423               0.004347664              -0.000000000              -0.000391049               0.001579556               0.001188508               0.000000000               0.000000000               0.000000000               0.000000000               0.000772678               0.004588797              -0.000000000              -0.000283845               0.001624199               0.001340354               0.000000000               0.000000000               0.000000000               0.000000000               0.001185884               0.004779129              -0.000000000              -0.000152684               0.001643922               0.001491238               0.000000000               0.000000000               0.000000000               0.000000000               0.001657629               0.004913328               0.000000000               0.000007444               0.001635278               0.001642723               0.000000000               0.000000000               0.000000000               0.000000000               0.002210198               0.004994314               0.000000000               0.000204533               0.001596577               0.001801110               0.000000000               0.000000000               0.000000000               0.000000000               0.002870494               0.005015180              -0.000000000               0.000449533               0.001521865               0.001971399               0.000000000               0.000000000               0.000000000               0.000000000               0.003399219               0.005067025               0.000000000               0.000641323               0.001475217               0.002116540               0.000000000               0.000000000               0.000000000               0.000000000               0.002200733               0.023725401              -0.000000000              -0.002140395               0.008621853               0.006481458               0.000000000               0.000000000               0.000000000               0.000000000               0.002191969               0.018545226               0.000000000              -0.001496161               0.006680401               0.005184239               0.000000000               0.000000000               0.000000000               0.000000000               0.002884119               0.014338978               0.000000000              -0.000710826               0.005016553               0.004305728               0.000000000               0.000000000               0.000000000               0.000000000               0.002770413               0.011985491              -0.000000000              -0.000459280               0.004148217               0.003688937               0.000000000               0.000000000               0.000000000               0.000000000               0.002415230               0.010512203              -0.000000000              -0.000408313               0.003640137               0.003231824               0.000000000               0.000000000               0.000000000               0.000000000               0.002020184               0.009502517               0.000000000              -0.000430245               0.003310889               0.002880644               0.000000000               0.000000000               0.000000000               0.000000000               0.001647794               0.008753123               0.000000000              -0.000476216               0.003076417               0.002600201               0.000000000               0.000000000               0.000000000               0.000000000               0.001313776               0.008155457              -0.000000000              -0.000526765               0.002894047               0.002367282               0.000000000               0.000000000               0.000000000               0.000000000               0.001023976               0.007645523               0.000000000              -0.000571698               0.002739048               0.002167350               0.000000000               0.000000000               0.000000000               0.000000000               0.000781182               0.007178534               0.000000000              -0.000604372               0.002594278               0.001989906               0.000000000               0.000000000               0.000000000               0.000000000               0.000583823               0.006729536              -0.000000000              -0.000622257               0.002450575               0.001828318               0.000000000               0.000000000               0.000000000               0.000000000               0.000420609               0.006285616              -0.000000000              -0.000627972               0.002304508               0.001676536               0.000000000               0.000000000               0.000000000               0.000000000               0.000281575               0.005834872               0.000000000              -0.000623767               0.002152860               0.001529094               0.000000000               0.000000000               0.000000000               0.000000000               0.000162244               0.005358549               0.000000000              -0.000608976               0.001989157               0.001380181               0.000000000               0.000000000               0.000000000               0.000000000               0.000070143               0.004837351               0.000000000              -0.000578364               0.001805222               0.001226858               0.000000000               0.000000000               0.000000000               0.000000000               0.000022565               0.004245146               0.000000000              -0.000522180               0.001589094               0.001066914               0.000000000               0.000000000               0.000000000               0.000000000              -0.000036487               0.003788873              -0.000000000              -0.000487291               0.001425375               0.000938085               0.000000000               0.000000000               0.000000000               0.000000000               0.002278186               0.023232331              -0.001624380              -0.002049717               0.008427272               0.006377555               0.000000000               0.000000000               0.000000000               0.000000000               0.002146931               0.018220870              -0.000811803              -0.001472506               0.006564398               0.005091892               0.000000000               0.000000000               0.000000000               0.000000000               0.002707194               0.014193746              -0.000001024              -0.000759019               0.004984207               0.004225189               0.000000000               0.000000000               0.000000000               0.000000000               0.002539810               0.011926528               0.000339089              -0.000538386               0.004154932               0.003616546               0.000000000               0.000000000               0.000000000               0.000000000               0.002170743               0.010498746               0.000472764              -0.000498313               0.003665651               0.003167338               0.000000000               0.000000000               0.000000000               0.000000000               0.001781517               0.009511552               0.000515423              -0.000520874               0.003344110               0.002823236               0.000000000               0.000000000               0.000000000               0.000000000               0.001427128               0.008770072               0.000518363              -0.000561085               0.003110356               0.002549272               0.000000000               0.000000000               0.000000000               0.000000000               0.001113399               0.008170870               0.000505642              -0.000603833               0.002924874               0.002321041               0.000000000               0.000000000               0.000000000               0.000000000               0.000846466               0.007658204               0.000481680              -0.000639849               0.002765992               0.002126143               0.000000000               0.000000000               0.000000000               0.000000000               0.000627576               0.007191632               0.000449951              -0.000663612               0.002618391               0.001954779               0.000000000               0.000000000               0.000000000               0.000000000               0.000448556               0.006746522               0.000416909              -0.000675105               0.002473853               0.001798748               0.000000000               0.000000000               0.000000000               0.000000000               0.000300712               0.006307036               0.000383820              -0.000675611               0.002327528               0.001651917               0.000000000               0.000000000               0.000000000               0.000000000               0.000178717               0.005858745               0.000345087              -0.000665323               0.002174670               0.001509347               0.000000000               0.000000000               0.000000000               0.000000000               0.000085817               0.005387236               0.000295801              -0.000641222               0.002009468               0.001368246               0.000000000               0.000000000               0.000000000               0.000000000               0.000024734               0.004878501               0.000228772              -0.000600536               0.001826329               0.001225793               0.000000000               0.000000000               0.000000000               0.000000000               0.000000663               0.004318346               0.000130359              -0.000539544               0.001619282               0.001079739               0.000000000               0.000000000               0.000000000               0.000000000              -0.000046031               0.003897744               0.000082125              -0.000504478               0.001467395               0.000962916               0.000000000               0.000000000               0.000000000               0.000000000               0.002463110               0.021820314              -0.003010609              -0.001803870               0.007874655               0.006070785               0.000000000               0.000000000               0.000000000               0.000000000               0.001997242               0.017301231              -0.001502326              -0.001413685               0.006238248               0.004824563               0.000000000               0.000000000               0.000000000               0.000000000               0.002195358               0.013779573              -0.000011337              -0.000899185               0.004892873               0.003993688               0.000000000               0.000000000               0.000000000               0.000000000               0.001894681               0.011760902               0.000595243              -0.000759606               0.004173463               0.003413858               0.000000000               0.000000000               0.000000000               0.000000000               0.001501631               0.010458452               0.000825876              -0.000744193               0.003734180               0.002989987               0.000000000               0.000000000               0.000000000               0.000000000               0.001137764               0.009530231               0.000895297              -0.000764616               0.003431584               0.002666968               0.000000000               0.000000000               0.000000000               0.000000000               0.000837651               0.008811912               0.000894923              -0.000787368               0.003199731               0.002412362               0.000000000               0.000000000               0.000000000               0.000000000               0.000588529               0.008215663               0.000866615              -0.000806258               0.003007280               0.002201022               0.000000000               0.000000000               0.000000000               0.000000000               0.000382001               0.007694765               0.000822632              -0.000818593               0.002837760               0.002019167               0.000000000               0.000000000               0.000000000               0.000000000               0.000221614               0.007224963               0.000766972              -0.000820013               0.002681635               0.001861621               0.000000000               0.000000000               0.000000000               0.000000000               0.000098323               0.006783521               0.000708968              -0.000811067               0.002531507               0.001720440               0.000000000               0.000000000               0.000000000               0.000000000               0.000004449               0.006352784               0.000648245              -0.000792428               0.002381716               0.001589288               0.000000000               0.000000000               0.000000000               0.000000000              -0.000056619               0.005917331               0.000576868              -0.000760897               0.002226056               0.001465159               0.000000000               0.000000000               0.000000000               0.000000000              -0.000083399               0.005470387               0.000487734              -0.000715071               0.002061801               0.001346730               0.000000000               0.000000000               0.000000000               0.000000000              -0.000079552               0.005011863               0.000372262              -0.000656313               0.001889375               0.001233062               0.000000000               0.000000000               0.000000000               0.000000000              -0.000046344               0.004545491               0.000211063              -0.000585564               0.001710337               0.001124773               0.000000000               0.000000000               0.000000000               0.000000000              -0.000058592               0.004219533               0.000130791              -0.000549412               0.001589634               0.001040222               0.000000000               0.000000000               0.000000000               0.000000000               0.002643166               0.019682964              -0.004001927              -0.001469182               0.007050649               0.005581467               0.000000000               0.000000000               0.000000000               0.000000000               0.001712690               0.015933366              -0.002004666              -0.001349410               0.005760872               0.004411462               0.000000000               0.000000000               0.000000000               0.000000000               0.001412790               0.013172999              -0.000056358              -0.001116826               0.004763231               0.003646405               0.000000000               0.000000000               0.000000000               0.000000000               0.000957747               0.011518344               0.000696964              -0.001080635               0.004199621               0.003118986               0.000000000               0.000000000               0.000000000               0.000000000               0.000566474               0.010388600               0.000967754              -0.001086145               0.003824880               0.002738736               0.000000000               0.000000000               0.000000000               0.000000000               0.000269319               0.009536512               0.001039643              -0.001091067               0.003542495               0.002451428               0.000000000               0.000000000               0.000000000               0.000000000               0.000049920               0.008844684               0.001028399              -0.001086863               0.003310486               0.002223623               0.000000000               0.000000000               0.000000000               0.000000000              -0.000104941               0.008254267               0.000986211              -0.001071134               0.003108439               0.002037305               0.000000000               0.000000000               0.000000000               0.000000000              -0.000208774               0.007730780               0.000932428              -0.001044635               0.002925113               0.001880477               0.000000000               0.000000000               0.000000000               0.000000000              -0.000273257               0.007255399               0.000869997              -0.001009394               0.002754907               0.001745513               0.000000000               0.000000000               0.000000000               0.000000000              -0.000305844               0.006814114               0.000803454              -0.000966453               0.002593500               0.001627046               0.000000000               0.000000000               0.000000000               0.000000000              -0.000309130               0.006391571               0.000729114              -0.000914868               0.002435458               0.001520590               0.000000000               0.000000000               0.000000000               0.000000000              -0.000282629               0.005978176               0.000638963              -0.000853256               0.002277124               0.001423868               0.000000000               0.000000000               0.000000000               0.000000000              -0.000232123               0.005576336               0.000531220              -0.000784086               0.002120122               0.001336036               0.000000000               0.000000000               0.000000000               0.000000000              -0.000161393               0.005197670               0.000396599              -0.000710230               0.001969283               0.001259053               0.000000000               0.000000000               0.000000000               0.000000000              -0.000080993               0.004857071               0.000218882              -0.000637505               0.001831509               0.001194004               0.000000000               0.000000000               0.000000000               0.000000000              -0.000063269               0.004649137               0.000129951              -0.000604867               0.001751319               0.001146452               0.000000000               0.000000000               0.000000000               0.000000000               0.002691145               0.017084730              -0.004502838              -0.001126412               0.006070323               0.004943911               0.000000000               0.000000000               0.000000000               0.000000000               0.001269010               0.014303184              -0.002286817              -0.001312017               0.005205019               0.003893002               0.000000000               0.000000000               0.000000000               0.000000000               0.000449427               0.012458744              -0.000161090              -0.001388805               0.004615808               0.003227003               0.000000000               0.000000000               0.000000000               0.000000000              -0.000108269               0.011203074               0.000610328              -0.001440981               0.004214648               0.002773666               0.000000000               0.000000000               0.000000000               0.000000000              -0.000447089               0.010248731               0.000869198              -0.001448746               0.003899125               0.002450379               0.000000000               0.000000000               0.000000000               0.000000000              -0.000636927               0.009473530               0.000928190              -0.001423036               0.003632157               0.002209121               0.000000000               0.000000000               0.000000000               0.000000000              -0.000734885               0.008814215               0.000911936              -0.001377355               0.003397161               0.002019805               0.000000000               0.000000000               0.000000000               0.000000000              -0.000766803               0.008235547               0.000872875              -0.001316992               0.003184152               0.001867161               0.000000000               0.000000000               0.000000000               0.000000000              -0.000751138               0.007713745               0.000825866              -0.001245892               0.002986520               0.001740628               0.000000000               0.000000000               0.000000000               0.000000000              -0.000702761               0.007235849               0.000772791              -0.001168014               0.002801264               0.001633250               0.000000000               0.000000000               0.000000000               0.000000000              -0.000629592               0.006791801               0.000713784              -0.001085070               0.002625601               0.001540531               0.000000000               0.000000000               0.000000000               0.000000000              -0.000532771               0.006373183               0.000642219              -0.000996435               0.002456518               0.001460083               0.000000000               0.000000000               0.000000000               0.000000000              -0.000414940               0.005983477               0.000553020              -0.000903535               0.002295651               0.001392116               0.000000000               0.000000000               0.000000000               0.000000000              -0.000292537               0.005631974               0.000447230              -0.000813696               0.002148538               0.001334842               0.000000000               0.000000000               0.000000000               0.000000000              -0.000177482               0.005333134               0.000320238              -0.000733196               0.002022092               0.001288896               0.000000000               0.000000000               0.000000000               0.000000000              -0.000081193               0.005107316               0.000168903              -0.000668860               0.001925375               0.001256515               0.000000000               0.000000000               0.000000000               0.000000000              -0.000049592               0.004998185               0.000094364              -0.000643368               0.001880501               0.001237133               0.000000000               0.000000000               0.000000000               0.000000000               0.002475829               0.014282531              -0.004525166              -0.000856882               0.005046423               0.004189540               0.000000000               0.000000000               0.000000000               0.000000000               0.000666174               0.012576623              -0.002385834              -0.001322261               0.004632919               0.003310658               0.000000000               0.000000000               0.000000000               0.000000000              -0.000582026               0.011678245              -0.000358995              -0.001678036               0.004452055               0.002774018               0.000000000               0.000000000               0.000000000               0.000000000              -0.001149071               0.010791504               0.000335461              -0.001779835               0.004190411               0.002410575               0.000000000               0.000000000               0.000000000               0.000000000              -0.001367503               0.009994048               0.000561898              -0.001762065               0.003918671               0.002156606               0.000000000               0.000000000               0.000000000               0.000000000              -0.001407934               0.009292127               0.000619611              -0.001689487               0.003660507               0.001971020               0.000000000               0.000000000               0.000000000               0.000000000              -0.001360247               0.008666645               0.000619036              -0.001593419               0.003419993               0.001826573               0.000000000               0.000000000               0.000000000               0.000000000              -0.001261975               0.008103460               0.000601015              -0.001486169               0.003196516               0.001710347               0.000000000               0.000000000               0.000000000               0.000000000              -0.001132907               0.007588466               0.000577149              -0.001373395               0.002987262               0.001613867               0.000000000               0.000000000               0.000000000               0.000000000              -0.000979189               0.007113763               0.000545822              -0.001256413               0.002790035               0.001533622               0.000000000               0.000000000               0.000000000               0.000000000              -0.000804915               0.006669524               0.000504956              -0.001135531               0.002601663               0.001466132               0.000000000               0.000000000               0.000000000               0.000000000              -0.000620034               0.006258169               0.000450299              -0.001014781               0.002424296               0.001409515               0.000000000               0.000000000               0.000000000               0.000000000              -0.000438237               0.005894524               0.000377683              -0.000901152               0.002265206               0.001364054               0.000000000               0.000000000               0.000000000               0.000000000              -0.000278329               0.005591102               0.000291402              -0.000803259               0.002131435               0.001328176               0.000000000               0.000000000               0.000000000               0.000000000              -0.000150031               0.005359282               0.000193190              -0.000726170               0.002028466               0.001302296               0.000000000               0.000000000               0.000000000               0.000000000              -0.000060320               0.005208334               0.000091937              -0.000673660               0.001960647               0.001286987               0.000000000               0.000000000               0.000000000               0.000000000              -0.000031722               0.005146672               0.000046728              -0.000655228               0.001933949               0.001278721               0.000000000               0.000000000               0.000000000               0.000000000               0.001926591               0.011501936              -0.004158670              -0.000715273               0.004072363               0.003357091               0.000000000               0.000000000               0.000000000               0.000000000              -0.000064594               0.010887426              -0.002360574              -0.001385149               0.004090822               0.002705672               0.000000000               0.000000000               0.000000000               0.000000000              -0.001563999               0.010858007              -0.000654501              -0.001943746               0.004267215               0.002323469               0.000000000               0.000000000               0.000000000               0.000000000              -0.002029789               0.010282301              -0.000081680              -0.002046453               0.004109550               0.002063097               0.000000000               0.000000000               0.000000000               0.000000000              -0.002074536               0.009621656               0.000125722              -0.001980653               0.003867404               0.001886751               0.000000000               0.000000000               0.000000000               0.000000000              -0.001946402               0.008983508               0.000205859              -0.001852835               0.003612084               0.001759250               0.000000000               0.000000000               0.000000000               0.000000000              -0.001755547               0.008389329               0.000241797              -0.001706992               0.003365412               0.001658420               0.000000000               0.000000000               0.000000000               0.000000000              -0.001536565               0.007844927               0.000262951              -0.001556824               0.003133891               0.001577067               0.000000000               0.000000000               0.000000000               0.000000000              -0.001306025               0.007346353               0.000272900              -0.001408050               0.002918110               0.001510060               0.000000000               0.000000000               0.000000000               0.000000000              -0.001066240               0.006880552               0.000269434              -0.001259906               0.002713463               0.001453557               0.000000000               0.000000000               0.000000000               0.000000000              -0.000819640               0.006445930               0.000252500              -0.001113103               0.002519656               0.001406553               0.000000000               0.000000000               0.000000000               0.000000000              -0.000585183               0.006058318               0.000222741              -0.000976731               0.002344996               0.001368265               0.000000000               0.000000000               0.000000000               0.000000000              -0.000379563               0.005734707               0.000178930              -0.000859172               0.002197941               0.001338768               0.000000000               0.000000000               0.000000000               0.000000000              -0.000217884               0.005481864               0.000126173              -0.000766938               0.002082916               0.001315978               0.000000000               0.000000000               0.000000000               0.000000000              -0.000105289               0.005299638               0.000072011              -0.000701936               0.002000507               0.001298571               0.000000000               0.000000000               0.000000000               0.000000000              -0.000037213               0.005182637               0.000027078              -0.000661783               0.001948123               0.001286340               0.000000000               0.000000000               0.000000000               0.000000000              -0.000022393               0.005128125               0.000013699              -0.000649411               0.001925828               0.001276417               0.000000000               0.000000000               0.000000000               0.000000000               0.001080908               0.008925337              -0.003501368              -0.000710328               0.003211858               0.002501529               0.000000000               0.000000000               0.000000000               0.000000000              -0.000881421               0.009333609              -0.002257342              -0.001497232               0.003610248               0.002113017               0.000000000               0.000000000               0.000000000               0.000000000              -0.002403784               0.010016618              -0.001035710              -0.002153491               0.004056669               0.001903178               0.000000000               0.000000000               0.000000000               0.000000000              -0.002666844               0.009692696              -0.000573667              -0.002211648               0.003968082               0.001756434               0.000000000               0.000000000               0.000000000               0.000000000              -0.002514532               0.009151938              -0.000352998              -0.002086937               0.003746261               0.001659324               0.000000000               0.000000000               0.000000000               0.000000000              -0.002231181               0.008576791              -0.000227689              -0.001908787               0.003495164               0.001586377               0.000000000               0.000000000               0.000000000               0.000000000              -0.001916306               0.008020328              -0.000141020              -0.001721151               0.003247133               0.001525982               0.000000000               0.000000000               0.000000000               0.000000000              -0.001597026               0.007504204              -0.000072817              -0.001536906               0.003013678               0.001476772               0.000000000               0.000000000               0.000000000               0.000000000              -0.001283135               0.007026781              -0.000023099              -0.001359520               0.002795410               0.001435890               0.000000000               0.000000000               0.000000000               0.000000000              -0.000980741               0.006576813               0.000005319              -0.001189877               0.002588875               0.001398998               0.000000000               0.000000000               0.000000000               0.000000000              -0.000699195               0.006168565               0.000020099              -0.001033266               0.002400590               0.001367324               0.000000000               0.000000000               0.000000000               0.000000000              -0.000457213               0.005823109               0.000026115              -0.000899341               0.002240797               0.001341456               0.000000000               0.000000000               0.000000000               0.000000000              -0.000269156               0.005548546               0.000022175              -0.000794500               0.002114330               0.001319830               0.000000000               0.000000000               0.000000000               0.000000000              -0.000136931               0.005345208               0.000012235              -0.000719498               0.002021551               0.001302053               0.000000000               0.000000000               0.000000000               0.000000000              -0.000054969               0.005203473               0.000003047              -0.000671046               0.001958155               0.001287110               0.000000000               0.000000000               0.000000000               0.000000000              -0.000015562               0.005109781              -0.000000657              -0.000644557               0.001918096               0.001273539               0.000000000               0.000000000               0.000000000               0.000000000              -0.000015971               0.005061863               0.000004568              -0.000638720               0.001900177               0.001261457               0.000000000               0.000000000               0.000000000               0.000000000               0.000055475               0.006740284              -0.002674151              -0.000821732               0.002520649               0.001698916               0.000000000               0.000000000               0.000000000               0.000000000              -0.001671886               0.007942271              -0.002127857              -0.001619738               0.003187309               0.001567571               0.000000000               0.000000000               0.000000000               0.000000000              -0.003041949               0.009195410              -0.001483385              -0.002290152               0.003828490               0.001538338               0.000000000               0.000000000               0.000000000               0.000000000              -0.003088388               0.009132047              -0.001092238              -0.002299646               0.003810534               0.001510888               0.000000000               0.000000000               0.000000000               0.000000000              -0.002773435               0.008731562              -0.000834047              -0.002131478               0.003620984               0.001489506               0.000000000               0.000000000               0.000000000               0.000000000              -0.002368361               0.008239484              -0.000652193              -0.001918066               0.003385823               0.001467757               0.000000000               0.000000000               0.000000000               0.000000000              -0.001961525               0.007739593              -0.000514132              -0.001703017               0.003147511               0.001444494               0.000000000               0.000000000               0.000000000               0.000000000              -0.001568655               0.007268008              -0.000399811              -0.001496743               0.002921559               0.001424816               0.000000000               0.000000000               0.000000000               0.000000000              -0.001193127               0.006816113              -0.000308013              -0.001299434               0.002705159               0.001405726               0.000000000               0.000000000               0.000000000               0.000000000              -0.000846732               0.006383837              -0.000236823              -0.001115501               0.002499758               0.001384257               0.000000000               0.000000000               0.000000000               0.000000000              -0.000549847               0.006001561              -0.000178427              -0.000956385               0.002319295               0.001362910               0.000000000               0.000000000               0.000000000               0.000000000              -0.000318818               0.005686764              -0.000128252              -0.000830400               0.002172369               0.001341969               0.000000000               0.000000000               0.000000000               0.000000000              -0.000157521               0.005441944              -0.000087725              -0.000739311               0.002060400               0.001321089               0.000000000               0.000000000               0.000000000               0.000000000              -0.000057581               0.005262197              -0.000055318              -0.000679366               0.001980503               0.001301138               0.000000000               0.000000000               0.000000000               0.000000000              -0.000008833               0.005138117              -0.000027604              -0.000645575               0.001927880               0.001282305               0.000000000               0.000000000               0.000000000               0.000000000               0.000002470               0.005059442              -0.000006798              -0.000631503               0.001896965               0.001265462               0.000000000               0.000000000               0.000000000               0.000000000              -0.000002911               0.005025544               0.000003385              -0.000629283               0.001884925               0.001255643               0.000000000               0.000000000               0.000000000               0.000000000              -0.001164091               0.004706086              -0.001793698              -0.001024793               0.001910277               0.000885483               0.000000000               0.000000000               0.000000000               0.000000000              -0.002322051               0.006352086              -0.001977335              -0.001664777               0.002672266               0.001007489               0.000000000               0.000000000               0.000000000               0.000000000              -0.003395831               0.008011770              -0.001951336              -0.002274903               0.003428864               0.001153961               0.000000000               0.000000000               0.000000000               0.000000000              -0.003334889               0.008315935              -0.001647077              -0.002290070               0.003535307               0.001245237               0.000000000               0.000000000               0.000000000               0.000000000              -0.002965179               0.008171653              -0.001358006              -0.002133394               0.003434988               0.001301594               0.000000000               0.000000000               0.000000000               0.000000000              -0.002518848               0.007862090              -0.001120868              -0.001927325               0.003263112               0.001335787               0.000000000               0.000000000               0.000000000               0.000000000              -0.002077454               0.007498718              -0.000931020              -0.001716381               0.003071674               0.001355294               0.000000000               0.000000000               0.000000000               0.000000000              -0.001663857               0.007128431              -0.000772444              -0.001514997               0.002881119               0.001366122               0.000000000               0.000000000               0.000000000               0.000000000              -0.001276738               0.006760231              -0.000637248              -0.001323803               0.002694655               0.001370853               0.000000000               0.000000000               0.000000000               0.000000000              -0.000919215               0.006394822              -0.000515451              -0.001144056               0.002512938               0.001368882               0.000000000               0.000000000               0.000000000               0.000000000              -0.000607729               0.006050695              -0.000404456              -0.000984233               0.002344956               0.001360723               0.000000000               0.000000000               0.000000000               0.000000000              -0.000357235               0.005749956              -0.000305241              -0.000852706               0.002200868               0.001348162               0.000000000               0.000000000               0.000000000               0.000000000              -0.000175330               0.005501063              -0.000219422              -0.000753380               0.002084796               0.001331416               0.000000000               0.000000000               0.000000000               0.000000000              -0.000060569               0.005304445              -0.000142411              -0.000685767               0.001996720               0.001310952               0.000000000               0.000000000               0.000000000               0.000000000              -0.000002203               0.005160846              -0.000074711              -0.000645930               0.001935575               0.001289645               0.000000000               0.000000000               0.000000000               0.000000000               0.000011868               0.005063220              -0.000025953              -0.000628450               0.001897206               0.001268756               0.000000000               0.000000000               0.000000000               0.000000000               0.000007741               0.005023972              -0.000006874              -0.000625092               0.001883005               0.001257913               0.000000000               0.000000000               0.000000000               0.000000000              -0.002730618               0.002866552              -0.000915643              -0.001382298               0.001416273               0.000033975               0.000000000               0.000000000               0.000000000               0.000000000              -0.003054181               0.004762959              -0.001749983              -0.001740684               0.002167864               0.000427180               0.000000000               0.000000000               0.000000000               0.000000000              -0.003646307               0.006639992              -0.002315991              -0.002197359               0.002945761               0.000748402               0.000000000               0.000000000               0.000000000               0.000000000              -0.003488188               0.007291972              -0.002171283              -0.002219562               0.003170487               0.000950924               0.000000000               0.000000000               0.000000000               0.000000000              -0.003098904               0.007442831              -0.001895727              -0.002092438               0.003178398               0.001085960               0.000000000               0.000000000               0.000000000               0.000000000              -0.002644885               0.007364295              -0.001626496              -0.001912365               0.003092195               0.001179830               0.000000000               0.000000000               0.000000000               0.000000000              -0.002194171               0.007173706              -0.001393871              -0.001719524               0.002964386               0.001244862               0.000000000               0.000000000               0.000000000               0.000000000              -0.001769861               0.006932107              -0.001196320              -0.001530208               0.002820748               0.001290540               0.000000000               0.000000000               0.000000000               0.000000000              -0.001376718               0.006673720              -0.001022869              -0.001350481               0.002674711               0.001324230               0.000000000               0.000000000               0.000000000               0.000000000              -0.001013376               0.006402755              -0.000859224              -0.001180358               0.002527683               0.001347325               0.000000000               0.000000000               0.000000000               0.000000000              -0.000683431               0.006120651              -0.000705835              -0.001021366               0.002380652               0.001359286               0.000000000               0.000000000               0.000000000               0.000000000              -0.000397664               0.005847148              -0.000563519              -0.000880015               0.002242368               0.001362353               0.000000000               0.000000000               0.000000000               0.000000000              -0.000171960               0.005599206              -0.000430376              -0.000764384               0.002121178               0.001356794               0.000000000               0.000000000               0.000000000               0.000000000              -0.000017939               0.005385630              -0.000304133              -0.000679929               0.002021835               0.001341906               0.000000000               0.000000000               0.000000000               0.000000000               0.000067148               0.005214823              -0.000185528              -0.000626671               0.001947147               0.001320476               0.000000000               0.000000000               0.000000000               0.000000000               0.000087722               0.005089996              -0.000082918              -0.000603352               0.001897766               0.001294414               0.000000000               0.000000000               0.000000000               0.000000000               0.000073390               0.005034943              -0.000033986              -0.000601845               0.001878912               0.001277067               0.000000000               0.000000000               0.000000000               0.000000000              -0.004535387               0.001363986              -0.000115753              -0.001871266               0.001078410              -0.000792856               0.000000000               0.000000000               0.000000000               0.000000000              -0.003917069               0.003263672              -0.001424739              -0.001876856               0.001713497              -0.000163359               0.000000000               0.000000000               0.000000000               0.000000000              -0.003835207               0.005094671              -0.002461674              -0.002075032               0.002389883               0.000314851               0.000000000               0.000000000               0.000000000               0.000000000              -0.003492710               0.005987962              -0.002517458              -0.002058257               0.002682052               0.000623795               0.000000000               0.000000000               0.000000000               0.000000000              -0.003071265               0.006406174              -0.002310142              -0.001952492               0.002786200               0.000833708               0.000000000               0.000000000               0.000000000               0.000000000              -0.002619326               0.006566177              -0.002050551              -0.001803016               0.002789708               0.000986693               0.000000000               0.000000000               0.000000000               0.000000000              -0.002174461               0.006574567              -0.001802642              -0.001637241               0.002737247               0.001100006               0.000000000               0.000000000               0.000000000               0.000000000              -0.001753708               0.006498656              -0.001583796              -0.001469969               0.002656186               0.001186217               0.000000000               0.000000000               0.000000000               0.000000000              -0.001363048               0.006377149              -0.001387721              -0.001308284               0.002561789               0.001253506               0.000000000               0.000000000               0.000000000               0.000000000              -0.000997496               0.006224651              -0.001203202              -0.001152140               0.002458909               0.001306770               0.000000000               0.000000000               0.000000000               0.000000000              -0.000655260               0.006035272              -0.001028314              -0.001000130               0.002345114               0.001344984               0.000000000               0.000000000               0.000000000               0.000000000              -0.000345267               0.005824564              -0.000858712              -0.000857544               0.002227350               0.001369806               0.000000000               0.000000000               0.000000000               0.000000000              -0.000078411               0.005617285              -0.000688775              -0.000731563               0.002116264               0.001384701               0.000000000               0.000000000               0.000000000               0.000000000               0.000124202               0.005421179              -0.000516259              -0.000631070               0.002017398               0.001386328               0.000000000               0.000000000               0.000000000               0.000000000               0.000248577               0.005247308              -0.000341184              -0.000562696               0.001936650               0.001373955               0.000000000               0.000000000               0.000000000               0.000000000               0.000288876               0.005108912              -0.000167473              -0.000530284               0.001879715               0.001349431               0.000000000               0.000000000               0.000000000               0.000000000               0.000272237               0.005040988              -0.000077535              -0.000528033               0.001856324               0.001328290               0.000000000               0.000000000               0.000000000               0.000000000              -0.006464876               0.000268284               0.000487809              -0.002457862               0.000908709              -0.001549153               0.000000000               0.000000000               0.000000000               0.000000000              -0.004864798               0.001942482              -0.001052083              -0.002067106               0.001336520              -0.000730586               0.000000000               0.000000000               0.000000000               0.000000000              -0.003993230               0.003513957              -0.002361275              -0.001936702               0.001816873              -0.000119829               0.000000000               0.000000000               0.000000000               0.000000000              -0.003379902               0.004513209              -0.002595224              -0.001831611               0.002114924               0.000283313               0.000000000               0.000000000               0.000000000               0.000000000              -0.002885614               0.005131943              -0.002487119              -0.001723595               0.002285161               0.000561566               0.000000000               0.000000000               0.000000000               0.000000000              -0.002431452               0.005506126              -0.002276334              -0.001600057               0.002368708               0.000768651               0.000000000               0.000000000               0.000000000               0.000000000              -0.002001711               0.005721829              -0.002045687              -0.001465867               0.002395879               0.000930012               0.000000000               0.000000000               0.000000000               0.000000000              -0.001595047               0.005831680              -0.001828091              -0.001327100               0.002386240               0.001059140               0.000000000               0.000000000               0.000000000               0.000000000              -0.001215329               0.005862721              -0.001630881              -0.001188586               0.002350416               0.001161830               0.000000000               0.000000000               0.000000000               0.000000000              -0.000855417               0.005836314              -0.001449913              -0.001050319               0.002295524               0.001245206               0.000000000               0.000000000               0.000000000               0.000000000              -0.000509020               0.005762579              -0.001276772              -0.000911203               0.002224575               0.001313371               0.000000000               0.000000000               0.000000000               0.000000000              -0.000176846               0.005653410              -0.001104434              -0.000772992               0.002142115               0.001369123               0.000000000               0.000000000               0.000000000               0.000000000               0.000128555               0.005521615              -0.000922378              -0.000641992               0.002054517               0.001412525               0.000000000               0.000000000               0.000000000               0.000000000               0.000388747               0.005379621              -0.000722212              -0.000526672               0.001968746               0.001442075               0.000000000               0.000000000               0.000000000               0.000000000               0.000584622               0.005238781              -0.000503518              -0.000435613               0.001891447               0.001455834               0.000000000               0.000000000               0.000000000               0.000000000               0.000695335               0.005111500              -0.000261799              -0.000378186               0.001829878               0.001451692               0.000000000               0.000000000               0.000000000               0.000000000               0.000720307               0.005048098              -0.000133182              -0.000360896               0.001802981               0.001442085               0.000000000               0.000000000               0.000000000               0.000000000              -0.008331547              -0.000442484               0.000802125              -0.003069018               0.000875505              -0.002193512               0.000000000               0.000000000               0.000000000               0.000000000              -0.005815922               0.000866880              -0.000691573              -0.002289328               0.001052062              -0.001237266               0.000000000               0.000000000               0.000000000               0.000000000              -0.004134886               0.002043640              -0.002018403              -0.001806035               0.001283215              -0.000522819               0.000000000               0.000000000               0.000000000               0.000000000              -0.003200055               0.003030346              -0.002351085              -0.001578811               0.001536374              -0.000042437               0.000000000               0.000000000               0.000000000               0.000000000              -0.002586419               0.003771691              -0.002334931              -0.001441366               0.001737672               0.000296306               0.000000000               0.000000000               0.000000000               0.000000000              -0.002113178               0.004313294              -0.002191700              -0.001331601               0.001881616               0.000550015               0.000000000               0.000000000               0.000000000               0.000000000              -0.001697910               0.004707955              -0.002006674              -0.001225209               0.001977705               0.000752496               0.000000000               0.000000000               0.000000000               0.000000000              -0.001311058               0.004989838              -0.001818626              -0.001115375               0.002035054               0.000919679               0.000000000               0.000000000               0.000000000               0.000000000              -0.000946398               0.005175683              -0.001643744              -0.001001858               0.002059163               0.001057305               0.000000000               0.000000000               0.000000000               0.000000000              -0.000594935               0.005280320              -0.001485821              -0.000883139               0.002054469               0.001171329               0.000000000               0.000000000               0.000000000               0.000000000              -0.000247007               0.005332023              -0.001337504              -0.000759129               0.002030366               0.001271237               0.000000000               0.000000000               0.000000000               0.000000000               0.000102233               0.005343149              -0.001186937              -0.000629555               0.001990884               0.001361328               0.000000000               0.000000000               0.000000000               0.000000000               0.000444438               0.005313890              -0.001019477              -0.000497571               0.001937136               0.001439565               0.000000000               0.000000000               0.000000000               0.000000000               0.000772161               0.005254781              -0.000827338              -0.000367287               0.001874005               0.001506718               0.000000000               0.000000000               0.000000000               0.000000000               0.001073468               0.005176192              -0.000602255              -0.000244473               0.001806871               0.001562398               0.000000000               0.000000000               0.000000000               0.000000000               0.001324190               0.005089144              -0.000326015              -0.000139572               0.001742888               0.001603316               0.000000000               0.000000000               0.000000000               0.000000000               0.001461402               0.005054187              -0.000178618              -0.000083748               0.001712628               0.001628880               0.000000000               0.000000000               0.000000000               0.000000000              -0.009902336              -0.000836796               0.000785723              -0.003608774               0.000923986              -0.002684788               0.000000000               0.000000000               0.000000000               0.000000000              -0.006644895               0.000085717              -0.000391954              -0.002502548               0.000862749              -0.001639799               0.000000000               0.000000000               0.000000000               0.000000000              -0.004259822               0.000846658              -0.001469633              -0.001703264               0.000849967              -0.000853296               0.000000000               0.000000000               0.000000000               0.000000000              -0.003011898               0.001749091              -0.001789040              -0.001348096               0.001032388              -0.000315708               0.000000000               0.000000000               0.000000000               0.000000000              -0.002264409               0.002545608              -0.001822887              -0.001167352               0.001237644               0.000070291               0.000000000               0.000000000               0.000000000               0.000000000              -0.001750232               0.003197271              -0.001744125              -0.001055994               0.001417744               0.000361750               0.000000000               0.000000000               0.000000000               0.000000000              -0.001337402               0.003723362              -0.001620769              -0.000966945               0.001563422               0.000596478               0.000000000               0.000000000               0.000000000               0.000000000              -0.000968595               0.004141232              -0.001482963              -0.000880876               0.001674022               0.000793146               0.000000000               0.000000000               0.000000000               0.000000000              -0.000622872               0.004459889              -0.001352067              -0.000791062               0.001750302               0.000959240               0.000000000               0.000000000               0.000000000               0.000000000              -0.000283674               0.004685808              -0.001237545              -0.000692103               0.001792621               0.001100518               0.000000000               0.000000000               0.000000000               0.000000000               0.000062902               0.004851590              -0.001130466              -0.000582860               0.001811467               0.001228607               0.000000000               0.000000000               0.000000000               0.000000000               0.000422918               0.004980035              -0.001018904              -0.000463909               0.001814632               0.001350722               0.000000000               0.000000000               0.000000000               0.000000000               0.000798775               0.005060917              -0.000893082              -0.000333074               0.001797980               0.001464906               0.000000000               0.000000000               0.000000000               0.000000000               0.001195683               0.005093175              -0.000745373              -0.000188266               0.001760463               0.001572197               0.000000000               0.000000000               0.000000000               0.000000000               0.001613859               0.005088265              -0.000560902              -0.000030837               0.001706350               0.001675514               0.000000000               0.000000000               0.000000000               0.000000000               0.002048537               0.005052802              -0.000313898               0.000136600               0.001638717               0.001775317               0.000000000               0.000000000               0.000000000               0.000000000               0.002353727               0.005057832              -0.000182807               0.000250416               0.001602455               0.001852871               0.000000000               0.000000000               0.000000000               0.000000000              -0.010954358              -0.001013770               0.000476318              -0.003981160               0.000989123              -0.002992037               0.000000000               0.000000000               0.000000000               0.000000000              -0.007213709              -0.000381654              -0.000171476              -0.002657432               0.000758588              -0.001898845               0.000000000               0.000000000               0.000000000               0.000000000              -0.004350351               0.000066013              -0.000774986              -0.001639632               0.000568544              -0.001071088               0.000000000               0.000000000               0.000000000               0.000000000              -0.002869674               0.000879320              -0.000970028              -0.001186041               0.000688449              -0.000497593               0.000000000               0.000000000               0.000000000               0.000000000              -0.002011412               0.001687350              -0.001004438              -0.000965197               0.000884176              -0.000081021               0.000000000               0.000000000               0.000000000               0.000000000              -0.001454982               0.002395766              -0.000972119              -0.000845087               0.001080276               0.000235189               0.000000000               0.000000000               0.000000000               0.000000000              -0.001041538               0.002998719              -0.000911369              -0.000765415               0.001254701               0.000489286               0.000000000               0.000000000               0.000000000               0.000000000              -0.000688480               0.003500031              -0.000837769              -0.000695683               0.001398559               0.000702877               0.000000000               0.000000000               0.000000000               0.000000000              -0.000354035               0.003909994              -0.000766536              -0.000621511               0.001510488               0.000888977               0.000000000               0.000000000               0.000000000               0.000000000              -0.000025867               0.004229917              -0.000707202              -0.000538439               0.001589438               0.001050999               0.000000000               0.000000000               0.000000000               0.000000000               0.000311747               0.004482360              -0.000651954              -0.000443389               0.001641901               0.001198512               0.000000000               0.000000000               0.000000000               0.000000000               0.000676684               0.004693130              -0.000593072              -0.000332884               0.001675322               0.001342438               0.000000000               0.000000000               0.000000000               0.000000000               0.001078812               0.004855000              -0.000527315              -0.000202320               0.001685757               0.001483437               0.000000000               0.000000000               0.000000000               0.000000000               0.001529032               0.004960258              -0.000448512              -0.000046645               0.001668951               0.001622306               0.000000000               0.000000000               0.000000000               0.000000000               0.002043271               0.005018512              -0.000345766               0.000138911               0.001626517               0.001765428               0.000000000               0.000000000               0.000000000               0.000000000               0.002639786               0.005026693              -0.000199616               0.000361580               0.001555021               0.001916601               0.000000000               0.000000000               0.000000000               0.000000000               0.003103242               0.005065857              -0.000122065               0.000530478               0.001511776               0.002042254               0.000000000               0.000000000               0.000000000               0.000000000               0.000000000               0.000000000               0.000000000               0.000000000               0.000000000               0.000000000               0.000000000               0.000000000               0.000000000               0.000000000               0.000000000               0.000000000               0.000000000               0.000000000               0.000000000               0.000000000               0.000000000               0.000000000               0.000000000               0.000000000               0.000000000               0.000000000               0.000000000               0.000000000               0.000000000               0.000000000               0.000000000               0.000000000               0.000000000               0.000000000               0.000000000               0.000000000               0.000000000               0.000000000               0.000000000               0.000000000               0.000000000               0.000000000               0.000000000               0.000000000               0.000000000               0.000000000               0.000000000               0.000000000               0.000000000               0.000000000               0.000000000               0.000000000               0.000000000               0.000000000               0.000000000               0.000000000               0.000000000               0.000000000               0.000000000               0.000000000               0.000000000               0.000000000               0.000000000               0.000000000               0.000000000               0.000000000               0.000000000               0.000000000               0.000000000               0.000000000               0.000000000               0.000000000               0.000000000               0.000000000               0.000000000               0.000000000               0.000000000               0.000000000               0.000000000               0.000000000               0.000000000               0.000000000               0.000000000               0.000000000               0.000000000               0.000000000               0.000000000               0.000000000               0.000000000               0.000000000               0.000000000               0.000000000               0.000000000               0.000000000               0.000000000               0.000000000               0.000000000               0.000000000               0.000000000               0.000000000               0.000000000               0.000000000               0.000000000               0.000000000               0.000000000               0.000000000               0.000000000               0.000000000               0.000000000               0.000000000               0.000000000               0.000000000               0.000000000               0.000000000               0.000000000               0.000000000               0.000000000               0.000000000               0.000000000               0.000000000               0.000000000               0.000000000               0.000000000               0.000000000               0.000000000               0.000000000               0.000000000               0.000000000               0.000000000               0.000000000               0.000000000               0.000000000               0.000000000               0.000000000               0.000000000               0.000000000               0.000000000               0.000000000               0.000000000               0.000000000               0.000000000               0.000000000               0.000000000               0.000000000               0.000000000               0.000000000               0.000000000               0.000000000               0.000000000               0.000000000               0.000000000               0.000000000               0.000000000               0.000000000               0.000000000               0.000000000               0.000000000               0.000000000               0.000000000               0.000000000               0.000000000               0.000000000               0.000000000               0.000000000               0.000000000               0.000000000               0.000000000               0.000000000               0.000000000               0.000000000               0.000000000               0.000000000               0.000000000               0.000000000               0.000000000               0.000000000               0.000000000               0.000000000               0.000000000               0.000000000               0.000000000               0.000000000               0.000000000               0.000000000               0.000000000               0.000000000               0.000000000               0.000000000               0.000000000               0.000000000               0.000000000               0.000000000               0.000000000               0.000000000               0.000000000               0.000000000               0.000000000               0.000000000               0.000000000               0.000000000               0.000000000               0.000000000               0.000000000               0.000000000               0.000000000               0.000000000               0.000000000               0.000000000               0.000000000               0.000000000               0.000000000               0.000000000               0.000000000               0.000000000               0.000000000               0.000000000               0.000000000               0.000000000               0.000000000               0.000000000               0.000000000               0.000000000               0.000000000               0.000000000               0.000000000               0.000000000               0.000000000               0.000000000               0.000000000               0.000000000               0.000000000               0.000000000               0.000000000               0.000000000               0.000000000               0.000000000               0.000000000               0.000000000               0.000000000               0.000000000               0.000000000               0.000000000               0.000000000               0.000000000               0.000000000               0.000000000               0.000000000               0.000000000               0.000000000               0.000000000               0.000000000               0.000000000               0.000000000               0.000000000               0.000000000               0.000000000               0.000000000               0.000000000               0.000000000               0.000000000               0.000000000               0.000000000               0.000000000               0.000000000               0.000000000               0.000000000               0.000000000               0.000000000               0.000000000               0.000000000               0.000000000               0.000000000               0.000000000               0.000000000               0.000000000               0.000000000               0.000000000               0.000000000               0.000000000               0.000000000               0.000000000               0.000000000               0.000000000               0.000000000               0.000000000               0.000000000               0.000000000               0.000000000               0.000000000               0.000000000               0.000000000               0.000000000               0.000000000               0.000000000               0.000000000               0.000000000               0.000000000               0.000000000               0.000000000               0.000000000               0.000000000               0.000000000               0.000000000               0.000000000               0.000000000               0.000000000               0.000000000               0.000000000               0.000000000               0.000000000               0.000000000               0.000000000               0.000000000               0.000000000               0.000000000               0.000000000               0.000000000               0.000000000               0.000000000               0.000000000               0.000000000               0.000000000               0.000000000               0.000000000               0.000000000               0.000000000               0.000000000               0.000000000               0.000000000               0.000000000               0.000000000               0.000000000               0.000000000               0.000000000               0.000000000               0.000000000               0.000000000               0.000000000               0.000000000               0.000000000               0.000000000               0.000000000               0.000000000               0.000000000               0.002278186               0.023232331               0.001624380              -0.002049717               0.008427272               0.006377555               0.000000000               0.000000000               0.000000000               0.000000000               0.002146931               0.018220870               0.000811803              -0.001472506               0.006564398               0.005091892               0.000000000               0.000000000               0.000000000               0.000000000               0.002707194               0.014193746               0.000001024              -0.000759019               0.004984207               0.004225189               0.000000000               0.000000000               0.000000000               0.000000000               0.002539810               0.011926528              -0.000339089              -0.000538386               0.004154932               0.003616546               0.000000000               0.000000000               0.000000000               0.000000000               0.002170743               0.010498746              -0.000472764              -0.000498313               0.003665651               0.003167338               0.000000000               0.000000000               0.000000000               0.000000000               0.001781517               0.009511552              -0.000515423              -0.000520874               0.003344110               0.002823236               0.000000000               0.000000000               0.000000000               0.000000000               0.001427128               0.008770072              -0.000518363              -0.000561085               0.003110356               0.002549272               0.000000000               0.000000000               0.000000000               0.000000000               0.001113399               0.008170870              -0.000505642              -0.000603833               0.002924874               0.002321041               0.000000000               0.000000000               0.000000000               0.000000000               0.000846466               0.007658204              -0.000481680              -0.000639849               0.002765992               0.002126143               0.000000000               0.000000000               0.000000000               0.000000000               0.000627576               0.007191632              -0.000449951              -0.000663612               0.002618391               0.001954779               0.000000000               0.000000000               0.000000000               0.000000000               0.000448556               0.006746522              -0.000416909              -0.000675105               0.002473853               0.001798748               0.000000000               0.000000000               0.000000000               0.000000000               0.000300712               0.006307036              -0.000383820              -0.000675611               0.002327528               0.001651917               0.000000000               0.000000000               0.000000000               0.000000000               0.000178717               0.005858745              -0.000345087              -0.000665323               0.002174670               0.001509347               0.000000000               0.000000000               0.000000000               0.000000000               0.000085817               0.005387236              -0.000295801              -0.000641222               0.002009468               0.001368246               0.000000000               0.000000000               0.000000000               0.000000000               0.000024734               0.004878501              -0.000228772              -0.000600536               0.001826329               0.001225793               0.000000000               0.000000000               0.000000000               0.000000000               0.000000663               0.004318346              -0.000130359              -0.000539544               0.001619282               0.001079739               0.000000000               0.000000000               0.000000000               0.000000000              -0.000046031               0.003897744              -0.000082125              -0.000504478               0.001467395               0.000962916               0.000000000               0.000000000               0.000000000               0.000000000               0.002463110               0.021820314               0.003010609              -0.001803870               0.007874655               0.006070785               0.000000000               0.000000000               0.000000000               0.000000000               0.001997242               0.017301231               0.001502326              -0.001413685               0.006238248               0.004824563               0.000000000               0.000000000               0.000000000               0.000000000               0.002195358               0.013779573               0.000011337              -0.000899185               0.004892873               0.003993688               0.000000000               0.000000000               0.000000000               0.000000000               0.001894681               0.011760902              -0.000595243              -0.000759606               0.004173463               0.003413858               0.000000000               0.000000000               0.000000000               0.000000000               0.001501631               0.010458452              -0.000825876              -0.000744193               0.003734180               0.002989987               0.000000000               0.000000000               0.000000000               0.000000000               0.001137764               0.009530231              -0.000895297              -0.000764616               0.003431584               0.002666968               0.000000000               0.000000000               0.000000000               0.000000000               0.000837651               0.008811912              -0.000894923              -0.000787368               0.003199731               0.002412362               0.000000000               0.000000000               0.000000000               0.000000000               0.000588529               0.008215663              -0.000866615              -0.000806258               0.003007280               0.002201022               0.000000000               0.000000000               0.000000000               0.000000000               0.000382001               0.007694765              -0.000822632              -0.000818593               0.002837760               0.002019167               0.000000000               0.000000000               0.000000000               0.000000000               0.000221614               0.007224963              -0.000766972              -0.000820013               0.002681635               0.001861621               0.000000000               0.000000000               0.000000000               0.000000000               0.000098323               0.006783521              -0.000708968              -0.000811067               0.002531507               0.001720440               0.000000000               0.000000000               0.000000000               0.000000000               0.000004449               0.006352784              -0.000648245              -0.000792428               0.002381716               0.001589288               0.000000000               0.000000000               0.000000000               0.000000000              -0.000056619               0.005917331              -0.000576868              -0.000760897               0.002226056               0.001465159               0.000000000               0.000000000               0.000000000               0.000000000              -0.000083399               0.005470387              -0.000487734              -0.000715071               0.002061801               0.001346730               0.000000000               0.000000000               0.000000000               0.000000000              -0.000079552               0.005011863              -0.000372262              -0.000656313               0.001889375               0.001233062               0.000000000               0.000000000               0.000000000               0.000000000              -0.000046344               0.004545491              -0.000211063              -0.000585564               0.001710337               0.001124773               0.000000000               0.000000000               0.000000000               0.000000000              -0.000058592               0.004219533              -0.000130791              -0.000549412               0.001589634               0.001040222               0.000000000               0.000000000               0.000000000               0.000000000               0.002643166               0.019682964               0.004001927              -0.001469182               0.007050649               0.005581467               0.000000000               0.000000000               0.000000000               0.000000000               0.001712690               0.015933366               0.002004666              -0.001349410               0.005760872               0.004411462               0.000000000               0.000000000               0.000000000               0.000000000               0.001412790               0.013172999               0.000056358              -0.001116826               0.004763231               0.003646405               0.000000000               0.000000000               0.000000000               0.000000000               0.000957747               0.011518344              -0.000696964              -0.001080635               0.004199621               0.003118986               0.000000000               0.000000000               0.000000000               0.000000000               0.000566474               0.010388600              -0.000967754              -0.001086145               0.003824880               0.002738736               0.000000000               0.000000000               0.000000000               0.000000000               0.000269319               0.009536512              -0.001039643              -0.001091067               0.003542495               0.002451428               0.000000000               0.000000000               0.000000000               0.000000000               0.000049920               0.008844684              -0.001028399              -0.001086863               0.003310486               0.002223623               0.000000000               0.000000000               0.000000000               0.000000000              -0.000104941               0.008254267              -0.000986211              -0.001071134               0.003108439               0.002037305               0.000000000               0.000000000               0.000000000               0.000000000              -0.000208774               0.007730780              -0.000932428              -0.001044635               0.002925113               0.001880477               0.000000000               0.000000000               0.000000000               0.000000000              -0.000273257               0.007255399              -0.000869997              -0.001009394               0.002754907               0.001745513               0.000000000               0.000000000               0.000000000               0.000000000              -0.000305844               0.006814114              -0.000803454              -0.000966453               0.002593500               0.001627046               0.000000000               0.000000000               0.000000000               0.000000000              -0.000309130               0.006391571              -0.000729114              -0.000914868               0.002435458               0.001520590               0.000000000               0.000000000               0.000000000               0.000000000              -0.000282629               0.005978176              -0.000638963              -0.000853256               0.002277124               0.001423868               0.000000000               0.000000000               0.000000000               0.000000000              -0.000232123               0.005576336              -0.000531220              -0.000784086               0.002120122               0.001336036               0.000000000               0.000000000               0.000000000               0.000000000              -0.000161393               0.005197670              -0.000396599              -0.000710230               0.001969283               0.001259053               0.000000000               0.000000000               0.000000000               0.000000000              -0.000080993               0.004857071              -0.000218882              -0.000637505               0.001831509               0.001194004               0.000000000               0.000000000               0.000000000               0.000000000              -0.000063269               0.004649137              -0.000129951              -0.000604867               0.001751319               0.001146452               0.000000000               0.000000000               0.000000000               0.000000000               0.002691145               0.017084730               0.004502838              -0.001126412               0.006070323               0.004943911               0.000000000               0.000000000               0.000000000               0.000000000               0.001269010               0.014303184               0.002286817              -0.001312017               0.005205019               0.003893002               0.000000000               0.000000000               0.000000000               0.000000000               0.000449427               0.012458744               0.000161090              -0.001388805               0.004615808               0.003227003               0.000000000               0.000000000               0.000000000               0.000000000              -0.000108269               0.011203074              -0.000610328              -0.001440981               0.004214648               0.002773666               0.000000000               0.000000000               0.000000000               0.000000000              -0.000447089               0.010248731              -0.000869198              -0.001448746               0.003899125               0.002450379               0.000000000               0.000000000               0.000000000               0.000000000              -0.000636927               0.009473530              -0.000928190              -0.001423036               0.003632157               0.002209121               0.000000000               0.000000000               0.000000000               0.000000000              -0.000734885               0.008814215              -0.000911936              -0.001377355               0.003397161               0.002019805               0.000000000               0.000000000               0.000000000               0.000000000              -0.000766803               0.008235547              -0.000872875              -0.001316992               0.003184152               0.001867161               0.000000000               0.000000000               0.000000000               0.000000000              -0.000751138               0.007713745              -0.000825866              -0.001245892               0.002986520               0.001740628               0.000000000               0.000000000               0.000000000               0.000000000              -0.000702761               0.007235849              -0.000772791              -0.001168014               0.002801264               0.001633250               0.000000000               0.000000000               0.000000000               0.000000000              -0.000629592               0.006791801              -0.000713784              -0.001085070               0.002625601               0.001540531               0.000000000               0.000000000               0.000000000               0.000000000              -0.000532771               0.006373183              -0.000642219              -0.000996435               0.002456518               0.001460083               0.000000000               0.000000000               0.000000000               0.000000000              -0.000414940               0.005983477              -0.000553020              -0.000903535               0.002295651               0.001392116               0.000000000               0.000000000               0.000000000               0.000000000              -0.000292537               0.005631974              -0.000447230              -0.000813696               0.002148538               0.001334842               0.000000000               0.000000000               0.000000000               0.000000000              -0.000177482               0.005333134              -0.000320238              -0.000733196               0.002022092               0.001288896               0.000000000               0.000000000               0.000000000               0.000000000              -0.000081193               0.005107316              -0.000168903              -0.000668860               0.001925375               0.001256515               0.000000000               0.000000000               0.000000000               0.000000000              -0.000049592               0.004998185              -0.000094364              -0.000643368               0.001880501               0.001237133               0.000000000               0.000000000               0.000000000               0.000000000               0.002475829               0.014282531               0.004525166              -0.000856882               0.005046423               0.004189540               0.000000000               0.000000000               0.000000000               0.000000000               0.000666174               0.012576623               0.002385834              -0.001322261               0.004632919               0.003310658               0.000000000               0.000000000               0.000000000               0.000000000              -0.000582026               0.011678245               0.000358995              -0.001678036               0.004452055               0.002774018               0.000000000               0.000000000               0.000000000               0.000000000              -0.001149071               0.010791504              -0.000335461              -0.001779835               0.004190411               0.002410575               0.000000000               0.000000000               0.000000000               0.000000000              -0.001367503               0.009994048              -0.000561898              -0.001762065               0.003918671               0.002156606               0.000000000               0.000000000               0.000000000               0.000000000              -0.001407934               0.009292127              -0.000619611              -0.001689487               0.003660507               0.001971020               0.000000000               0.000000000               0.000000000               0.000000000              -0.001360247               0.008666645              -0.000619036              -0.001593419               0.003419993               0.001826573               0.000000000               0.000000000               0.000000000               0.000000000              -0.001261975               0.008103460              -0.000601015              -0.001486169               0.003196516               0.001710347               0.000000000               0.000000000               0.000000000               0.000000000              -0.001132907               0.007588466              -0.000577149              -0.001373395               0.002987262               0.001613867               0.000000000               0.000000000               0.000000000               0.000000000              -0.000979189               0.007113763              -0.000545822              -0.001256413               0.002790035               0.001533622               0.000000000               0.000000000               0.000000000               0.000000000              -0.000804915               0.006669524              -0.000504956              -0.001135531               0.002601663               0.001466132               0.000000000               0.000000000               0.000000000               0.000000000              -0.000620034               0.006258169              -0.000450299              -0.001014781               0.002424296               0.001409515               0.000000000               0.000000000               0.000000000               0.000000000              -0.000438237               0.005894524              -0.000377683              -0.000901152               0.002265206               0.001364054               0.000000000               0.000000000               0.000000000               0.000000000              -0.000278329               0.005591102              -0.000291402              -0.000803259               0.002131435               0.001328176               0.000000000               0.000000000               0.000000000               0.000000000              -0.000150031               0.005359282              -0.000193190              -0.000726170               0.002028466               0.001302296               0.000000000               0.000000000               0.000000000               0.000000000              -0.000060320               0.005208334              -0.000091937              -0.000673660               0.001960647               0.001286987               0.000000000               0.000000000               0.000000000               0.000000000              -0.000031722               0.005146672              -0.000046728              -0.000655228               0.001933949               0.001278721               0.000000000               0.000000000               0.000000000               0.000000000               0.001926591               0.011501936               0.004158670              -0.000715273               0.004072363               0.003357091               0.000000000               0.000000000               0.000000000               0.000000000              -0.000064594               0.010887426               0.002360574              -0.001385149               0.004090822               0.002705672               0.000000000               0.000000000               0.000000000               0.000000000              -0.001563999               0.010858007               0.000654501              -0.001943746               0.004267215               0.002323469               0.000000000               0.000000000               0.000000000               0.000000000              -0.002029789               0.010282301               0.000081680              -0.002046453               0.004109550               0.002063097               0.000000000               0.000000000               0.000000000               0.000000000              -0.002074536               0.009621656              -0.000125722              -0.001980653               0.003867404               0.001886751               0.000000000               0.000000000               0.000000000               0.000000000              -0.001946402               0.008983508              -0.000205859              -0.001852835               0.003612084               0.001759250               0.000000000               0.000000000               0.000000000               0.000000000              -0.001755547               0.008389329              -0.000241797              -0.001706992               0.003365412               0.001658420               0.000000000               0.000000000               0.000000000               0.000000000              -0.001536565               0.007844927              -0.000262951              -0.001556824               0.003133891               0.001577067               0.000000000               0.000000000               0.000000000               0.000000000              -0.001306025               0.007346353              -0.000272900              -0.001408050               0.002918110               0.001510060               0.000000000               0.000000000               0.000000000               0.000000000              -0.001066240               0.006880552              -0.000269434              -0.001259906               0.002713463               0.001453557               0.000000000               0.000000000               0.000000000               0.000000000              -0.000819640               0.006445930              -0.000252500              -0.001113103               0.002519656               0.001406553               0.000000000               0.000000000               0.000000000               0.000000000              -0.000585183               0.006058318              -0.000222741              -0.000976731               0.002344996               0.001368265               0.000000000               0.000000000               0.000000000               0.000000000              -0.000379563               0.005734707              -0.000178930              -0.000859172               0.002197941               0.001338768               0.000000000               0.000000000               0.000000000               0.000000000              -0.000217884               0.005481864              -0.000126173              -0.000766938               0.002082916               0.001315978               0.000000000               0.000000000               0.000000000               0.000000000              -0.000105289               0.005299638              -0.000072011              -0.000701936               0.002000507               0.001298571               0.000000000               0.000000000               0.000000000               0.000000000              -0.000037213               0.005182637              -0.000027078              -0.000661783               0.001948123               0.001286340               0.000000000               0.000000000               0.000000000               0.000000000              -0.000022393               0.005128125              -0.000013699              -0.000649411               0.001925828               0.001276417               0.000000000               0.000000000               0.000000000               0.000000000               0.001080908               0.008925337               0.003501368              -0.000710328               0.003211858               0.002501529               0.000000000               0.000000000               0.000000000               0.000000000              -0.000881421               0.009333609               0.002257342              -0.001497232               0.003610248               0.002113017               0.000000000               0.000000000               0.000000000               0.000000000              -0.002403784               0.010016618               0.001035710              -0.002153491               0.004056669               0.001903178               0.000000000               0.000000000               0.000000000               0.000000000              -0.002666844               0.009692696               0.000573667              -0.002211648               0.003968082               0.001756434               0.000000000               0.000000000               0.000000000               0.000000000              -0.002514532               0.009151938               0.000352998              -0.002086937               0.003746261               0.001659324               0.000000000               0.000000000               0.000000000               0.000000000              -0.002231181               0.008576791               0.000227689              -0.001908787               0.003495164               0.001586377               0.000000000               0.000000000               0.000000000               0.000000000              -0.001916306               0.008020328               0.000141020              -0.001721151               0.003247133               0.001525982               0.000000000               0.000000000               0.000000000               0.000000000              -0.001597026               0.007504204               0.000072817              -0.001536906               0.003013678               0.001476772               0.000000000               0.000000000               0.000000000               0.000000000              -0.001283135               0.007026781               0.000023099              -0.001359520               0.002795410               0.001435890               0.000000000               0.000000000               0.000000000               0.000000000              -0.000980741               0.006576813              -0.000005319              -0.001189877               0.002588875               0.001398998               0.000000000               0.000000000               0.000000000               0.000000000              -0.000699195               0.006168565              -0.000020099              -0.001033266               0.002400590               0.001367324               0.000000000               0.000000000               0.000000000               0.000000000              -0.000457213               0.005823109              -0.000026115              -0.000899341               0.002240797               0.001341456               0.000000000               0.000000000               0.000000000               0.000000000              -0.000269156               0.005548546              -0.000022175              -0.000794500               0.002114330               0.001319830               0.000000000               0.000000000               0.000000000               0.000000000              -0.000136931               0.005345208              -0.000012235              -0.000719498               0.002021551               0.001302053               0.000000000               0.000000000               0.000000000               0.000000000              -0.000054969               0.005203473              -0.000003047              -0.000671046               0.001958155               0.001287110               0.000000000               0.000000000               0.000000000               0.000000000              -0.000015562               0.005109781               0.000000657              -0.000644557               0.001918096               0.001273539               0.000000000               0.000000000               0.000000000               0.000000000              -0.000015971               0.005061863              -0.000004568              -0.000638720               0.001900177               0.001261457               0.000000000               0.000000000               0.000000000               0.000000000               0.000055475               0.006740284               0.002674151              -0.000821732               0.002520649               0.001698916               0.000000000               0.000000000               0.000000000               0.000000000              -0.001671886               0.007942271               0.002127857              -0.001619738               0.003187309               0.001567571               0.000000000               0.000000000               0.000000000               0.000000000              -0.003041949               0.009195410               0.001483385              -0.002290152               0.003828490               0.001538338               0.000000000               0.000000000               0.000000000               0.000000000              -0.003088388               0.009132047               0.001092238              -0.002299646               0.003810534               0.001510888               0.000000000               0.000000000               0.000000000               0.000000000              -0.002773435               0.008731562               0.000834047              -0.002131478               0.003620984               0.001489506               0.000000000               0.000000000               0.000000000               0.000000000              -0.002368361               0.008239484               0.000652193              -0.001918066               0.003385823               0.001467757               0.000000000               0.000000000               0.000000000               0.000000000              -0.001961525               0.007739593               0.000514132              -0.001703017               0.003147511               0.001444494               0.000000000               0.000000000               0.000000000               0.000000000              -0.001568655               0.007268008               0.000399811              -0.001496743               0.002921559               0.001424816               0.000000000               0.000000000               0.000000000               0.000000000              -0.001193127               0.006816113               0.000308013              -0.001299434               0.002705159               0.001405726               0.000000000               0.000000000               0.000000000               0.000000000              -0.000846732               0.006383837               0.000236823              -0.001115501               0.002499758               0.001384257               0.000000000               0.000000000               0.000000000               0.000000000              -0.000549847               0.006001561               0.000178427              -0.000956385               0.002319295               0.001362910               0.000000000               0.000000000               0.000000000               0.000000000              -0.000318818               0.005686764               0.000128252              -0.000830400               0.002172369               0.001341969               0.000000000               0.000000000               0.000000000               0.000000000              -0.000157521               0.005441944               0.000087725              -0.000739311               0.002060400               0.001321089               0.000000000               0.000000000               0.000000000               0.000000000              -0.000057581               0.005262197               0.000055318              -0.000679366               0.001980503               0.001301138               0.000000000               0.000000000               0.000000000               0.000000000              -0.000008833               0.005138117               0.000027604              -0.000645575               0.001927880               0.001282305               0.000000000               0.000000000               0.000000000               0.000000000               0.000002470               0.005059442               0.000006798              -0.000631503               0.001896965               0.001265462               0.000000000               0.000000000               0.000000000               0.000000000              -0.000002911               0.005025544              -0.000003385              -0.000629283               0.001884925               0.001255643               0.000000000               0.000000000               0.000000000               0.000000000              -0.001164091               0.004706086               0.001793698              -0.001024793               0.001910277               0.000885483               0.000000000               0.000000000               0.000000000               0.000000000              -0.002322051               0.006352086               0.001977335              -0.001664777               0.002672266               0.001007489               0.000000000               0.000000000               0.000000000               0.000000000              -0.003395831               0.008011770               0.001951336              -0.002274903               0.003428864               0.001153961               0.000000000               0.000000000               0.000000000               0.000000000              -0.003334889               0.008315935               0.001647077              -0.002290070               0.003535307               0.001245237               0.000000000               0.000000000               0.000000000               0.000000000              -0.002965179               0.008171653               0.001358006              -0.002133394               0.003434988               0.001301594               0.000000000               0.000000000               0.000000000               0.000000000              -0.002518848               0.007862090               0.001120868              -0.001927325               0.003263112               0.001335787               0.000000000               0.000000000               0.000000000               0.000000000              -0.002077454               0.007498718               0.000931020              -0.001716381               0.003071674               0.001355294               0.000000000               0.000000000               0.000000000               0.000000000              -0.001663857               0.007128431               0.000772444              -0.001514997               0.002881119               0.001366122               0.000000000               0.000000000               0.000000000               0.000000000              -0.001276738               0.006760231               0.000637248              -0.001323803               0.002694655               0.001370853               0.000000000               0.000000000               0.000000000               0.000000000              -0.000919215               0.006394822               0.000515451              -0.001144056               0.002512938               0.001368882               0.000000000               0.000000000               0.000000000               0.000000000              -0.000607729               0.006050695               0.000404456              -0.000984233               0.002344956               0.001360723               0.000000000               0.000000000               0.000000000               0.000000000              -0.000357235               0.005749956               0.000305241              -0.000852706               0.002200868               0.001348162               0.000000000               0.000000000               0.000000000               0.000000000              -0.000175330               0.005501063               0.000219422              -0.000753380               0.002084796               0.001331416               0.000000000               0.000000000               0.000000000               0.000000000              -0.000060569               0.005304445               0.000142411              -0.000685767               0.001996720               0.001310952               0.000000000               0.000000000               0.000000000               0.000000000              -0.000002203               0.005160846               0.000074711              -0.000645930               0.001935575               0.001289645               0.000000000               0.000000000               0.000000000               0.000000000               0.000011868               0.005063220               0.000025953              -0.000628450               0.001897206               0.001268756               0.000000000               0.000000000               0.000000000               0.000000000               0.000007741               0.005023972               0.000006874              -0.000625092               0.001883005               0.001257913               0.000000000               0.000000000               0.000000000               0.000000000              -0.002730618               0.002866552               0.000915643              -0.001382298               0.001416273               0.000033975               0.000000000               0.000000000               0.000000000               0.000000000              -0.003054181               0.004762959               0.001749983              -0.001740684               0.002167864               0.000427180               0.000000000               0.000000000               0.000000000               0.000000000              -0.003646307               0.006639992               0.002315991              -0.002197359               0.002945761               0.000748402               0.000000000               0.000000000               0.000000000               0.000000000              -0.003488188               0.007291972               0.002171283              -0.002219562               0.003170487               0.000950924               0.000000000               0.000000000               0.000000000               0.000000000              -0.003098904               0.007442831               0.001895727              -0.002092438               0.003178398               0.001085960               0.000000000               0.000000000               0.000000000               0.000000000              -0.002644885               0.007364295               0.001626496              -0.001912365               0.003092195               0.001179830               0.000000000               0.000000000               0.000000000               0.000000000              -0.002194171               0.007173706               0.001393871              -0.001719524               0.002964386               0.001244862               0.000000000               0.000000000               0.000000000               0.000000000              -0.001769861               0.006932107               0.001196320              -0.001530208               0.002820748               0.001290540               0.000000000               0.000000000               0.000000000               0.000000000              -0.001376718               0.006673720               0.001022869              -0.001350481               0.002674711               0.001324230               0.000000000               0.000000000               0.000000000               0.000000000              -0.001013376               0.006402755               0.000859224              -0.001180358               0.002527683               0.001347325               0.000000000               0.000000000               0.000000000               0.000000000              -0.000683431               0.006120651               0.000705835              -0.001021366               0.002380652               0.001359286               0.000000000               0.000000000               0.000000000               0.000000000              -0.000397664               0.005847148               0.000563519              -0.000880015               0.002242368               0.001362353               0.000000000               0.000000000               0.000000000               0.000000000              -0.000171960               0.005599206               0.000430376              -0.000764384               0.002121178               0.001356794               0.000000000               0.000000000               0.000000000               0.000000000              -0.000017939               0.005385630               0.000304133              -0.000679929               0.002021835               0.001341906               0.000000000               0.000000000               0.000000000               0.000000000               0.000067148               0.005214823               0.000185528              -0.000626671               0.001947147               0.001320476               0.000000000               0.000000000               0.000000000               0.000000000               0.000087722               0.005089996               0.000082918              -0.000603352               0.001897766               0.001294414               0.000000000               0.000000000               0.000000000               0.000000000               0.000073390               0.005034943               0.000033986              -0.000601845               0.001878912               0.001277067               0.000000000               0.000000000               0.000000000               0.000000000              -0.004535387               0.001363986               0.000115753              -0.001871266               0.001078410              -0.000792856               0.000000000               0.000000000               0.000000000               0.000000000              -0.003917069               0.003263672               0.001424739              -0.001876856               0.001713497              -0.000163359               0.000000000               0.000000000               0.000000000               0.000000000              -0.003835207               0.005094671               0.002461674              -0.002075032               0.002389883               0.000314851               0.000000000               0.000000000               0.000000000               0.000000000              -0.003492710               0.005987962               0.002517458              -0.002058257               0.002682052               0.000623795               0.000000000               0.000000000               0.000000000               0.000000000              -0.003071265               0.006406174               0.002310142              -0.001952492               0.002786200               0.000833708               0.000000000               0.000000000               0.000000000               0.000000000              -0.002619326               0.006566177               0.002050551              -0.001803016               0.002789708               0.000986693               0.000000000               0.000000000               0.000000000               0.000000000              -0.002174461               0.006574567               0.001802642              -0.001637241               0.002737247               0.001100006               0.000000000               0.000000000               0.000000000               0.000000000              -0.001753708               0.006498656               0.001583796              -0.001469969               0.002656186               0.001186217               0.000000000               0.000000000               0.000000000               0.000000000              -0.001363048               0.006377149               0.001387721              -0.001308284               0.002561789               0.001253506               0.000000000               0.000000000               0.000000000               0.000000000              -0.000997496               0.006224651               0.001203202              -0.001152140               0.002458909               0.001306770               0.000000000               0.000000000               0.000000000               0.000000000              -0.000655260               0.006035272               0.001028314              -0.001000130               0.002345114               0.001344984               0.000000000               0.000000000               0.000000000               0.000000000              -0.000345267               0.005824564               0.000858712              -0.000857544               0.002227350               0.001369806               0.000000000               0.000000000               0.000000000               0.000000000              -0.000078411               0.005617285               0.000688775              -0.000731563               0.002116264               0.001384701               0.000000000               0.000000000               0.000000000               0.000000000               0.000124202               0.005421179               0.000516259              -0.000631070               0.002017398               0.001386328               0.000000000               0.000000000               0.000000000               0.000000000               0.000248577               0.005247308               0.000341184              -0.000562696               0.001936650               0.001373955               0.000000000               0.000000000               0.000000000               0.000000000               0.000288876               0.005108912               0.000167473              -0.000530284               0.001879715               0.001349431               0.000000000               0.000000000               0.000000000               0.000000000               0.000272237               0.005040988               0.000077535              -0.000528033               0.001856324               0.001328290               0.000000000               0.000000000               0.000000000               0.000000000              -0.006464876               0.000268284              -0.000487809              -0.002457862               0.000908709              -0.001549153               0.000000000               0.000000000               0.000000000               0.000000000              -0.004864798               0.001942482               0.001052083              -0.002067106               0.001336520              -0.000730586               0.000000000               0.000000000               0.000000000               0.000000000              -0.003993230               0.003513957               0.002361275              -0.001936702               0.001816873              -0.000119829               0.000000000               0.000000000               0.000000000               0.000000000              -0.003379902               0.004513209               0.002595224              -0.001831611               0.002114924               0.000283313               0.000000000               0.000000000               0.000000000               0.000000000              -0.002885614               0.005131943               0.002487119              -0.001723595               0.002285161               0.000561566               0.000000000               0.000000000               0.000000000               0.000000000              -0.002431452               0.005506126               0.002276334              -0.001600057               0.002368708               0.000768651               0.000000000               0.000000000               0.000000000               0.000000000              -0.002001711               0.005721829               0.002045687              -0.001465867               0.002395879               0.000930012               0.000000000               0.000000000               0.000000000               0.000000000              -0.001595047               0.005831680               0.001828091              -0.001327100               0.002386240               0.001059140               0.000000000               0.000000000               0.000000000               0.000000000              -0.001215329               0.005862721               0.001630881              -0.001188586               0.002350416               0.001161830               0.000000000               0.000000000               0.000000000               0.000000000              -0.000855417               0.005836314               0.001449913              -0.001050319               0.002295524               0.001245206               0.000000000               0.000000000               0.000000000               0.000000000              -0.000509020               0.005762579               0.001276772              -0.000911203               0.002224575               0.001313371               0.000000000               0.000000000               0.000000000               0.000000000              -0.000176846               0.005653410               0.001104434              -0.000772992               0.002142115               0.001369123               0.000000000               0.000000000               0.000000000               0.000000000               0.000128555               0.005521615               0.000922378              -0.000641992               0.002054517               0.001412525               0.000000000               0.000000000               0.000000000               0.000000000               0.000388747               0.005379621               0.000722212              -0.000526672               0.001968746               0.001442075               0.000000000               0.000000000               0.000000000               0.000000000               0.000584622               0.005238781               0.000503518              -0.000435613               0.001891447               0.001455834               0.000000000               0.000000000               0.000000000               0.000000000               0.000695335               0.005111500               0.000261799              -0.000378186               0.001829878               0.001451692               0.000000000               0.000000000               0.000000000               0.000000000               0.000720307               0.005048098               0.000133182              -0.000360896               0.001802981               0.001442085               0.000000000               0.000000000               0.000000000               0.000000000              -0.008331547              -0.000442484              -0.000802125              -0.003069018               0.000875505              -0.002193512               0.000000000               0.000000000               0.000000000               0.000000000              -0.005815922               0.000866880               0.000691573              -0.002289328               0.001052062              -0.001237266               0.000000000               0.000000000               0.000000000               0.000000000              -0.004134886               0.002043640               0.002018403              -0.001806035               0.001283215              -0.000522819               0.000000000               0.000000000               0.000000000               0.000000000              -0.003200055               0.003030346               0.002351085              -0.001578811               0.001536374              -0.000042437               0.000000000               0.000000000               0.000000000               0.000000000              -0.002586419               0.003771691               0.002334931              -0.001441366               0.001737672               0.000296306               0.000000000               0.000000000               0.000000000               0.000000000              -0.002113178               0.004313294               0.002191700              -0.001331601               0.001881616               0.000550015               0.000000000               0.000000000               0.000000000               0.000000000              -0.001697910               0.004707955               0.002006674              -0.001225209               0.001977705               0.000752496               0.000000000               0.000000000               0.000000000               0.000000000              -0.001311058               0.004989838               0.001818626              -0.001115375               0.002035054               0.000919679               0.000000000               0.000000000               0.000000000               0.000000000              -0.000946398               0.005175683               0.001643744              -0.001001858               0.002059163               0.001057305               0.000000000               0.000000000               0.000000000               0.000000000              -0.000594935               0.005280320               0.001485821              -0.000883139               0.002054469               0.001171329               0.000000000               0.000000000               0.000000000               0.000000000              -0.000247007               0.005332023               0.001337504              -0.000759129               0.002030366               0.001271237               0.000000000               0.000000000               0.000000000               0.000000000               0.000102233               0.005343149               0.001186937              -0.000629555               0.001990884               0.001361328               0.000000000               0.000000000               0.000000000               0.000000000               0.000444438               0.005313890               0.001019477              -0.000497571               0.001937136               0.001439565               0.000000000               0.000000000               0.000000000               0.000000000               0.000772161               0.005254781               0.000827338              -0.000367287               0.001874005               0.001506718               0.000000000               0.000000000               0.000000000               0.000000000               0.001073468               0.005176192               0.000602255              -0.000244473               0.001806871               0.001562398               0.000000000               0.000000000               0.000000000               0.000000000               0.001324190               0.005089144               0.000326015              -0.000139572               0.001742888               0.001603316               0.000000000               0.000000000               0.000000000               0.000000000               0.001461402               0.005054187               0.000178618              -0.000083748               0.001712628               0.001628880               0.000000000               0.000000000               0.000000000               0.000000000              -0.009902336              -0.000836796              -0.000785723              -0.003608774               0.000923986              -0.002684788               0.000000000               0.000000000               0.000000000               0.000000000              -0.006644895               0.000085717               0.000391954              -0.002502548               0.000862749              -0.001639799               0.000000000               0.000000000               0.000000000               0.000000000              -0.004259822               0.000846658               0.001469633              -0.001703264               0.000849967              -0.000853296               0.000000000               0.000000000               0.000000000               0.000000000              -0.003011898               0.001749091               0.001789040              -0.001348096               0.001032388              -0.000315708               0.000000000               0.000000000               0.000000000               0.000000000              -0.002264409               0.002545608               0.001822887              -0.001167352               0.001237644               0.000070291               0.000000000               0.000000000               0.000000000               0.000000000              -0.001750232               0.003197271               0.001744125              -0.001055994               0.001417744               0.000361750               0.000000000               0.000000000               0.000000000               0.000000000              -0.001337402               0.003723362               0.001620769              -0.000966945               0.001563422               0.000596478               0.000000000               0.000000000               0.000000000               0.000000000              -0.000968595               0.004141232               0.001482963              -0.000880876               0.001674022               0.000793146               0.000000000               0.000000000               0.000000000               0.000000000              -0.000622872               0.004459889               0.001352067              -0.000791062               0.001750302               0.000959240               0.000000000               0.000000000               0.000000000               0.000000000              -0.000283674               0.004685808               0.001237545              -0.000692103               0.001792621               0.001100518               0.000000000               0.000000000               0.000000000               0.000000000               0.000062902               0.004851590               0.001130466              -0.000582860               0.001811467               0.001228607               0.000000000               0.000000000               0.000000000               0.000000000               0.000422918               0.004980035               0.001018904              -0.000463909               0.001814632               0.001350722               0.000000000               0.000000000               0.000000000               0.000000000               0.000798775               0.005060917               0.000893082              -0.000333074               0.001797980               0.001464906               0.000000000               0.000000000               0.000000000               0.000000000               0.001195683               0.005093175               0.000745373              -0.000188266               0.001760463               0.001572197               0.000000000               0.000000000               0.000000000               0.000000000               0.001613859               0.005088265               0.000560902              -0.000030837               0.001706350               0.001675514               0.000000000               0.000000000               0.000000000               0.000000000               0.002048537               0.005052802               0.000313898               0.000136600               0.001638717               0.001775317               0.000000000               0.000000000               0.000000000               0.000000000               0.002353727               0.005057832               0.000182807               0.000250416               0.001602455               0.001852871               0.000000000               0.000000000               0.000000000               0.000000000              -0.010954358              -0.001013770              -0.000476318              -0.003981160               0.000989123              -0.002992037               0.000000000               0.000000000               0.000000000               0.000000000              -0.007213709              -0.000381654               0.000171476              -0.002657432               0.000758588              -0.001898845               0.000000000               0.000000000               0.000000000               0.000000000              -0.004350351               0.000066013               0.000774986              -0.001639632               0.000568544              -0.001071088               0.000000000               0.000000000               0.000000000               0.000000000              -0.002869674               0.000879320               0.000970028              -0.001186041               0.000688449              -0.000497593               0.000000000               0.000000000               0.000000000               0.000000000              -0.002011412               0.001687350               0.001004438              -0.000965197               0.000884176              -0.000081021               0.000000000               0.000000000               0.000000000               0.000000000              -0.001454982               0.002395766               0.000972119              -0.000845087               0.001080276               0.000235189               0.000000000               0.000000000               0.000000000               0.000000000              -0.001041538               0.002998719               0.000911369              -0.000765415               0.001254701               0.000489286               0.000000000               0.000000000               0.000000000               0.000000000              -0.000688480               0.003500031               0.000837769              -0.000695683               0.001398559               0.000702877               0.000000000               0.000000000               0.000000000               0.000000000              -0.000354035               0.003909994               0.000766536              -0.000621511               0.001510488               0.000888977               0.000000000               0.000000000               0.000000000               0.000000000              -0.000025867               0.004229917               0.000707202              -0.000538439               0.001589438               0.001050999               0.000000000               0.000000000               0.000000000               0.000000000               0.000311747               0.004482360               0.000651954              -0.000443389               0.001641901               0.001198512               0.000000000               0.000000000               0.000000000               0.000000000               0.000676684               0.004693130               0.000593072              -0.000332884               0.001675322               0.001342438               0.000000000               0.000000000               0.000000000               0.000000000               0.001078812               0.004855000               0.000527315              -0.000202320               0.001685757               0.001483437               0.000000000               0.000000000               0.000000000               0.000000000               0.001529032               0.004960258               0.000448512              -0.000046645               0.001668951               0.001622306               0.000000000               0.000000000               0.000000000               0.000000000               0.002043271               0.005018512               0.000345766               0.000138911               0.001626517               0.001765428               0.000000000               0.000000000               0.000000000               0.000000000               0.002639786               0.005026693               0.000199616               0.000361580               0.001555021               0.001916601               0.000000000               0.000000000               0.000000000               0.000000000               0.003103242               0.005065857               0.000122065               0.000530478               0.001511776               0.002042254               0.000000000               0.000000000               0.000000000               0.000000000               0.000000000               0.000000000               0.000000000               0.000000000               0.000000000               0.000000000               0.000000000               0.000000000               0.000000000               0.000000000               0.000000000               0.000000000               0.000000000               0.000000000               0.000000000               0.000000000               0.000000000               0.000000000               0.000000000               0.000000000               0.000000000               0.000000000               0.000000000               0.000000000               0.000000000               0.000000000               0.000000000               0.000000000               0.000000000               0.000000000               0.000000000               0.000000000               0.000000000               0.000000000               0.000000000               0.000000000               0.000000000               0.000000000               0.000000000               0.000000000               0.000000000               0.000000000               0.000000000               0.000000000               0.000000000               0.000000000               0.000000000               0.000000000               0.000000000               0.000000000               0.000000000               0.000000000               0.000000000               0.000000000               0.000000000               0.000000000               0.000000000               0.000000000               0.000000000               0.000000000               0.000000000               0.000000000               0.000000000               0.000000000               0.000000000               0.000000000               0.000000000               0.000000000               0.000000000               0.000000000               0.000000000               0.000000000               0.000000000               0.000000000               0.000000000               0.000000000               0.000000000               0.000000000               0.000000000               0.000000000               0.000000000               0.000000000               0.000000000               0.000000000               0.000000000               0.000000000               0.000000000               0.000000000               0.000000000               0.000000000               0.000000000               0.000000000               0.000000000               0.000000000               0.000000000               0.000000000               0.000000000               0.000000000               0.000000000               0.000000000               0.000000000               0.000000000               0.000000000               0.000000000               0.000000000               0.000000000               0.000000000               0.000000000               0.000000000               0.000000000               0.000000000               0.000000000               0.000000000               0.000000000               0.000000000               0.000000000               0.000000000               0.000000000               0.000000000               0.000000000               0.000000000               0.000000000               0.000000000               0.000000000               0.000000000               0.000000000               0.000000000               0.000000000               0.000000000               0.000000000               0.000000000               0.000000000               0.000000000               0.000000000               0.000000000               0.000000000               0.000000000               0.000000000               0.000000000               0.000000000               0.000000000               0.000000000               0.000000000               0.000000000               0.000000000               0.000000000               0.000000000               0.000000000               0.000000000               0.000000000               0.000000000               0.000000000               0.000000000               0.000000000               0.000000000               0.000000000               0.000000000               0.000000000               0.000000000               0.000000000               0.000000000               0.000000000               0.000000000               0.000000000               0.000000000               0.000000000               0.000000000               0.000000000               0.000000000               0.000000000 </DataArray>
</PointData>
</Piece>
</UnstructuredGrid> </VTKFile>
