<?xml version="1.0"?>
<VTKFile type="UnstructuredGrid" version="0.1">
<UnstructuredGrid>
<Piece NumberOfPoints="      1156" NumberOfCells="      1024">
<Points>
<DataArray type="Float64"                                    Name="coordinates"                                                      NumberOfComponents=" 3" format="ascii">
              0.133000000               0.000000000               0.000000000               0.155937500               0.000000000               0.000000000               0.178875000               0.000000000               0.000000000               0.201812500               0.000000000               0.000000000               0.224750000               0.000000000               0.000000000               0.247687500               0.000000000               0.000000000               0.270625000               0.000000000               0.000000000               0.293562500               0.000000000               0.000000000               0.316500000               0.000000000               0.000000000               0.339437500               0.000000000               0.000000000               0.362375000               0.000000000               0.000000000               0.385312500               0.000000000               0.000000000               0.408250000               0.000000000               0.000000000               0.431187500               0.000000000               0.000000000               0.454125000               0.000000000               0.000000000               0.477062500               0.000000000               0.000000000               0.500000000               0.000000000               0.000000000               0.132359569               0.013036280               0.000000000               0.155337096               0.016127762               0.000000000               0.178314623               0.019219245               0.000000000               0.201292150               0.022310727               0.000000000               0.224269676               0.025402210               0.000000000               0.247247203               0.028493692               0.000000000               0.270224730               0.031585175               0.000000000               0.293202257               0.034676657               0.000000000               0.316179784               0.037768140               0.000000000               0.339157311               0.040859622               0.000000000               0.362134838               0.043951105               0.000000000               0.385112365               0.047042587               0.000000000               0.408089892               0.050134070               0.000000000               0.431067419               0.053225552               0.000000000               0.454044946               0.056317035               0.000000000               0.477022473               0.059408517               0.000000000               0.500000000               0.062500000               0.000000000               0.130444442               0.025947013               0.000000000               0.153541665               0.032137825               0.000000000               0.176638887               0.038328636               0.000000000               0.199736109               0.044519448               0.000000000               0.222833332               0.050710260               0.000000000               0.245930554               0.056901071               0.000000000               0.269027776               0.063091883               0.000000000               0.292124999               0.069282695               0.000000000               0.315222221               0.075473506               0.000000000               0.338319444               0.081664318               0.000000000               0.361416666               0.087855130               0.000000000               0.384513888               0.094045942               0.000000000               0.407611111               0.100236753               0.000000000               0.430708333               0.106427565               0.000000000               0.453805555               0.112618377               0.000000000               0.476902778               0.118809188               0.000000000               0.500000000               0.125000000               0.000000000               0.127273065               0.038607862               0.000000000               0.150568498               0.047913621               0.000000000               0.173863932               0.057219379               0.000000000               0.197159365               0.066525138               0.000000000               0.220454798               0.075830897               0.000000000               0.243750232               0.085136655               0.000000000               0.267045665               0.094442414               0.000000000               0.290341099               0.103748172               0.000000000               0.313636532               0.113053931               0.000000000               0.336931966               0.122359690               0.000000000               0.360227399               0.131665448               0.000000000               0.383522833               0.140971207               0.000000000               0.406818266               0.150276966               0.000000000               0.430113700               0.159582724               0.000000000               0.453409133               0.168888483               0.000000000               0.476704567               0.178194241               0.000000000               0.500000000               0.187500000               0.000000000               0.122875978               0.050896897               0.000000000               0.146446229               0.063340840               0.000000000               0.170016481               0.075784784               0.000000000               0.193586732               0.088228728               0.000000000               0.217156983               0.100672672               0.000000000               0.240727235               0.113116616               0.000000000               0.264297486               0.125560560               0.000000000               0.287867738               0.138004504               0.000000000               0.311437989               0.150448448               0.000000000               0.335008240               0.162892392               0.000000000               0.358578492               0.175336336               0.000000000               0.382148743               0.187780280               0.000000000               0.405718994               0.200224224               0.000000000               0.429289246               0.212668168               0.000000000               0.452859497               0.225112112               0.000000000               0.476429749               0.237556056               0.000000000               0.500000000               0.250000000               0.000000000               0.117295528               0.062695766               0.000000000               0.141214558               0.078308531               0.000000000               0.165133587               0.093921295               0.000000000               0.189052617               0.109534060               0.000000000               0.212971646               0.125146824               0.000000000               0.236890676               0.140759589               0.000000000               0.260809705               0.156372354               0.000000000               0.284728735               0.171985118               0.000000000               0.308647764               0.187597883               0.000000000               0.332566794               0.203210648               0.000000000               0.356485823               0.218823412               0.000000000               0.380404853               0.234436177               0.000000000               0.404323882               0.250048941               0.000000000               0.428242912               0.265661706               0.000000000               0.452161941               0.281274471               0.000000000               0.476080971               0.296887235               0.000000000               0.500000000               0.312500000               0.000000000               0.110585458               0.073890841               0.000000000               0.134923867               0.092710163               0.000000000               0.159262276               0.111529486               0.000000000               0.183600685               0.130348808               0.000000000               0.207939094               0.149168131               0.000000000               0.232277503               0.167987453               0.000000000               0.256615912               0.186806776               0.000000000               0.280954320               0.205626098               0.000000000               0.305292729               0.224445420               0.000000000               0.329631138               0.243264743               0.000000000               0.353969547               0.262084065               0.000000000               0.378307956               0.280903388               0.000000000               0.402646365               0.299722710               0.000000000               0.426984773               0.318542033               0.000000000               0.451323182               0.337361355               0.000000000               0.475661591               0.356180678               0.000000000               0.500000000               0.375000000               0.000000000               0.102810390               0.084374307               0.000000000               0.127634741               0.106444663               0.000000000               0.152459092               0.128515018               0.000000000               0.177283442               0.150585374               0.000000000               0.202107793               0.172655730               0.000000000               0.226932143               0.194726086               0.000000000               0.251756494               0.216796442               0.000000000               0.276580845               0.238866798               0.000000000               0.301405195               0.260937153               0.000000000               0.326229546               0.283007509               0.000000000               0.351053896               0.305077865               0.000000000               0.375878247               0.327148221               0.000000000               0.400702598               0.349218577               0.000000000               0.425526948               0.371288933               0.000000000               0.450351299               0.393359288               0.000000000               0.475175649               0.415429644               0.000000000               0.500000000               0.437500000               0.000000000               0.094045202               0.094045202               0.000000000               0.119417377               0.119417377               0.000000000               0.144789552               0.144789552               0.000000000               0.170161727               0.170161727               0.000000000               0.195533901               0.195533901               0.000000000               0.220906076               0.220906076               0.000000000               0.246278251               0.246278251               0.000000000               0.271650426               0.271650426               0.000000000               0.297022601               0.297022601               0.000000000               0.322394776               0.322394776               0.000000000               0.347766951               0.347766951               0.000000000               0.373139126               0.373139126               0.000000000               0.398511300               0.398511300               0.000000000               0.423883475               0.423883475               0.000000000               0.449255650               0.449255650               0.000000000               0.474627825               0.474627825               0.000000000               0.500000000               0.500000000               0.000000000               0.084374307               0.102810390               0.000000000               0.106444663               0.127634741               0.000000000               0.128515018               0.152459092               0.000000000               0.150585374               0.177283442               0.000000000               0.172655730               0.202107793               0.000000000               0.194726086               0.226932143               0.000000000               0.216796442               0.251756494               0.000000000               0.238866798               0.276580845               0.000000000               0.260937153               0.301405195               0.000000000               0.283007509               0.326229546               0.000000000               0.305077865               0.351053896               0.000000000               0.327148221               0.375878247               0.000000000               0.349218577               0.400702598               0.000000000               0.371288933               0.425526948               0.000000000               0.393359288               0.450351299               0.000000000               0.415429644               0.475175649               0.000000000               0.437500000               0.500000000               0.000000000               0.073890841               0.110585458               0.000000000               0.092710163               0.134923867               0.000000000               0.111529486               0.159262276               0.000000000               0.130348808               0.183600685               0.000000000               0.149168131               0.207939094               0.000000000               0.167987453               0.232277503               0.000000000               0.186806776               0.256615912               0.000000000               0.205626098               0.280954320               0.000000000               0.224445420               0.305292729               0.000000000               0.243264743               0.329631138               0.000000000               0.262084065               0.353969547               0.000000000               0.280903388               0.378307956               0.000000000               0.299722710               0.402646365               0.000000000               0.318542033               0.426984773               0.000000000               0.337361355               0.451323182               0.000000000               0.356180678               0.475661591               0.000000000               0.375000000               0.500000000               0.000000000               0.062695766               0.117295528               0.000000000               0.078308531               0.141214558               0.000000000               0.093921295               0.165133587               0.000000000               0.109534060               0.189052617               0.000000000               0.125146824               0.212971646               0.000000000               0.140759589               0.236890676               0.000000000               0.156372354               0.260809705               0.000000000               0.171985118               0.284728735               0.000000000               0.187597883               0.308647764               0.000000000               0.203210648               0.332566794               0.000000000               0.218823412               0.356485823               0.000000000               0.234436177               0.380404853               0.000000000               0.250048941               0.404323882               0.000000000               0.265661706               0.428242912               0.000000000               0.281274471               0.452161941               0.000000000               0.296887235               0.476080971               0.000000000               0.312500000               0.500000000               0.000000000               0.050896897               0.122875978               0.000000000               0.063340840               0.146446229               0.000000000               0.075784784               0.170016481               0.000000000               0.088228728               0.193586732               0.000000000               0.100672672               0.217156983               0.000000000               0.113116616               0.240727235               0.000000000               0.125560560               0.264297486               0.000000000               0.138004504               0.287867738               0.000000000               0.150448448               0.311437989               0.000000000               0.162892392               0.335008240               0.000000000               0.175336336               0.358578492               0.000000000               0.187780280               0.382148743               0.000000000               0.200224224               0.405718994               0.000000000               0.212668168               0.429289246               0.000000000               0.225112112               0.452859497               0.000000000               0.237556056               0.476429749               0.000000000               0.250000000               0.500000000               0.000000000               0.038607862               0.127273065               0.000000000               0.047913621               0.150568498               0.000000000               0.057219379               0.173863932               0.000000000               0.066525138               0.197159365               0.000000000               0.075830897               0.220454798               0.000000000               0.085136655               0.243750232               0.000000000               0.094442414               0.267045665               0.000000000               0.103748172               0.290341099               0.000000000               0.113053931               0.313636532               0.000000000               0.122359690               0.336931966               0.000000000               0.131665448               0.360227399               0.000000000               0.140971207               0.383522833               0.000000000               0.150276966               0.406818266               0.000000000               0.159582724               0.430113700               0.000000000               0.168888483               0.453409133               0.000000000               0.178194241               0.476704567               0.000000000               0.187500000               0.500000000               0.000000000               0.025947013               0.130444442               0.000000000               0.032137825               0.153541665               0.000000000               0.038328636               0.176638887               0.000000000               0.044519448               0.199736109               0.000000000               0.050710260               0.222833332               0.000000000               0.056901071               0.245930554               0.000000000               0.063091883               0.269027776               0.000000000               0.069282695               0.292124999               0.000000000               0.075473506               0.315222221               0.000000000               0.081664318               0.338319444               0.000000000               0.087855130               0.361416666               0.000000000               0.094045942               0.384513888               0.000000000               0.100236753               0.407611111               0.000000000               0.106427565               0.430708333               0.000000000               0.112618377               0.453805555               0.000000000               0.118809188               0.476902778               0.000000000               0.125000000               0.500000000               0.000000000               0.013036280               0.132359569               0.000000000               0.016127762               0.155337096               0.000000000               0.019219245               0.178314623               0.000000000               0.022310727               0.201292150               0.000000000               0.025402210               0.224269676               0.000000000               0.028493692               0.247247203               0.000000000               0.031585175               0.270224730               0.000000000               0.034676657               0.293202257               0.000000000               0.037768140               0.316179784               0.000000000               0.040859622               0.339157311               0.000000000               0.043951105               0.362134838               0.000000000               0.047042587               0.385112365               0.000000000               0.050134070               0.408089892               0.000000000               0.053225552               0.431067419               0.000000000               0.056317035               0.454044946               0.000000000               0.059408517               0.477022473               0.000000000               0.062500000               0.500000000               0.000000000               0.000000000               0.133000000               0.000000000               0.000000000               0.155937500               0.000000000               0.000000000               0.178875000               0.000000000               0.000000000               0.201812500               0.000000000               0.000000000               0.224750000               0.000000000               0.000000000               0.247687500               0.000000000               0.000000000               0.270625000               0.000000000               0.000000000               0.293562500               0.000000000               0.000000000               0.316500000               0.000000000               0.000000000               0.339437500               0.000000000               0.000000000               0.362375000               0.000000000               0.000000000               0.385312500               0.000000000               0.000000000               0.408250000               0.000000000               0.000000000               0.431187500               0.000000000               0.000000000               0.454125000               0.000000000               0.000000000               0.477062500               0.000000000               0.000000000               0.500000000               0.000000000               0.133000000               0.000000000               0.000000000               0.155937500               0.000000000               0.000000000               0.178875000               0.000000000               0.000000000               0.201812500               0.000000000               0.000000000               0.224750000               0.000000000               0.000000000               0.247687500               0.000000000               0.000000000               0.270625000               0.000000000               0.000000000               0.293562500               0.000000000               0.000000000               0.316500000               0.000000000               0.000000000               0.339437500               0.000000000               0.000000000               0.362375000               0.000000000               0.000000000               0.385312500               0.000000000               0.000000000               0.408250000               0.000000000               0.000000000               0.431187500               0.000000000               0.000000000               0.454125000               0.000000000               0.000000000               0.477062500               0.000000000               0.000000000               0.500000000               0.000000000               0.000000000               0.132359569              -0.013036280               0.000000000               0.155337096              -0.016127762               0.000000000               0.178314623              -0.019219245               0.000000000               0.201292150              -0.022310727               0.000000000               0.224269676              -0.025402210               0.000000000               0.247247203              -0.028493692               0.000000000               0.270224730              -0.031585175               0.000000000               0.293202257              -0.034676657               0.000000000               0.316179784              -0.037768140               0.000000000               0.339157311              -0.040859622               0.000000000               0.362134838              -0.043951105               0.000000000               0.385112365              -0.047042587               0.000000000               0.408089892              -0.050134070               0.000000000               0.431067419              -0.053225552               0.000000000               0.454044946              -0.056317035               0.000000000               0.477022473              -0.059408517               0.000000000               0.500000000              -0.062500000               0.000000000               0.130444442              -0.025947013               0.000000000               0.153541665              -0.032137825               0.000000000               0.176638887              -0.038328636               0.000000000               0.199736109              -0.044519448               0.000000000               0.222833332              -0.050710260               0.000000000               0.245930554              -0.056901071               0.000000000               0.269027776              -0.063091883               0.000000000               0.292124999              -0.069282695               0.000000000               0.315222221              -0.075473506               0.000000000               0.338319444              -0.081664318               0.000000000               0.361416666              -0.087855130               0.000000000               0.384513888              -0.094045942               0.000000000               0.407611111              -0.100236753               0.000000000               0.430708333              -0.106427565               0.000000000               0.453805555              -0.112618377               0.000000000               0.476902778              -0.118809188               0.000000000               0.500000000              -0.125000000               0.000000000               0.127273065              -0.038607862               0.000000000               0.150568498              -0.047913621               0.000000000               0.173863932              -0.057219379               0.000000000               0.197159365              -0.066525138               0.000000000               0.220454798              -0.075830897               0.000000000               0.243750232              -0.085136655               0.000000000               0.267045665              -0.094442414               0.000000000               0.290341099              -0.103748172               0.000000000               0.313636532              -0.113053931               0.000000000               0.336931966              -0.122359690               0.000000000               0.360227399              -0.131665448               0.000000000               0.383522833              -0.140971207               0.000000000               0.406818266              -0.150276966               0.000000000               0.430113700              -0.159582724               0.000000000               0.453409133              -0.168888483               0.000000000               0.476704567              -0.178194241               0.000000000               0.500000000              -0.187500000               0.000000000               0.122875978              -0.050896897               0.000000000               0.146446229              -0.063340840               0.000000000               0.170016481              -0.075784784               0.000000000               0.193586732              -0.088228728               0.000000000               0.217156983              -0.100672672               0.000000000               0.240727235              -0.113116616               0.000000000               0.264297486              -0.125560560               0.000000000               0.287867738              -0.138004504               0.000000000               0.311437989              -0.150448448               0.000000000               0.335008240              -0.162892392               0.000000000               0.358578492              -0.175336336               0.000000000               0.382148743              -0.187780280               0.000000000               0.405718994              -0.200224224               0.000000000               0.429289246              -0.212668168               0.000000000               0.452859497              -0.225112112               0.000000000               0.476429749              -0.237556056               0.000000000               0.500000000              -0.250000000               0.000000000               0.117295528              -0.062695766               0.000000000               0.141214558              -0.078308531               0.000000000               0.165133587              -0.093921295               0.000000000               0.189052617              -0.109534060               0.000000000               0.212971646              -0.125146824               0.000000000               0.236890676              -0.140759589               0.000000000               0.260809705              -0.156372354               0.000000000               0.284728735              -0.171985118               0.000000000               0.308647764              -0.187597883               0.000000000               0.332566794              -0.203210648               0.000000000               0.356485823              -0.218823412               0.000000000               0.380404853              -0.234436177               0.000000000               0.404323882              -0.250048941               0.000000000               0.428242912              -0.265661706               0.000000000               0.452161941              -0.281274471               0.000000000               0.476080971              -0.296887235               0.000000000               0.500000000              -0.312500000               0.000000000               0.110585458              -0.073890841               0.000000000               0.134923867              -0.092710163               0.000000000               0.159262276              -0.111529486               0.000000000               0.183600685              -0.130348808               0.000000000               0.207939094              -0.149168131               0.000000000               0.232277503              -0.167987453               0.000000000               0.256615912              -0.186806776               0.000000000               0.280954320              -0.205626098               0.000000000               0.305292729              -0.224445420               0.000000000               0.329631138              -0.243264743               0.000000000               0.353969547              -0.262084065               0.000000000               0.378307956              -0.280903388               0.000000000               0.402646365              -0.299722710               0.000000000               0.426984773              -0.318542033               0.000000000               0.451323182              -0.337361355               0.000000000               0.475661591              -0.356180678               0.000000000               0.500000000              -0.375000000               0.000000000               0.102810390              -0.084374307               0.000000000               0.127634741              -0.106444663               0.000000000               0.152459092              -0.128515018               0.000000000               0.177283442              -0.150585374               0.000000000               0.202107793              -0.172655730               0.000000000               0.226932143              -0.194726086               0.000000000               0.251756494              -0.216796442               0.000000000               0.276580845              -0.238866798               0.000000000               0.301405195              -0.260937153               0.000000000               0.326229546              -0.283007509               0.000000000               0.351053896              -0.305077865               0.000000000               0.375878247              -0.327148221               0.000000000               0.400702598              -0.349218577               0.000000000               0.425526948              -0.371288933               0.000000000               0.450351299              -0.393359288               0.000000000               0.475175649              -0.415429644               0.000000000               0.500000000              -0.437500000               0.000000000               0.094045202              -0.094045202               0.000000000               0.119417377              -0.119417377               0.000000000               0.144789552              -0.144789552               0.000000000               0.170161727              -0.170161727               0.000000000               0.195533901              -0.195533901               0.000000000               0.220906076              -0.220906076               0.000000000               0.246278251              -0.246278251               0.000000000               0.271650426              -0.271650426               0.000000000               0.297022601              -0.297022601               0.000000000               0.322394776              -0.322394776               0.000000000               0.347766951              -0.347766951               0.000000000               0.373139126              -0.373139126               0.000000000               0.398511300              -0.398511300               0.000000000               0.423883475              -0.423883475               0.000000000               0.449255650              -0.449255650               0.000000000               0.474627825              -0.474627825               0.000000000               0.500000000              -0.500000000               0.000000000               0.084374307              -0.102810390               0.000000000               0.106444663              -0.127634741               0.000000000               0.128515018              -0.152459092               0.000000000               0.150585374              -0.177283442               0.000000000               0.172655730              -0.202107793               0.000000000               0.194726086              -0.226932143               0.000000000               0.216796442              -0.251756494               0.000000000               0.238866798              -0.276580845               0.000000000               0.260937153              -0.301405195               0.000000000               0.283007509              -0.326229546               0.000000000               0.305077865              -0.351053896               0.000000000               0.327148221              -0.375878247               0.000000000               0.349218577              -0.400702598               0.000000000               0.371288933              -0.425526948               0.000000000               0.393359288              -0.450351299               0.000000000               0.415429644              -0.475175649               0.000000000               0.437500000              -0.500000000               0.000000000               0.073890841              -0.110585458               0.000000000               0.092710163              -0.134923867               0.000000000               0.111529486              -0.159262276               0.000000000               0.130348808              -0.183600685               0.000000000               0.149168131              -0.207939094               0.000000000               0.167987453              -0.232277503               0.000000000               0.186806776              -0.256615912               0.000000000               0.205626098              -0.280954320               0.000000000               0.224445420              -0.305292729               0.000000000               0.243264743              -0.329631138               0.000000000               0.262084065              -0.353969547               0.000000000               0.280903388              -0.378307956               0.000000000               0.299722710              -0.402646365               0.000000000               0.318542033              -0.426984773               0.000000000               0.337361355              -0.451323182               0.000000000               0.356180678              -0.475661591               0.000000000               0.375000000              -0.500000000               0.000000000               0.062695766              -0.117295528               0.000000000               0.078308531              -0.141214558               0.000000000               0.093921295              -0.165133587               0.000000000               0.109534060              -0.189052617               0.000000000               0.125146824              -0.212971646               0.000000000               0.140759589              -0.236890676               0.000000000               0.156372354              -0.260809705               0.000000000               0.171985118              -0.284728735               0.000000000               0.187597883              -0.308647764               0.000000000               0.203210648              -0.332566794               0.000000000               0.218823412              -0.356485823               0.000000000               0.234436177              -0.380404853               0.000000000               0.250048941              -0.404323882               0.000000000               0.265661706              -0.428242912               0.000000000               0.281274471              -0.452161941               0.000000000               0.296887235              -0.476080971               0.000000000               0.312500000              -0.500000000               0.000000000               0.050896897              -0.122875978               0.000000000               0.063340840              -0.146446229               0.000000000               0.075784784              -0.170016481               0.000000000               0.088228728              -0.193586732               0.000000000               0.100672672              -0.217156983               0.000000000               0.113116616              -0.240727235               0.000000000               0.125560560              -0.264297486               0.000000000               0.138004504              -0.287867738               0.000000000               0.150448448              -0.311437989               0.000000000               0.162892392              -0.335008240               0.000000000               0.175336336              -0.358578492               0.000000000               0.187780280              -0.382148743               0.000000000               0.200224224              -0.405718994               0.000000000               0.212668168              -0.429289246               0.000000000               0.225112112              -0.452859497               0.000000000               0.237556056              -0.476429749               0.000000000               0.250000000              -0.500000000               0.000000000               0.038607862              -0.127273065               0.000000000               0.047913621              -0.150568498               0.000000000               0.057219379              -0.173863932               0.000000000               0.066525138              -0.197159365               0.000000000               0.075830897              -0.220454798               0.000000000               0.085136655              -0.243750232               0.000000000               0.094442414              -0.267045665               0.000000000               0.103748172              -0.290341099               0.000000000               0.113053931              -0.313636532               0.000000000               0.122359690              -0.336931966               0.000000000               0.131665448              -0.360227399               0.000000000               0.140971207              -0.383522833               0.000000000               0.150276966              -0.406818266               0.000000000               0.159582724              -0.430113700               0.000000000               0.168888483              -0.453409133               0.000000000               0.178194241              -0.476704567               0.000000000               0.187500000              -0.500000000               0.000000000               0.025947013              -0.130444442               0.000000000               0.032137825              -0.153541665               0.000000000               0.038328636              -0.176638887               0.000000000               0.044519448              -0.199736109               0.000000000               0.050710260              -0.222833332               0.000000000               0.056901071              -0.245930554               0.000000000               0.063091883              -0.269027776               0.000000000               0.069282695              -0.292124999               0.000000000               0.075473506              -0.315222221               0.000000000               0.081664318              -0.338319444               0.000000000               0.087855130              -0.361416666               0.000000000               0.094045942              -0.384513888               0.000000000               0.100236753              -0.407611111               0.000000000               0.106427565              -0.430708333               0.000000000               0.112618377              -0.453805555               0.000000000               0.118809188              -0.476902778               0.000000000               0.125000000              -0.500000000               0.000000000               0.013036280              -0.132359569               0.000000000               0.016127762              -0.155337096               0.000000000               0.019219245              -0.178314623               0.000000000               0.022310727              -0.201292150               0.000000000               0.025402210              -0.224269676               0.000000000               0.028493692              -0.247247203               0.000000000               0.031585175              -0.270224730               0.000000000               0.034676657              -0.293202257               0.000000000               0.037768140              -0.316179784               0.000000000               0.040859622              -0.339157311               0.000000000               0.043951105              -0.362134838               0.000000000               0.047042587              -0.385112365               0.000000000               0.050134070              -0.408089892               0.000000000               0.053225552              -0.431067419               0.000000000               0.056317035              -0.454044946               0.000000000               0.059408517              -0.477022473               0.000000000               0.062500000              -0.500000000               0.000000000               0.000000000              -0.133000000               0.000000000               0.000000000              -0.155937500               0.000000000               0.000000000              -0.178875000               0.000000000               0.000000000              -0.201812500               0.000000000               0.000000000              -0.224750000               0.000000000               0.000000000              -0.247687500               0.000000000               0.000000000              -0.270625000               0.000000000               0.000000000              -0.293562500               0.000000000               0.000000000              -0.316500000               0.000000000               0.000000000              -0.339437500               0.000000000               0.000000000              -0.362375000               0.000000000               0.000000000              -0.385312500               0.000000000               0.000000000              -0.408250000               0.000000000               0.000000000              -0.431187500               0.000000000               0.000000000              -0.454125000               0.000000000               0.000000000              -0.477062500               0.000000000               0.000000000              -0.500000000               0.000000000              -0.133000000               0.000000000               0.000000000              -0.155937500               0.000000000               0.000000000              -0.178875000               0.000000000               0.000000000              -0.201812500               0.000000000               0.000000000              -0.224750000               0.000000000               0.000000000              -0.247687500               0.000000000               0.000000000              -0.270625000               0.000000000               0.000000000              -0.293562500               0.000000000               0.000000000              -0.316500000               0.000000000               0.000000000              -0.339437500               0.000000000               0.000000000              -0.362375000               0.000000000               0.000000000              -0.385312500               0.000000000               0.000000000              -0.408250000               0.000000000               0.000000000              -0.431187500               0.000000000               0.000000000              -0.454125000               0.000000000               0.000000000              -0.477062500               0.000000000               0.000000000              -0.500000000               0.000000000               0.000000000              -0.132359569              -0.013036280               0.000000000              -0.155337096              -0.016127762               0.000000000              -0.178314623              -0.019219245               0.000000000              -0.201292150              -0.022310727               0.000000000              -0.224269676              -0.025402210               0.000000000              -0.247247203              -0.028493692               0.000000000              -0.270224730              -0.031585175               0.000000000              -0.293202257              -0.034676657               0.000000000              -0.316179784              -0.037768140               0.000000000              -0.339157311              -0.040859622               0.000000000              -0.362134838              -0.043951105               0.000000000              -0.385112365              -0.047042587               0.000000000              -0.408089892              -0.050134070               0.000000000              -0.431067419              -0.053225552               0.000000000              -0.454044946              -0.056317035               0.000000000              -0.477022473              -0.059408517               0.000000000              -0.500000000              -0.062500000               0.000000000              -0.130444442              -0.025947013               0.000000000              -0.153541665              -0.032137825               0.000000000              -0.176638887              -0.038328636               0.000000000              -0.199736109              -0.044519448               0.000000000              -0.222833332              -0.050710260               0.000000000              -0.245930554              -0.056901071               0.000000000              -0.269027776              -0.063091883               0.000000000              -0.292124999              -0.069282695               0.000000000              -0.315222221              -0.075473506               0.000000000              -0.338319444              -0.081664318               0.000000000              -0.361416666              -0.087855130               0.000000000              -0.384513888              -0.094045942               0.000000000              -0.407611111              -0.100236753               0.000000000              -0.430708333              -0.106427565               0.000000000              -0.453805555              -0.112618377               0.000000000              -0.476902778              -0.118809188               0.000000000              -0.500000000              -0.125000000               0.000000000              -0.127273065              -0.038607862               0.000000000              -0.150568498              -0.047913621               0.000000000              -0.173863932              -0.057219379               0.000000000              -0.197159365              -0.066525138               0.000000000              -0.220454798              -0.075830897               0.000000000              -0.243750232              -0.085136655               0.000000000              -0.267045665              -0.094442414               0.000000000              -0.290341099              -0.103748172               0.000000000              -0.313636532              -0.113053931               0.000000000              -0.336931966              -0.122359690               0.000000000              -0.360227399              -0.131665448               0.000000000              -0.383522833              -0.140971207               0.000000000              -0.406818266              -0.150276966               0.000000000              -0.430113700              -0.159582724               0.000000000              -0.453409133              -0.168888483               0.000000000              -0.476704567              -0.178194241               0.000000000              -0.500000000              -0.187500000               0.000000000              -0.122875978              -0.050896897               0.000000000              -0.146446229              -0.063340840               0.000000000              -0.170016481              -0.075784784               0.000000000              -0.193586732              -0.088228728               0.000000000              -0.217156983              -0.100672672               0.000000000              -0.240727235              -0.113116616               0.000000000              -0.264297486              -0.125560560               0.000000000              -0.287867738              -0.138004504               0.000000000              -0.311437989              -0.150448448               0.000000000              -0.335008240              -0.162892392               0.000000000              -0.358578492              -0.175336336               0.000000000              -0.382148743              -0.187780280               0.000000000              -0.405718994              -0.200224224               0.000000000              -0.429289246              -0.212668168               0.000000000              -0.452859497              -0.225112112               0.000000000              -0.476429749              -0.237556056               0.000000000              -0.500000000              -0.250000000               0.000000000              -0.117295528              -0.062695766               0.000000000              -0.141214558              -0.078308531               0.000000000              -0.165133587              -0.093921295               0.000000000              -0.189052617              -0.109534060               0.000000000              -0.212971646              -0.125146824               0.000000000              -0.236890676              -0.140759589               0.000000000              -0.260809705              -0.156372354               0.000000000              -0.284728735              -0.171985118               0.000000000              -0.308647764              -0.187597883               0.000000000              -0.332566794              -0.203210648               0.000000000              -0.356485823              -0.218823412               0.000000000              -0.380404853              -0.234436177               0.000000000              -0.404323882              -0.250048941               0.000000000              -0.428242912              -0.265661706               0.000000000              -0.452161941              -0.281274471               0.000000000              -0.476080971              -0.296887235               0.000000000              -0.500000000              -0.312500000               0.000000000              -0.110585458              -0.073890841               0.000000000              -0.134923867              -0.092710163               0.000000000              -0.159262276              -0.111529486               0.000000000              -0.183600685              -0.130348808               0.000000000              -0.207939094              -0.149168131               0.000000000              -0.232277503              -0.167987453               0.000000000              -0.256615912              -0.186806776               0.000000000              -0.280954320              -0.205626098               0.000000000              -0.305292729              -0.224445420               0.000000000              -0.329631138              -0.243264743               0.000000000              -0.353969547              -0.262084065               0.000000000              -0.378307956              -0.280903388               0.000000000              -0.402646365              -0.299722710               0.000000000              -0.426984773              -0.318542033               0.000000000              -0.451323182              -0.337361355               0.000000000              -0.475661591              -0.356180678               0.000000000              -0.500000000              -0.375000000               0.000000000              -0.102810390              -0.084374307               0.000000000              -0.127634741              -0.106444663               0.000000000              -0.152459092              -0.128515018               0.000000000              -0.177283442              -0.150585374               0.000000000              -0.202107793              -0.172655730               0.000000000              -0.226932143              -0.194726086               0.000000000              -0.251756494              -0.216796442               0.000000000              -0.276580845              -0.238866798               0.000000000              -0.301405195              -0.260937153               0.000000000              -0.326229546              -0.283007509               0.000000000              -0.351053896              -0.305077865               0.000000000              -0.375878247              -0.327148221               0.000000000              -0.400702598              -0.349218577               0.000000000              -0.425526948              -0.371288933               0.000000000              -0.450351299              -0.393359288               0.000000000              -0.475175649              -0.415429644               0.000000000              -0.500000000              -0.437500000               0.000000000              -0.094045202              -0.094045202               0.000000000              -0.119417377              -0.119417377               0.000000000              -0.144789552              -0.144789552               0.000000000              -0.170161727              -0.170161727               0.000000000              -0.195533901              -0.195533901               0.000000000              -0.220906076              -0.220906076               0.000000000              -0.246278251              -0.246278251               0.000000000              -0.271650426              -0.271650426               0.000000000              -0.297022601              -0.297022601               0.000000000              -0.322394776              -0.322394776               0.000000000              -0.347766951              -0.347766951               0.000000000              -0.373139126              -0.373139126               0.000000000              -0.398511300              -0.398511300               0.000000000              -0.423883475              -0.423883475               0.000000000              -0.449255650              -0.449255650               0.000000000              -0.474627825              -0.474627825               0.000000000              -0.500000000              -0.500000000               0.000000000              -0.084374307              -0.102810390               0.000000000              -0.106444663              -0.127634741               0.000000000              -0.128515018              -0.152459092               0.000000000              -0.150585374              -0.177283442               0.000000000              -0.172655730              -0.202107793               0.000000000              -0.194726086              -0.226932143               0.000000000              -0.216796442              -0.251756494               0.000000000              -0.238866798              -0.276580845               0.000000000              -0.260937153              -0.301405195               0.000000000              -0.283007509              -0.326229546               0.000000000              -0.305077865              -0.351053896               0.000000000              -0.327148221              -0.375878247               0.000000000              -0.349218577              -0.400702598               0.000000000              -0.371288933              -0.425526948               0.000000000              -0.393359288              -0.450351299               0.000000000              -0.415429644              -0.475175649               0.000000000              -0.437500000              -0.500000000               0.000000000              -0.073890841              -0.110585458               0.000000000              -0.092710163              -0.134923867               0.000000000              -0.111529486              -0.159262276               0.000000000              -0.130348808              -0.183600685               0.000000000              -0.149168131              -0.207939094               0.000000000              -0.167987453              -0.232277503               0.000000000              -0.186806776              -0.256615912               0.000000000              -0.205626098              -0.280954320               0.000000000              -0.224445420              -0.305292729               0.000000000              -0.243264743              -0.329631138               0.000000000              -0.262084065              -0.353969547               0.000000000              -0.280903388              -0.378307956               0.000000000              -0.299722710              -0.402646365               0.000000000              -0.318542033              -0.426984773               0.000000000              -0.337361355              -0.451323182               0.000000000              -0.356180678              -0.475661591               0.000000000              -0.375000000              -0.500000000               0.000000000              -0.062695766              -0.117295528               0.000000000              -0.078308531              -0.141214558               0.000000000              -0.093921295              -0.165133587               0.000000000              -0.109534060              -0.189052617               0.000000000              -0.125146824              -0.212971646               0.000000000              -0.140759589              -0.236890676               0.000000000              -0.156372354              -0.260809705               0.000000000              -0.171985118              -0.284728735               0.000000000              -0.187597883              -0.308647764               0.000000000              -0.203210648              -0.332566794               0.000000000              -0.218823412              -0.356485823               0.000000000              -0.234436177              -0.380404853               0.000000000              -0.250048941              -0.404323882               0.000000000              -0.265661706              -0.428242912               0.000000000              -0.281274471              -0.452161941               0.000000000              -0.296887235              -0.476080971               0.000000000              -0.312500000              -0.500000000               0.000000000              -0.050896897              -0.122875978               0.000000000              -0.063340840              -0.146446229               0.000000000              -0.075784784              -0.170016481               0.000000000              -0.088228728              -0.193586732               0.000000000              -0.100672672              -0.217156983               0.000000000              -0.113116616              -0.240727235               0.000000000              -0.125560560              -0.264297486               0.000000000              -0.138004504              -0.287867738               0.000000000              -0.150448448              -0.311437989               0.000000000              -0.162892392              -0.335008240               0.000000000              -0.175336336              -0.358578492               0.000000000              -0.187780280              -0.382148743               0.000000000              -0.200224224              -0.405718994               0.000000000              -0.212668168              -0.429289246               0.000000000              -0.225112112              -0.452859497               0.000000000              -0.237556056              -0.476429749               0.000000000              -0.250000000              -0.500000000               0.000000000              -0.038607862              -0.127273065               0.000000000              -0.047913621              -0.150568498               0.000000000              -0.057219379              -0.173863932               0.000000000              -0.066525138              -0.197159365               0.000000000              -0.075830897              -0.220454798               0.000000000              -0.085136655              -0.243750232               0.000000000              -0.094442414              -0.267045665               0.000000000              -0.103748172              -0.290341099               0.000000000              -0.113053931              -0.313636532               0.000000000              -0.122359690              -0.336931966               0.000000000              -0.131665448              -0.360227399               0.000000000              -0.140971207              -0.383522833               0.000000000              -0.150276966              -0.406818266               0.000000000              -0.159582724              -0.430113700               0.000000000              -0.168888483              -0.453409133               0.000000000              -0.178194241              -0.476704567               0.000000000              -0.187500000              -0.500000000               0.000000000              -0.025947013              -0.130444442               0.000000000              -0.032137825              -0.153541665               0.000000000              -0.038328636              -0.176638887               0.000000000              -0.044519448              -0.199736109               0.000000000              -0.050710260              -0.222833332               0.000000000              -0.056901071              -0.245930554               0.000000000              -0.063091883              -0.269027776               0.000000000              -0.069282695              -0.292124999               0.000000000              -0.075473506              -0.315222221               0.000000000              -0.081664318              -0.338319444               0.000000000              -0.087855130              -0.361416666               0.000000000              -0.094045942              -0.384513888               0.000000000              -0.100236753              -0.407611111               0.000000000              -0.106427565              -0.430708333               0.000000000              -0.112618377              -0.453805555               0.000000000              -0.118809188              -0.476902778               0.000000000              -0.125000000              -0.500000000               0.000000000              -0.013036280              -0.132359569               0.000000000              -0.016127762              -0.155337096               0.000000000              -0.019219245              -0.178314623               0.000000000              -0.022310727              -0.201292150               0.000000000              -0.025402210              -0.224269676               0.000000000              -0.028493692              -0.247247203               0.000000000              -0.031585175              -0.270224730               0.000000000              -0.034676657              -0.293202257               0.000000000              -0.037768140              -0.316179784               0.000000000              -0.040859622              -0.339157311               0.000000000              -0.043951105              -0.362134838               0.000000000              -0.047042587              -0.385112365               0.000000000              -0.050134070              -0.408089892               0.000000000              -0.053225552              -0.431067419               0.000000000              -0.056317035              -0.454044946               0.000000000              -0.059408517              -0.477022473               0.000000000              -0.062500000              -0.500000000               0.000000000               0.000000000              -0.133000000               0.000000000               0.000000000              -0.155937500               0.000000000               0.000000000              -0.178875000               0.000000000               0.000000000              -0.201812500               0.000000000               0.000000000              -0.224750000               0.000000000               0.000000000              -0.247687500               0.000000000               0.000000000              -0.270625000               0.000000000               0.000000000              -0.293562500               0.000000000               0.000000000              -0.316500000               0.000000000               0.000000000              -0.339437500               0.000000000               0.000000000              -0.362375000               0.000000000               0.000000000              -0.385312500               0.000000000               0.000000000              -0.408250000               0.000000000               0.000000000              -0.431187500               0.000000000               0.000000000              -0.454125000               0.000000000               0.000000000              -0.477062500               0.000000000               0.000000000              -0.500000000               0.000000000              -0.133000000               0.000000000               0.000000000              -0.155937500               0.000000000               0.000000000              -0.178875000               0.000000000               0.000000000              -0.201812500               0.000000000               0.000000000              -0.224750000               0.000000000               0.000000000              -0.247687500               0.000000000               0.000000000              -0.270625000               0.000000000               0.000000000              -0.293562500               0.000000000               0.000000000              -0.316500000               0.000000000               0.000000000              -0.339437500               0.000000000               0.000000000              -0.362375000               0.000000000               0.000000000              -0.385312500               0.000000000               0.000000000              -0.408250000               0.000000000               0.000000000              -0.431187500               0.000000000               0.000000000              -0.454125000               0.000000000               0.000000000              -0.477062500               0.000000000               0.000000000              -0.500000000               0.000000000               0.000000000              -0.132359569               0.013036280               0.000000000              -0.155337096               0.016127762               0.000000000              -0.178314623               0.019219245               0.000000000              -0.201292150               0.022310727               0.000000000              -0.224269676               0.025402210               0.000000000              -0.247247203               0.028493692               0.000000000              -0.270224730               0.031585175               0.000000000              -0.293202257               0.034676657               0.000000000              -0.316179784               0.037768140               0.000000000              -0.339157311               0.040859622               0.000000000              -0.362134838               0.043951105               0.000000000              -0.385112365               0.047042587               0.000000000              -0.408089892               0.050134070               0.000000000              -0.431067419               0.053225552               0.000000000              -0.454044946               0.056317035               0.000000000              -0.477022473               0.059408517               0.000000000              -0.500000000               0.062500000               0.000000000              -0.130444442               0.025947013               0.000000000              -0.153541665               0.032137825               0.000000000              -0.176638887               0.038328636               0.000000000              -0.199736109               0.044519448               0.000000000              -0.222833332               0.050710260               0.000000000              -0.245930554               0.056901071               0.000000000              -0.269027776               0.063091883               0.000000000              -0.292124999               0.069282695               0.000000000              -0.315222221               0.075473506               0.000000000              -0.338319444               0.081664318               0.000000000              -0.361416666               0.087855130               0.000000000              -0.384513888               0.094045942               0.000000000              -0.407611111               0.100236753               0.000000000              -0.430708333               0.106427565               0.000000000              -0.453805555               0.112618377               0.000000000              -0.476902778               0.118809188               0.000000000              -0.500000000               0.125000000               0.000000000              -0.127273065               0.038607862               0.000000000              -0.150568498               0.047913621               0.000000000              -0.173863932               0.057219379               0.000000000              -0.197159365               0.066525138               0.000000000              -0.220454798               0.075830897               0.000000000              -0.243750232               0.085136655               0.000000000              -0.267045665               0.094442414               0.000000000              -0.290341099               0.103748172               0.000000000              -0.313636532               0.113053931               0.000000000              -0.336931966               0.122359690               0.000000000              -0.360227399               0.131665448               0.000000000              -0.383522833               0.140971207               0.000000000              -0.406818266               0.150276966               0.000000000              -0.430113700               0.159582724               0.000000000              -0.453409133               0.168888483               0.000000000              -0.476704567               0.178194241               0.000000000              -0.500000000               0.187500000               0.000000000              -0.122875978               0.050896897               0.000000000              -0.146446229               0.063340840               0.000000000              -0.170016481               0.075784784               0.000000000              -0.193586732               0.088228728               0.000000000              -0.217156983               0.100672672               0.000000000              -0.240727235               0.113116616               0.000000000              -0.264297486               0.125560560               0.000000000              -0.287867738               0.138004504               0.000000000              -0.311437989               0.150448448               0.000000000              -0.335008240               0.162892392               0.000000000              -0.358578492               0.175336336               0.000000000              -0.382148743               0.187780280               0.000000000              -0.405718994               0.200224224               0.000000000              -0.429289246               0.212668168               0.000000000              -0.452859497               0.225112112               0.000000000              -0.476429749               0.237556056               0.000000000              -0.500000000               0.250000000               0.000000000              -0.117295528               0.062695766               0.000000000              -0.141214558               0.078308531               0.000000000              -0.165133587               0.093921295               0.000000000              -0.189052617               0.109534060               0.000000000              -0.212971646               0.125146824               0.000000000              -0.236890676               0.140759589               0.000000000              -0.260809705               0.156372354               0.000000000              -0.284728735               0.171985118               0.000000000              -0.308647764               0.187597883               0.000000000              -0.332566794               0.203210648               0.000000000              -0.356485823               0.218823412               0.000000000              -0.380404853               0.234436177               0.000000000              -0.404323882               0.250048941               0.000000000              -0.428242912               0.265661706               0.000000000              -0.452161941               0.281274471               0.000000000              -0.476080971               0.296887235               0.000000000              -0.500000000               0.312500000               0.000000000              -0.110585458               0.073890841               0.000000000              -0.134923867               0.092710163               0.000000000              -0.159262276               0.111529486               0.000000000              -0.183600685               0.130348808               0.000000000              -0.207939094               0.149168131               0.000000000              -0.232277503               0.167987453               0.000000000              -0.256615912               0.186806776               0.000000000              -0.280954320               0.205626098               0.000000000              -0.305292729               0.224445420               0.000000000              -0.329631138               0.243264743               0.000000000              -0.353969547               0.262084065               0.000000000              -0.378307956               0.280903388               0.000000000              -0.402646365               0.299722710               0.000000000              -0.426984773               0.318542033               0.000000000              -0.451323182               0.337361355               0.000000000              -0.475661591               0.356180678               0.000000000              -0.500000000               0.375000000               0.000000000              -0.102810390               0.084374307               0.000000000              -0.127634741               0.106444663               0.000000000              -0.152459092               0.128515018               0.000000000              -0.177283442               0.150585374               0.000000000              -0.202107793               0.172655730               0.000000000              -0.226932143               0.194726086               0.000000000              -0.251756494               0.216796442               0.000000000              -0.276580845               0.238866798               0.000000000              -0.301405195               0.260937153               0.000000000              -0.326229546               0.283007509               0.000000000              -0.351053896               0.305077865               0.000000000              -0.375878247               0.327148221               0.000000000              -0.400702598               0.349218577               0.000000000              -0.425526948               0.371288933               0.000000000              -0.450351299               0.393359288               0.000000000              -0.475175649               0.415429644               0.000000000              -0.500000000               0.437500000               0.000000000              -0.094045202               0.094045202               0.000000000              -0.119417377               0.119417377               0.000000000              -0.144789552               0.144789552               0.000000000              -0.170161727               0.170161727               0.000000000              -0.195533901               0.195533901               0.000000000              -0.220906076               0.220906076               0.000000000              -0.246278251               0.246278251               0.000000000              -0.271650426               0.271650426               0.000000000              -0.297022601               0.297022601               0.000000000              -0.322394776               0.322394776               0.000000000              -0.347766951               0.347766951               0.000000000              -0.373139126               0.373139126               0.000000000              -0.398511300               0.398511300               0.000000000              -0.423883475               0.423883475               0.000000000              -0.449255650               0.449255650               0.000000000              -0.474627825               0.474627825               0.000000000              -0.500000000               0.500000000               0.000000000              -0.084374307               0.102810390               0.000000000              -0.106444663               0.127634741               0.000000000              -0.128515018               0.152459092               0.000000000              -0.150585374               0.177283442               0.000000000              -0.172655730               0.202107793               0.000000000              -0.194726086               0.226932143               0.000000000              -0.216796442               0.251756494               0.000000000              -0.238866798               0.276580845               0.000000000              -0.260937153               0.301405195               0.000000000              -0.283007509               0.326229546               0.000000000              -0.305077865               0.351053896               0.000000000              -0.327148221               0.375878247               0.000000000              -0.349218577               0.400702598               0.000000000              -0.371288933               0.425526948               0.000000000              -0.393359288               0.450351299               0.000000000              -0.415429644               0.475175649               0.000000000              -0.437500000               0.500000000               0.000000000              -0.073890841               0.110585458               0.000000000              -0.092710163               0.134923867               0.000000000              -0.111529486               0.159262276               0.000000000              -0.130348808               0.183600685               0.000000000              -0.149168131               0.207939094               0.000000000              -0.167987453               0.232277503               0.000000000              -0.186806776               0.256615912               0.000000000              -0.205626098               0.280954320               0.000000000              -0.224445420               0.305292729               0.000000000              -0.243264743               0.329631138               0.000000000              -0.262084065               0.353969547               0.000000000              -0.280903388               0.378307956               0.000000000              -0.299722710               0.402646365               0.000000000              -0.318542033               0.426984773               0.000000000              -0.337361355               0.451323182               0.000000000              -0.356180678               0.475661591               0.000000000              -0.375000000               0.500000000               0.000000000              -0.062695766               0.117295528               0.000000000              -0.078308531               0.141214558               0.000000000              -0.093921295               0.165133587               0.000000000              -0.109534060               0.189052617               0.000000000              -0.125146824               0.212971646               0.000000000              -0.140759589               0.236890676               0.000000000              -0.156372354               0.260809705               0.000000000              -0.171985118               0.284728735               0.000000000              -0.187597883               0.308647764               0.000000000              -0.203210648               0.332566794               0.000000000              -0.218823412               0.356485823               0.000000000              -0.234436177               0.380404853               0.000000000              -0.250048941               0.404323882               0.000000000              -0.265661706               0.428242912               0.000000000              -0.281274471               0.452161941               0.000000000              -0.296887235               0.476080971               0.000000000              -0.312500000               0.500000000               0.000000000              -0.050896897               0.122875978               0.000000000              -0.063340840               0.146446229               0.000000000              -0.075784784               0.170016481               0.000000000              -0.088228728               0.193586732               0.000000000              -0.100672672               0.217156983               0.000000000              -0.113116616               0.240727235               0.000000000              -0.125560560               0.264297486               0.000000000              -0.138004504               0.287867738               0.000000000              -0.150448448               0.311437989               0.000000000              -0.162892392               0.335008240               0.000000000              -0.175336336               0.358578492               0.000000000              -0.187780280               0.382148743               0.000000000              -0.200224224               0.405718994               0.000000000              -0.212668168               0.429289246               0.000000000              -0.225112112               0.452859497               0.000000000              -0.237556056               0.476429749               0.000000000              -0.250000000               0.500000000               0.000000000              -0.038607862               0.127273065               0.000000000              -0.047913621               0.150568498               0.000000000              -0.057219379               0.173863932               0.000000000              -0.066525138               0.197159365               0.000000000              -0.075830897               0.220454798               0.000000000              -0.085136655               0.243750232               0.000000000              -0.094442414               0.267045665               0.000000000              -0.103748172               0.290341099               0.000000000              -0.113053931               0.313636532               0.000000000              -0.122359690               0.336931966               0.000000000              -0.131665448               0.360227399               0.000000000              -0.140971207               0.383522833               0.000000000              -0.150276966               0.406818266               0.000000000              -0.159582724               0.430113700               0.000000000              -0.168888483               0.453409133               0.000000000              -0.178194241               0.476704567               0.000000000              -0.187500000               0.500000000               0.000000000              -0.025947013               0.130444442               0.000000000              -0.032137825               0.153541665               0.000000000              -0.038328636               0.176638887               0.000000000              -0.044519448               0.199736109               0.000000000              -0.050710260               0.222833332               0.000000000              -0.056901071               0.245930554               0.000000000              -0.063091883               0.269027776               0.000000000              -0.069282695               0.292124999               0.000000000              -0.075473506               0.315222221               0.000000000              -0.081664318               0.338319444               0.000000000              -0.087855130               0.361416666               0.000000000              -0.094045942               0.384513888               0.000000000              -0.100236753               0.407611111               0.000000000              -0.106427565               0.430708333               0.000000000              -0.112618377               0.453805555               0.000000000              -0.118809188               0.476902778               0.000000000              -0.125000000               0.500000000               0.000000000              -0.013036280               0.132359569               0.000000000              -0.016127762               0.155337096               0.000000000              -0.019219245               0.178314623               0.000000000              -0.022310727               0.201292150               0.000000000              -0.025402210               0.224269676               0.000000000              -0.028493692               0.247247203               0.000000000              -0.031585175               0.270224730               0.000000000              -0.034676657               0.293202257               0.000000000              -0.037768140               0.316179784               0.000000000              -0.040859622               0.339157311               0.000000000              -0.043951105               0.362134838               0.000000000              -0.047042587               0.385112365               0.000000000              -0.050134070               0.408089892               0.000000000              -0.053225552               0.431067419               0.000000000              -0.056317035               0.454044946               0.000000000              -0.059408517               0.477022473               0.000000000              -0.062500000               0.500000000               0.000000000               0.000000000               0.133000000               0.000000000               0.000000000               0.155937500               0.000000000               0.000000000               0.178875000               0.000000000               0.000000000               0.201812500               0.000000000               0.000000000               0.224750000               0.000000000               0.000000000               0.247687500               0.000000000               0.000000000               0.270625000               0.000000000               0.000000000               0.293562500               0.000000000               0.000000000               0.316500000               0.000000000               0.000000000               0.339437500               0.000000000               0.000000000               0.362375000               0.000000000               0.000000000               0.385312500               0.000000000               0.000000000               0.408250000               0.000000000               0.000000000               0.431187500               0.000000000               0.000000000               0.454125000               0.000000000               0.000000000               0.477062500               0.000000000               0.000000000               0.500000000               0.000000000 </DataArray>
</Points>
<Cells>
<DataArray type="Int32"                                    Name="connectivity"                                                      NumberOfComponents=" 1" format="ascii">
         0          1         18         17          1          2         19         18          2          3         20         19          3          4         21         20          4          5         22         21          5          6         23         22          6          7         24         23          7          8         25         24          8          9         26         25          9         10         27         26         10         11         28         27         11         12         29         28         12         13         30         29         13         14         31         30         14         15         32         31         15         16         33         32         17         18         35         34         18         19         36         35         19         20         37         36         20         21         38         37         21         22         39         38         22         23         40         39         23         24         41         40         24         25         42         41         25         26         43         42         26         27         44         43         27         28         45         44         28         29         46         45         29         30         47         46         30         31         48         47         31         32         49         48         32         33         50         49         34         35         52         51         35         36         53         52         36         37         54         53         37         38         55         54         38         39         56         55         39         40         57         56         40         41         58         57         41         42         59         58         42         43         60         59         43         44         61         60         44         45         62         61         45         46         63         62         46         47         64         63         47         48         65         64         48         49         66         65         49         50         67         66         51         52         69         68         52         53         70         69         53         54         71         70         54         55         72         71         55         56         73         72         56         57         74         73         57         58         75         74         58         59         76         75         59         60         77         76         60         61         78         77         61         62         79         78         62         63         80         79         63         64         81         80         64         65         82         81         65         66         83         82         66         67         84         83         68         69         86         85         69         70         87         86         70         71         88         87         71         72         89         88         72         73         90         89         73         74         91         90         74         75         92         91         75         76         93         92         76         77         94         93         77         78         95         94         78         79         96         95         79         80         97         96         80         81         98         97         81         82         99         98         82         83        100         99         83         84        101        100         85         86        103        102         86         87        104        103         87         88        105        104         88         89        106        105         89         90        107        106         90         91        108        107         91         92        109        108         92         93        110        109         93         94        111        110         94         95        112        111         95         96        113        112         96         97        114        113         97         98        115        114         98         99        116        115         99        100        117        116        100        101        118        117        102        103        120        119        103        104        121        120        104        105        122        121        105        106        123        122        106        107        124        123        107        108        125        124        108        109        126        125        109        110        127        126        110        111        128        127        111        112        129        128        112        113        130        129        113        114        131        130        114        115        132        131        115        116        133        132        116        117        134        133        117        118        135        134        119        120        137        136        120        121        138        137        121        122        139        138        122        123        140        139        123        124        141        140        124        125        142        141        125        126        143        142        126        127        144        143        127        128        145        144        128        129        146        145        129        130        147        146        130        131        148        147        131        132        149        148        132        133        150        149        133        134        151        150        134        135        152        151        136        137        154        153        137        138        155        154        138        139        156        155        139        140        157        156        140        141        158        157        141        142        159        158        142        143        160        159        143        144        161        160        144        145        162        161        145        146        163        162        146        147        164        163        147        148        165        164        148        149        166        165        149        150        167        166        150        151        168        167        151        152        169        168        153        154        171        170        154        155        172        171        155        156        173        172        156        157        174        173        157        158        175        174        158        159        176        175        159        160        177        176        160        161        178        177        161        162        179        178        162        163        180        179        163        164        181        180        164        165        182        181        165        166        183        182        166        167        184        183        167        168        185        184        168        169        186        185        170        171        188        187        171        172        189        188        172        173        190        189        173        174        191        190        174        175        192        191        175        176        193        192        176        177        194        193        177        178        195        194        178        179        196        195        179        180        197        196        180        181        198        197        181        182        199        198        182        183        200        199        183        184        201        200        184        185        202        201        185        186        203        202        187        188        205        204        188        189        206        205        189        190        207        206        190        191        208        207        191        192        209        208        192        193        210        209        193        194        211        210        194        195        212        211        195        196        213        212        196        197        214        213        197        198        215        214        198        199        216        215        199        200        217        216        200        201        218        217        201        202        219        218        202        203        220        219        204        205        222        221        205        206        223        222        206        207        224        223        207        208        225        224        208        209        226        225        209        210        227        226        210        211        228        227        211        212        229        228        212        213        230        229        213        214        231        230        214        215        232        231        215        216        233        232        216        217        234        233        217        218        235        234        218        219        236        235        219        220        237        236        221        222        239        238        222        223        240        239        223        224        241        240        224        225        242        241        225        226        243        242        226        227        244        243        227        228        245        244        228        229        246        245        229        230        247        246        230        231        248        247        231        232        249        248        232        233        250        249        233        234        251        250        234        235        252        251        235        236        253        252        236        237        254        253        238        239        256        255        239        240        257        256        240        241        258        257        241        242        259        258        242        243        260        259        243        244        261        260        244        245        262        261        245        246        263        262        246        247        264        263        247        248        265        264        248        249        266        265        249        250        267        266        250        251        268        267        251        252        269        268        252        253        270        269        253        254        271        270        255        256        273        272        256        257        274        273        257        258        275        274        258        259        276        275        259        260        277        276        260        261        278        277        261        262        279        278        262        263        280        279        263        264        281        280        264        265        282        281        265        266        283        282        266        267        284        283        267        268        285        284        268        269        286        285        269        270        287        286        270        271        288        287        306        307          1          0        307        308          2          1        308        309          3          2        309        310          4          3        310        311          5          4        311        312          6          5        312        313          7          6        313        314          8          7        314        315          9          8        315        316         10          9        316        317         11         10        317        318         12         11        318        319         13         12        319        320         14         13        320        321         15         14        321        322         16         15        323        324        307        306        324        325        308        307        325        326        309        308        326        327        310        309        327        328        311        310        328        329        312        311        329        330        313        312        330        331        314        313        331        332        315        314        332        333        316        315        333        334        317        316        334        335        318        317        335        336        319        318        336        337        320        319        337        338        321        320        338        339        322        321        340        341        324        323        341        342        325        324        342        343        326        325        343        344        327        326        344        345        328        327        345        346        329        328        346        347        330        329        347        348        331        330        348        349        332        331        349        350        333        332        350        351        334        333        351        352        335        334        352        353        336        335        353        354        337        336        354        355        338        337        355        356        339        338        357        358        341        340        358        359        342        341        359        360        343        342        360        361        344        343        361        362        345        344        362        363        346        345        363        364        347        346        364        365        348        347        365        366        349        348        366        367        350        349        367        368        351        350        368        369        352        351        369        370        353        352        370        371        354        353        371        372        355        354        372        373        356        355        374        375        358        357        375        376        359        358        376        377        360        359        377        378        361        360        378        379        362        361        379        380        363        362        380        381        364        363        381        382        365        364        382        383        366        365        383        384        367        366        384        385        368        367        385        386        369        368        386        387        370        369        387        388        371        370        388        389        372        371        389        390        373        372        391        392        375        374        392        393        376        375        393        394        377        376        394        395        378        377        395        396        379        378        396        397        380        379        397        398        381        380        398        399        382        381        399        400        383        382        400        401        384        383        401        402        385        384        402        403        386        385        403        404        387        386        404        405        388        387        405        406        389        388        406        407        390        389        408        409        392        391        409        410        393        392        410        411        394        393        411        412        395        394        412        413        396        395        413        414        397        396        414        415        398        397        415        416        399        398        416        417        400        399        417        418        401        400        418        419        402        401        419        420        403        402        420        421        404        403        421        422        405        404        422        423        406        405        423        424        407        406        425        426        409        408        426        427        410        409        427        428        411        410        428        429        412        411        429        430        413        412        430        431        414        413        431        432        415        414        432        433        416        415        433        434        417        416        434        435        418        417        435        436        419        418        436        437        420        419        437        438        421        420        438        439        422        421        439        440        423        422        440        441        424        423        442        443        426        425        443        444        427        426        444        445        428        427        445        446        429        428        446        447        430        429        447        448        431        430        448        449        432        431        449        450        433        432        450        451        434        433        451        452        435        434        452        453        436        435        453        454        437        436        454        455        438        437        455        456        439        438        456        457        440        439        457        458        441        440        459        460        443        442        460        461        444        443        461        462        445        444        462        463        446        445        463        464        447        446        464        465        448        447        465        466        449        448        466        467        450        449        467        468        451        450        468        469        452        451        469        470        453        452        470        471        454        453        471        472        455        454        472        473        456        455        473        474        457        456        474        475        458        457        476        477        460        459        477        478        461        460        478        479        462        461        479        480        463        462        480        481        464        463        481        482        465        464        482        483        466        465        483        484        467        466        484        485        468        467        485        486        469        468        486        487        470        469        487        488        471        470        488        489        472        471        489        490        473        472        490        491        474        473        491        492        475        474        493        494        477        476        494        495        478        477        495        496        479        478        496        497        480        479        497        498        481        480        498        499        482        481        499        500        483        482        500        501        484        483        501        502        485        484        502        503        486        485        503        504        487        486        504        505        488        487        505        506        489        488        506        507        490        489        507        508        491        490        508        509        492        491        510        511        494        493        511        512        495        494        512        513        496        495        513        514        497        496        514        515        498        497        515        516        499        498        516        517        500        499        517        518        501        500        518        519        502        501        519        520        503        502        520        521        504        503        521        522        505        504        522        523        506        505        523        524        507        506        524        525        508        507        525        526        509        508        527        528        511        510        528        529        512        511        529        530        513        512        530        531        514        513        531        532        515        514        532        533        516        515        533        534        517        516        534        535        518        517        535        536        519        518        536        537        520        519        537        538        521        520        538        539        522        521        539        540        523        522        540        541        524        523        541        542        525        524        542        543        526        525        544        545        528        527        545        546        529        528        546        547        530        529        547        548        531        530        548        549        532        531        549        550        533        532        550        551        534        533        551        552        535        534        552        553        536        535        553        554        537        536        554        555        538        537        555        556        539        538        556        557        540        539        557        558        541        540        558        559        542        541        559        560        543        542        561        562        545        544        562        563        546        545        563        564        547        546        564        565        548        547        565        566        549        548        566        567        550        549        567        568        551        550        568        569        552        551        569        570        553        552        570        571        554        553        571        572        555        554        572        573        556        555        573        574        557        556        574        575        558        557        575        576        559        558        576        577        560        559        578        579        596        595        579        580        597        596        580        581        598        597        581        582        599        598        582        583        600        599        583        584        601        600        584        585        602        601        585        586        603        602        586        587        604        603        587        588        605        604        588        589        606        605        589        590        607        606        590        591        608        607        591        592        609        608        592        593        610        609        593        594        611        610        595        596        613        612        596        597        614        613        597        598        615        614        598        599        616        615        599        600        617        616        600        601        618        617        601        602        619        618        602        603        620        619        603        604        621        620        604        605        622        621        605        606        623        622        606        607        624        623        607        608        625        624        608        609        626        625        609        610        627        626        610        611        628        627        612        613        630        629        613        614        631        630        614        615        632        631        615        616        633        632        616        617        634        633        617        618        635        634        618        619        636        635        619        620        637        636        620        621        638        637        621        622        639        638        622        623        640        639        623        624        641        640        624        625        642        641        625        626        643        642        626        627        644        643        627        628        645        644        629        630        647        646        630        631        648        647        631        632        649        648        632        633        650        649        633        634        651        650        634        635        652        651        635        636        653        652        636        637        654        653        637        638        655        654        638        639        656        655        639        640        657        656        640        641        658        657        641        642        659        658        642        643        660        659        643        644        661        660        644        645        662        661        646        647        664        663        647        648        665        664        648        649        666        665        649        650        667        666        650        651        668        667        651        652        669        668        652        653        670        669        653        654        671        670        654        655        672        671        655        656        673        672        656        657        674        673        657        658        675        674        658        659        676        675        659        660        677        676        660        661        678        677        661        662        679        678        663        664        681        680        664        665        682        681        665        666        683        682        666        667        684        683        667        668        685        684        668        669        686        685        669        670        687        686        670        671        688        687        671        672        689        688        672        673        690        689        673        674        691        690        674        675        692        691        675        676        693        692        676        677        694        693        677        678        695        694        678        679        696        695        680        681        698        697        681        682        699        698        682        683        700        699        683        684        701        700        684        685        702        701        685        686        703        702        686        687        704        703        687        688        705        704        688        689        706        705        689        690        707        706        690        691        708        707        691        692        709        708        692        693        710        709        693        694        711        710        694        695        712        711        695        696        713        712        697        698        715        714        698        699        716        715        699        700        717        716        700        701        718        717        701        702        719        718        702        703        720        719        703        704        721        720        704        705        722        721        705        706        723        722        706        707        724        723        707        708        725        724        708        709        726        725        709        710        727        726        710        711        728        727        711        712        729        728        712        713        730        729        714        715        732        731        715        716        733        732        716        717        734        733        717        718        735        734        718        719        736        735        719        720        737        736        720        721        738        737        721        722        739        738        722        723        740        739        723        724        741        740        724        725        742        741        725        726        743        742        726        727        744        743        727        728        745        744        728        729        746        745        729        730        747        746        731        732        749        748        732        733        750        749        733        734        751        750        734        735        752        751        735        736        753        752        736        737        754        753        737        738        755        754        738        739        756        755        739        740        757        756        740        741        758        757        741        742        759        758        742        743        760        759        743        744        761        760        744        745        762        761        745        746        763        762        746        747        764        763        748        749        766        765        749        750        767        766        750        751        768        767        751        752        769        768        752        753        770        769        753        754        771        770        754        755        772        771        755        756        773        772        756        757        774        773        757        758        775        774        758        759        776        775        759        760        777        776        760        761        778        777        761        762        779        778        762        763        780        779        763        764        781        780        765        766        783        782        766        767        784        783        767        768        785        784        768        769        786        785        769        770        787        786        770        771        788        787        771        772        789        788        772        773        790        789        773        774        791        790        774        775        792        791        775        776        793        792        776        777        794        793        777        778        795        794        778        779        796        795        779        780        797        796        780        781        798        797        782        783        800        799        783        784        801        800        784        785        802        801        785        786        803        802        786        787        804        803        787        788        805        804        788        789        806        805        789        790        807        806        790        791        808        807        791        792        809        808        792        793        810        809        793        794        811        810        794        795        812        811        795        796        813        812        796        797        814        813        797        798        815        814        799        800        817        816        800        801        818        817        801        802        819        818        802        803        820        819        803        804        821        820        804        805        822        821        805        806        823        822        806        807        824        823        807        808        825        824        808        809        826        825        809        810        827        826        810        811        828        827        811        812        829        828        812        813        830        829        813        814        831        830        814        815        832        831        816        817        834        833        817        818        835        834        818        819        836        835        819        820        837        836        820        821        838        837        821        822        839        838        822        823        840        839        823        824        841        840        824        825        842        841        825        826        843        842        826        827        844        843        827        828        845        844        828        829        846        845        829        830        847        846        830        831        848        847        831        832        849        848        833        834        562        561        834        835        563        562        835        836        564        563        836        837        565        564        837        838        566        565        838        839        567        566        839        840        568        567        840        841        569        568        841        842        570        569        842        843        571        570        843        844        572        571        844        845        573        572        845        846        574        573        846        847        575        574        847        848        576        575        848        849        577        576        884        885        579        578        885        886        580        579        886        887        581        580        887        888        582        581        888        889        583        582        889        890        584        583        890        891        585        584        891        892        586        585        892        893        587        586        893        894        588        587        894        895        589        588        895        896        590        589        896        897        591        590        897        898        592        591        898        899        593        592        899        900        594        593        901        902        885        884        902        903        886        885        903        904        887        886        904        905        888        887        905        906        889        888        906        907        890        889        907        908        891        890        908        909        892        891        909        910        893        892        910        911        894        893        911        912        895        894        912        913        896        895        913        914        897        896        914        915        898        897        915        916        899        898        916        917        900        899        918        919        902        901        919        920        903        902        920        921        904        903        921        922        905        904        922        923        906        905        923        924        907        906        924        925        908        907        925        926        909        908        926        927        910        909        927        928        911        910        928        929        912        911        929        930        913        912        930        931        914        913        931        932        915        914        932        933        916        915        933        934        917        916        935        936        919        918        936        937        920        919        937        938        921        920        938        939        922        921        939        940        923        922        940        941        924        923        941        942        925        924        942        943        926        925        943        944        927        926        944        945        928        927        945        946        929        928        946        947        930        929        947        948        931        930        948        949        932        931        949        950        933        932        950        951        934        933        952        953        936        935        953        954        937        936        954        955        938        937        955        956        939        938        956        957        940        939        957        958        941        940        958        959        942        941        959        960        943        942        960        961        944        943        961        962        945        944        962        963        946        945        963        964        947        946        964        965        948        947        965        966        949        948        966        967        950        949        967        968        951        950        969        970        953        952        970        971        954        953        971        972        955        954        972        973        956        955        973        974        957        956        974        975        958        957        975        976        959        958        976        977        960        959        977        978        961        960        978        979        962        961        979        980        963        962        980        981        964        963        981        982        965        964        982        983        966        965        983        984        967        966        984        985        968        967        986        987        970        969        987        988        971        970        988        989        972        971        989        990        973        972        990        991        974        973        991        992        975        974        992        993        976        975        993        994        977        976        994        995        978        977        995        996        979        978        996        997        980        979        997        998        981        980        998        999        982        981        999       1000        983        982       1000       1001        984        983       1001       1002        985        984       1003       1004        987        986       1004       1005        988        987       1005       1006        989        988       1006       1007        990        989       1007       1008        991        990       1008       1009        992        991       1009       1010        993        992       1010       1011        994        993       1011       1012        995        994       1012       1013        996        995       1013       1014        997        996       1014       1015        998        997       1015       1016        999        998       1016       1017       1000        999       1017       1018       1001       1000       1018       1019       1002       1001       1020       1021       1004       1003       1021       1022       1005       1004       1022       1023       1006       1005       1023       1024       1007       1006       1024       1025       1008       1007       1025       1026       1009       1008       1026       1027       1010       1009       1027       1028       1011       1010       1028       1029       1012       1011       1029       1030       1013       1012       1030       1031       1014       1013       1031       1032       1015       1014       1032       1033       1016       1015       1033       1034       1017       1016       1034       1035       1018       1017       1035       1036       1019       1018       1037       1038       1021       1020       1038       1039       1022       1021       1039       1040       1023       1022       1040       1041       1024       1023       1041       1042       1025       1024       1042       1043       1026       1025       1043       1044       1027       1026       1044       1045       1028       1027       1045       1046       1029       1028       1046       1047       1030       1029       1047       1048       1031       1030       1048       1049       1032       1031       1049       1050       1033       1032       1050       1051       1034       1033       1051       1052       1035       1034       1052       1053       1036       1035       1054       1055       1038       1037       1055       1056       1039       1038       1056       1057       1040       1039       1057       1058       1041       1040       1058       1059       1042       1041       1059       1060       1043       1042       1060       1061       1044       1043       1061       1062       1045       1044       1062       1063       1046       1045       1063       1064       1047       1046       1064       1065       1048       1047       1065       1066       1049       1048       1066       1067       1050       1049       1067       1068       1051       1050       1068       1069       1052       1051       1069       1070       1053       1052       1071       1072       1055       1054       1072       1073       1056       1055       1073       1074       1057       1056       1074       1075       1058       1057       1075       1076       1059       1058       1076       1077       1060       1059       1077       1078       1061       1060       1078       1079       1062       1061       1079       1080       1063       1062       1080       1081       1064       1063       1081       1082       1065       1064       1082       1083       1066       1065       1083       1084       1067       1066       1084       1085       1068       1067       1085       1086       1069       1068       1086       1087       1070       1069       1088       1089       1072       1071       1089       1090       1073       1072       1090       1091       1074       1073       1091       1092       1075       1074       1092       1093       1076       1075       1093       1094       1077       1076       1094       1095       1078       1077       1095       1096       1079       1078       1096       1097       1080       1079       1097       1098       1081       1080       1098       1099       1082       1081       1099       1100       1083       1082       1100       1101       1084       1083       1101       1102       1085       1084       1102       1103       1086       1085       1103       1104       1087       1086       1105       1106       1089       1088       1106       1107       1090       1089       1107       1108       1091       1090       1108       1109       1092       1091       1109       1110       1093       1092       1110       1111       1094       1093       1111       1112       1095       1094       1112       1113       1096       1095       1113       1114       1097       1096       1114       1115       1098       1097       1115       1116       1099       1098       1116       1117       1100       1099       1117       1118       1101       1100       1118       1119       1102       1101       1119       1120       1103       1102       1120       1121       1104       1103       1122       1123       1106       1105       1123       1124       1107       1106       1124       1125       1108       1107       1125       1126       1109       1108       1126       1127       1110       1109       1127       1128       1111       1110       1128       1129       1112       1111       1129       1130       1113       1112       1130       1131       1114       1113       1131       1132       1115       1114       1132       1133       1116       1115       1133       1134       1117       1116       1134       1135       1118       1117       1135       1136       1119       1118       1136       1137       1120       1119       1137       1138       1121       1120        272        273       1123       1122        273        274       1124       1123        274        275       1125       1124        275        276       1126       1125        276        277       1127       1126        277        278       1128       1127        278        279       1129       1128        279        280       1130       1129        280        281       1131       1130        281        282       1132       1131        282        283       1133       1132        283        284       1134       1133        284        285       1135       1134        285        286       1136       1135        286        287       1137       1136        287        288       1138       1137 </DataArray>
<DataArray type="Int32"                                    Name="offsets"                                                      NumberOfComponents=" 1" format="ascii">
         4          8         12         16         20         24         28         32         36         40         44         48         52         56         60         64         68         72         76         80         84         88         92         96        100        104        108        112        116        120        124        128        132        136        140        144        148        152        156        160        164        168        172        176        180        184        188        192        196        200        204        208        212        216        220        224        228        232        236        240        244        248        252        256        260        264        268        272        276        280        284        288        292        296        300        304        308        312        316        320        324        328        332        336        340        344        348        352        356        360        364        368        372        376        380        384        388        392        396        400        404        408        412        416        420        424        428        432        436        440        444        448        452        456        460        464        468        472        476        480        484        488        492        496        500        504        508        512        516        520        524        528        532        536        540        544        548        552        556        560        564        568        572        576        580        584        588        592        596        600        604        608        612        616        620        624        628        632        636        640        644        648        652        656        660        664        668        672        676        680        684        688        692        696        700        704        708        712        716        720        724        728        732        736        740        744        748        752        756        760        764        768        772        776        780        784        788        792        796        800        804        808        812        816        820        824        828        832        836        840        844        848        852        856        860        864        868        872        876        880        884        888        892        896        900        904        908        912        916        920        924        928        932        936        940        944        948        952        956        960        964        968        972        976        980        984        988        992        996       1000       1004       1008       1012       1016       1020       1024       1028       1032       1036       1040       1044       1048       1052       1056       1060       1064       1068       1072       1076       1080       1084       1088       1092       1096       1100       1104       1108       1112       1116       1120       1124       1128       1132       1136       1140       1144       1148       1152       1156       1160       1164       1168       1172       1176       1180       1184       1188       1192       1196       1200       1204       1208       1212       1216       1220       1224       1228       1232       1236       1240       1244       1248       1252       1256       1260       1264       1268       1272       1276       1280       1284       1288       1292       1296       1300       1304       1308       1312       1316       1320       1324       1328       1332       1336       1340       1344       1348       1352       1356       1360       1364       1368       1372       1376       1380       1384       1388       1392       1396       1400       1404       1408       1412       1416       1420       1424       1428       1432       1436       1440       1444       1448       1452       1456       1460       1464       1468       1472       1476       1480       1484       1488       1492       1496       1500       1504       1508       1512       1516       1520       1524       1528       1532       1536       1540       1544       1548       1552       1556       1560       1564       1568       1572       1576       1580       1584       1588       1592       1596       1600       1604       1608       1612       1616       1620       1624       1628       1632       1636       1640       1644       1648       1652       1656       1660       1664       1668       1672       1676       1680       1684       1688       1692       1696       1700       1704       1708       1712       1716       1720       1724       1728       1732       1736       1740       1744       1748       1752       1756       1760       1764       1768       1772       1776       1780       1784       1788       1792       1796       1800       1804       1808       1812       1816       1820       1824       1828       1832       1836       1840       1844       1848       1852       1856       1860       1864       1868       1872       1876       1880       1884       1888       1892       1896       1900       1904       1908       1912       1916       1920       1924       1928       1932       1936       1940       1944       1948       1952       1956       1960       1964       1968       1972       1976       1980       1984       1988       1992       1996       2000       2004       2008       2012       2016       2020       2024       2028       2032       2036       2040       2044       2048       2052       2056       2060       2064       2068       2072       2076       2080       2084       2088       2092       2096       2100       2104       2108       2112       2116       2120       2124       2128       2132       2136       2140       2144       2148       2152       2156       2160       2164       2168       2172       2176       2180       2184       2188       2192       2196       2200       2204       2208       2212       2216       2220       2224       2228       2232       2236       2240       2244       2248       2252       2256       2260       2264       2268       2272       2276       2280       2284       2288       2292       2296       2300       2304       2308       2312       2316       2320       2324       2328       2332       2336       2340       2344       2348       2352       2356       2360       2364       2368       2372       2376       2380       2384       2388       2392       2396       2400       2404       2408       2412       2416       2420       2424       2428       2432       2436       2440       2444       2448       2452       2456       2460       2464       2468       2472       2476       2480       2484       2488       2492       2496       2500       2504       2508       2512       2516       2520       2524       2528       2532       2536       2540       2544       2548       2552       2556       2560       2564       2568       2572       2576       2580       2584       2588       2592       2596       2600       2604       2608       2612       2616       2620       2624       2628       2632       2636       2640       2644       2648       2652       2656       2660       2664       2668       2672       2676       2680       2684       2688       2692       2696       2700       2704       2708       2712       2716       2720       2724       2728       2732       2736       2740       2744       2748       2752       2756       2760       2764       2768       2772       2776       2780       2784       2788       2792       2796       2800       2804       2808       2812       2816       2820       2824       2828       2832       2836       2840       2844       2848       2852       2856       2860       2864       2868       2872       2876       2880       2884       2888       2892       2896       2900       2904       2908       2912       2916       2920       2924       2928       2932       2936       2940       2944       2948       2952       2956       2960       2964       2968       2972       2976       2980       2984       2988       2992       2996       3000       3004       3008       3012       3016       3020       3024       3028       3032       3036       3040       3044       3048       3052       3056       3060       3064       3068       3072       3076       3080       3084       3088       3092       3096       3100       3104       3108       3112       3116       3120       3124       3128       3132       3136       3140       3144       3148       3152       3156       3160       3164       3168       3172       3176       3180       3184       3188       3192       3196       3200       3204       3208       3212       3216       3220       3224       3228       3232       3236       3240       3244       3248       3252       3256       3260       3264       3268       3272       3276       3280       3284       3288       3292       3296       3300       3304       3308       3312       3316       3320       3324       3328       3332       3336       3340       3344       3348       3352       3356       3360       3364       3368       3372       3376       3380       3384       3388       3392       3396       3400       3404       3408       3412       3416       3420       3424       3428       3432       3436       3440       3444       3448       3452       3456       3460       3464       3468       3472       3476       3480       3484       3488       3492       3496       3500       3504       3508       3512       3516       3520       3524       3528       3532       3536       3540       3544       3548       3552       3556       3560       3564       3568       3572       3576       3580       3584       3588       3592       3596       3600       3604       3608       3612       3616       3620       3624       3628       3632       3636       3640       3644       3648       3652       3656       3660       3664       3668       3672       3676       3680       3684       3688       3692       3696       3700       3704       3708       3712       3716       3720       3724       3728       3732       3736       3740       3744       3748       3752       3756       3760       3764       3768       3772       3776       3780       3784       3788       3792       3796       3800       3804       3808       3812       3816       3820       3824       3828       3832       3836       3840       3844       3848       3852       3856       3860       3864       3868       3872       3876       3880       3884       3888       3892       3896       3900       3904       3908       3912       3916       3920       3924       3928       3932       3936       3940       3944       3948       3952       3956       3960       3964       3968       3972       3976       3980       3984       3988       3992       3996       4000       4004       4008       4012       4016       4020       4024       4028       4032       4036       4040       4044       4048       4052       4056       4060       4064       4068       4072       4076       4080       4084       4088       4092       4096 </DataArray>
<DataArray type="UInt8"                                    Name="types"                                                      NumberOfComponents=" 1" format="ascii">
         9          9          9          9          9          9          9          9          9          9          9          9          9          9          9          9          9          9          9          9          9          9          9          9          9          9          9          9          9          9          9          9          9          9          9          9          9          9          9          9          9          9          9          9          9          9          9          9          9          9          9          9          9          9          9          9          9          9          9          9          9          9          9          9          9          9          9          9          9          9          9          9          9          9          9          9          9          9          9          9          9          9          9          9          9          9          9          9          9          9          9          9          9          9          9          9          9          9          9          9          9          9          9          9          9          9          9          9          9          9          9          9          9          9          9          9          9          9          9          9          9          9          9          9          9          9          9          9          9          9          9          9          9          9          9          9          9          9          9          9          9          9          9          9          9          9          9          9          9          9          9          9          9          9          9          9          9          9          9          9          9          9          9          9          9          9          9          9          9          9          9          9          9          9          9          9          9          9          9          9          9          9          9          9          9          9          9          9          9          9          9          9          9          9          9          9          9          9          9          9          9          9          9          9          9          9          9          9          9          9          9          9          9          9          9          9          9          9          9          9          9          9          9          9          9          9          9          9          9          9          9          9          9          9          9          9          9          9          9          9          9          9          9          9          9          9          9          9          9          9          9          9          9          9          9          9          9          9          9          9          9          9          9          9          9          9          9          9          9          9          9          9          9          9          9          9          9          9          9          9          9          9          9          9          9          9          9          9          9          9          9          9          9          9          9          9          9          9          9          9          9          9          9          9          9          9          9          9          9          9          9          9          9          9          9          9          9          9          9          9          9          9          9          9          9          9          9          9          9          9          9          9          9          9          9          9          9          9          9          9          9          9          9          9          9          9          9          9          9          9          9          9          9          9          9          9          9          9          9          9          9          9          9          9          9          9          9          9          9          9          9          9          9          9          9          9          9          9          9          9          9          9          9          9          9          9          9          9          9          9          9          9          9          9          9          9          9          9          9          9          9          9          9          9          9          9          9          9          9          9          9          9          9          9          9          9          9          9          9          9          9          9          9          9          9          9          9          9          9          9          9          9          9          9          9          9          9          9          9          9          9          9          9          9          9          9          9          9          9          9          9          9          9          9          9          9          9          9          9          9          9          9          9          9          9          9          9          9          9          9          9          9          9          9          9          9          9          9          9          9          9          9          9          9          9          9          9          9          9          9          9          9          9          9          9          9          9          9          9          9          9          9          9          9          9          9          9          9          9          9          9          9          9          9          9          9          9          9          9          9          9          9          9          9          9          9          9          9          9          9          9          9          9          9          9          9          9          9          9          9          9          9          9          9          9          9          9          9          9          9          9          9          9          9          9          9          9          9          9          9          9          9          9          9          9          9          9          9          9          9          9          9          9          9          9          9          9          9          9          9          9          9          9          9          9          9          9          9          9          9          9          9          9          9          9          9          9          9          9          9          9          9          9          9          9          9          9          9          9          9          9          9          9          9          9          9          9          9          9          9          9          9          9          9          9          9          9          9          9          9          9          9          9          9          9          9          9          9          9          9          9          9          9          9          9          9          9          9          9          9          9          9          9          9          9          9          9          9          9          9          9          9          9          9          9          9          9          9          9          9          9          9          9          9          9          9          9          9          9          9          9          9          9          9          9          9          9          9          9          9          9          9          9          9          9          9          9          9          9          9          9          9          9          9          9          9          9          9          9          9          9          9          9          9          9          9          9          9          9          9          9          9          9          9          9          9          9          9          9          9          9          9          9          9          9          9          9          9          9          9          9          9          9          9          9          9          9          9          9          9          9          9          9          9          9          9          9          9          9          9          9          9          9          9          9          9          9          9          9          9          9          9          9          9          9          9          9          9          9          9          9          9          9          9          9          9          9          9          9          9          9          9          9          9          9          9          9          9          9          9          9          9          9          9          9          9          9          9          9          9          9          9          9          9          9          9          9          9          9          9          9          9          9          9          9          9          9          9          9          9          9          9          9          9          9          9          9          9          9          9          9          9          9          9          9          9          9          9          9          9          9          9          9          9          9          9          9          9          9          9          9          9          9          9          9          9          9          9          9          9          9          9          9          9          9          9          9          9          9          9          9          9          9          9          9          9          9          9          9          9          9          9          9          9          9          9          9          9          9          9          9          9          9          9          9          9          9          9          9          9          9          9          9          9          9          9          9          9          9          9          9          9          9          9          9          9          9          9          9          9          9          9          9          9          9          9          9          9          9          9          9          9          9          9          9          9          9          9          9          9          9          9          9          9          9          9          9          9          9          9          9          9          9          9          9          9          9          9          9          9          9          9          9          9          9          9          9          9          9          9          9          9          9          9          9          9          9          9          9          9          9          9          9          9          9          9          9          9          9          9          9          9          9          9          9          9          9          9          9          9          9          9          9          9          9          9          9          9          9          9          9          9          9          9 </DataArray>
</Cells>
<CellData>
<DataArray type="Int32"                                    Name="material"                                                      NumberOfComponents=" 1" format="ascii">
         1          1          1          1          1          1          1          1          1          1          1          1          1          1          1          1          1          1          1          1          1          1          1          1          1          1          1          1          1          1          1          1          1          1          1          1          1          1          1          1          1          1          1          1          1          1          1          1          1          1          1          1          1          1          1          1          1          1          1          1          1          1          1          1          1          1          1          1          1          1          1          1          1          1          1          1          1          1          1          1          1          1          1          1          1          1          1          1          1          1          1          1          1          1          1          1          1          1          1          1          1          1          1          1          1          1          1          1          1          1          1          1          1          1          1          1          1          1          1          1          1          1          1          1          1          1          1          1          1          1          1          1          1          1          1          1          1          1          1          1          1          1          1          1          1          1          1          1          1          1          1          1          1          1          1          1          1          1          1          1          1          1          1          1          1          1          1          1          1          1          1          1          1          1          1          1          1          1          1          1          1          1          1          1          1          1          1          1          1          1          1          1          1          1          1          1          1          1          1          1          1          1          1          1          1          1          1          1          1          1          1          1          1          1          1          1          1          1          1          1          1          1          1          1          1          1          1          1          1          1          1          1          1          1          1          1          1          1          1          1          1          1          1          1          1          1          1          1          1          1          1          1          1          1          1          1          1          1          1          1          1          1          1          1          1          1          1          1          1          1          1          1          1          1          1          1          1          1          1          1          1          1          1          1          1          1          1          1          1          1          1          1          1          1          1          1          1          1          1          1          1          1          1          1          1          1          1          1          1          1          1          1          1          1          1          1          1          1          1          1          1          1          1          1          1          1          1          1          1          1          1          1          1          1          1          1          1          1          1          1          1          1          1          1          1          1          1          1          1          1          1          1          1          1          1          1          1          1          1          1          1          1          1          1          1          1          1          1          1          1          1          1          1          1          1          1          1          1          1          1          1          1          1          1          1          1          1          1          1          1          1          1          1          1          1          1          1          1          1          1          1          1          1          1          1          1          1          1          1          1          1          1          1          1          1          1          1          1          1          1          1          1          1          1          1          1          1          1          1          1          1          1          1          1          1          1          1          1          1          1          1          1          1          1          1          1          1          1          1          1          1          1          1          1          1          1          1          1          1          1          1          1          1          1          1          1          1          1          1          1          1          1          1          1          1          1          1          1          1          1          1          1          1          1          1          1          1          1          1          1          1          1          1          1          1          1          1          1          1          1          1          1          1          1          1          1          1          1          1          1          1          1          1          1          1          1          1          1          1          1          1          1          1          1          1          1          1          1          1          1          1          1          1          1          1          1          1          1          1          1          1          1          1          1          1          1          1          1          1          1          1          1          1          1          1          1          1          1          1          1          1          1          1          1          1          1          1          1          1          1          1          1          1          1          1          1          1          1          1          1          1          1          1          1          1          1          1          1          1          1          1          1          1          1          1          1          1          1          1          1          1          1          1          1          1          1          1          1          1          1          1          1          1          1          1          1          1          1          1          1          1          1          1          1          1          1          1          1          1          1          1          1          1          1          1          1          1          1          1          1          1          1          1          1          1          1          1          1          1          1          1          1          1          1          1          1          1          1          1          1          1          1          1          1          1          1          1          1          1          1          1          1          1          1          1          1          1          1          1          1          1          1          1          1          1          1          1          1          1          1          1          1          1          1          1          1          1          1          1          1          1          1          1          1          1          1          1          1          1          1          1          1          1          1          1          1          1          1          1          1          1          1          1          1          1          1          1          1          1          1          1          1          1          1          1          1          1          1          1          1          1          1          1          1          1          1          1          1          1          1          1          1          1          1          1          1          1          1          1          1          1          1          1          1          1          1          1          1          1          1          1          1          1          1          1          1          1          1          1          1          1          1          1          1          1          1          1          1          1          1          1          1          1          1          1          1          1          1          1          1          1          1          1          1          1          1          1          1          1          1          1          1          1          1          1          1          1          1          1          1          1          1          1          1          1          1          1          1          1          1          1          1          1          1          1          1          1          1          1          1          1          1          1          1          1          1          1          1          1          1          1          1          1          1          1          1          1          1          1          1          1          1          1          1          1          1          1          1          1          1          1          1          1          1          1          1          1          1          1          1          1          1          1          1          1          1          1          1          1          1          1          1          1          1          1          1          1          1          1          1          1          1          1          1          1          1          1          1          1          1          1          1          1          1          1          1          1          1          1          1          1          1          1          1          1          1          1          1          1          1          1          1          1          1          1          1          1          1          1          1          1          1          1          1          1          1          1          1          1          1          1          1          1          1          1          1          1          1          1          1          1          1          1          1          1          1          1          1          1          1          1          1          1          1          1          1          1          1          1          1          1          1          1          1          1          1          1          1          1          1          1          1          1          1          1          1          1          1          1          1          1          1          1          1          1          1          1          1          1          1          1          1          1          1          1          1          1          1          1          1          1          1          1          1 </DataArray>
</CellData>
<PointData>
<DataArray type="Float64"                                    Name="u"                                                      NumberOfComponents=" 3" format="ascii">
             -0.000858897               0.000000000               0.999999988              -0.000904382               0.000000000               0.999999988              -0.000923346               0.000000000               0.999999988              -0.000933499               0.000000000               0.999999988              -0.000941462              -0.000000000               0.999999988              -0.000949635              -0.000000000               0.999999988              -0.000958679               0.000000000               0.999999988              -0.000968699               0.000000000               0.999999988              -0.000979414               0.000000000               0.999999988              -0.000990341               0.000000000               0.999999988              -0.001001038              -0.000000000               0.999999988              -0.001011276               0.000000000               0.999999988              -0.001020691               0.000000000               0.999999988              -0.001028901              -0.000000000               0.999999988              -0.001035594               0.000000000               0.999999988              -0.001040239              -0.000000000               0.999999988              -0.001042041               0.000000000               0.999999988              -0.000854397               0.000119386               0.999999988              -0.000895905               0.000094417               0.999999988              -0.000912169               0.000082631               0.999999988              -0.000920573               0.000077352               0.999999988              -0.000927299               0.000075311               0.999999988              -0.000934451               0.000074643               0.999999988              -0.000942609               0.000074498               0.999999988              -0.000951711               0.000074336               0.999999988              -0.000961362               0.000073443               0.999999988              -0.000971083               0.000071540               0.999999988              -0.000980530               0.000068447               0.999999988              -0.000989266               0.000063907               0.999999988              -0.000996834               0.000057528               0.999999988              -0.001003052               0.000048729               0.999999988              -0.001007508               0.000036886               0.999999988              -0.001009814               0.000021340               0.999999988              -0.001009414               0.000000886               0.999999988              -0.000840598               0.000237792               0.999999988              -0.000870624               0.000188420               0.999999988              -0.000879601               0.000166064               0.999999988              -0.000883301               0.000156520               0.999999988              -0.000886739               0.000153234               0.999999988              -0.000891280               0.000152586               0.999999988              -0.000897064               0.000152772               0.999999988              -0.000903642               0.000152649               0.999999988              -0.000910393               0.000151105               0.999999988              -0.000916862               0.000147572               0.999999988              -0.000922539               0.000141596               0.999999988              -0.000926886               0.000132594               0.999999988              -0.000929481               0.000120090               0.999999988              -0.000930064               0.000103291               0.999999988              -0.000928402               0.000081332               0.999999988              -0.000924414               0.000053287               0.999999988              -0.000917957               0.000017625               0.999999988              -0.000817727               0.000354191               0.999999988              -0.000829720               0.000281917               0.999999988              -0.000828226               0.000251056               0.999999988              -0.000825608               0.000239041               0.999999988              -0.000824854               0.000235817               0.999999988              -0.000826044               0.000236081               0.999999988              -0.000828467               0.000237119               0.999999988              -0.000831487               0.000237339               0.999999988              -0.000834250               0.000235324               0.999999988              -0.000835915               0.000230284               0.999999988              -0.000835851               0.000221524               0.999999988              -0.000833566               0.000208370               0.999999988              -0.000828818               0.000190308               0.999999988              -0.000821538               0.000166682               0.999999988              -0.000811615               0.000136923               0.999999988              -0.000799104               0.000100402               0.999999988              -0.000784247               0.000056197               0.999999988              -0.000786294               0.000467604               0.999999988              -0.000775022               0.000374998               0.999999988              -0.000761683               0.000338375               0.999999988              -0.000752848               0.000325780               0.999999988              -0.000748073               0.000323854               0.999999988              -0.000745984               0.000325735               0.999999988              -0.000745138               0.000328028               0.999999988              -0.000744193               0.000328645               0.999999988              -0.000741978               0.000326107               0.999999988              -0.000737637               0.000319340               0.999999988              -0.000730547               0.000307725               0.999999988              -0.000720501               0.000290534               0.999999988              -0.000707225               0.000267606               0.999999988              -0.000690759               0.000238561               0.999999988              -0.000671240               0.000203155               0.999999988              -0.000648915               0.000161273               0.999999988              -0.000624308               0.000112995               0.999999988              -0.000746626               0.000577116               0.999999988              -0.000709188               0.000467880               0.999999988              -0.000684911               0.000428282               0.999999988              -0.000671138               0.000416761               0.999999988              -0.000663628               0.000416922               0.999999988              -0.000659170               0.000420569               0.999999988              -0.000655265               0.000423978               0.999999988              -0.000649971               0.000424599               0.999999988              -0.000641967               0.000421094               0.999999988              -0.000630553               0.000412491               0.999999988              -0.000615280               0.000397963               0.999999988              -0.000595939               0.000377334               0.999999988              -0.000572615               0.000350420               0.999999988              -0.000545474               0.000317204               0.999999988              -0.000514973               0.000278165               0.999999988              -0.000481753               0.000233896               0.999999988              -0.000446883               0.000185475               0.999999988              -0.000699456               0.000681626               0.999999988              -0.000635505               0.000560736               0.999999988              -0.000602818               0.000520585               0.999999988              -0.000586519               0.000511046               0.999999988              -0.000578066               0.000513317               0.999999988              -0.000571869               0.000518501               0.999999988              -0.000564740               0.000522444               0.999999988              -0.000554539               0.000522587               0.999999988              -0.000539968               0.000517643               0.999999988              -0.000520350               0.000507001               0.999999988              -0.000495510               0.000489807               0.999999988              -0.000465488               0.000466179               0.999999988              -0.000430729               0.000436296               0.999999988              -0.000391900               0.000400634               0.999999988              -0.000350027               0.000360267               0.999999988              -0.000306299               0.000316445               0.999999988              -0.000262102               0.000271402               0.999999988              -0.000645832               0.000779965               0.999999988              -0.000557422               0.000653409               0.999999988              -0.000519961               0.000614531               0.999999988              -0.000504012               0.000606981               0.999999988              -0.000495629               0.000611040               0.999999988              -0.000487907               0.000617213               0.999999988              -0.000477261               0.000621196               0.999999988              -0.000461451               0.000620357               0.999999988              -0.000439266               0.000613612               0.999999988              -0.000410273               0.000600747               0.999999988              -0.000374679               0.000581125               0.999999988              -0.000333048               0.000555290               0.999999988              -0.000286399               0.000523718               0.999999988              -0.000235968               0.000487458               0.999999988              -0.000183129               0.000447946               0.999999988              -0.000129340               0.000407055               0.999999988              -0.000075842               0.000366649               0.999999988              -0.000587462               0.000870362               0.999999988              -0.000477746               0.000745736               0.999999988              -0.000440733               0.000708523               0.999999988              -0.000426847               0.000702608               0.999999988              -0.000419130               0.000707854               0.999999988              -0.000409720               0.000714460               0.999999988              -0.000394917               0.000718015               0.999999988              -0.000372609               0.000715842               0.999999988              -0.000341608               0.000707296               0.999999988              -0.000302121               0.000692298               0.999999988              -0.000254791               0.000670981               0.999999988              -0.000200758               0.000644002               0.999999988              -0.000141561               0.000612471               0.999999988              -0.000078721               0.000577958               0.999999988              -0.000013990               0.000542193               0.999999988               0.000051082               0.000506948               0.999999988               0.000115475               0.000473272               0.999999989              -0.000526821               0.000956272               0.999999988              -0.000410782               0.000850204               0.999999988              -0.000371533               0.000810214               0.999999988              -0.000357304               0.000800217               0.999999988              -0.000350513               0.000802926               0.999999988              -0.000343077               0.000809678               0.999999988              -0.000331377               0.000815784               0.999999988              -0.000313352               0.000818688               0.999999988              -0.000287716               0.000816935               0.999999988              -0.000254015               0.000810328               0.999999988              -0.000212466               0.000799007               0.999999988              -0.000163819               0.000783254               0.999999988              -0.000109120               0.000763586               0.999999988              -0.000049259               0.000740893               0.999999988               0.000014769               0.000716480               0.999999988               0.000081273               0.000691678               0.999999988               0.000148395               0.000667868               0.999999988              -0.000460680               0.001034848               0.999999988              -0.000346101               0.000951711               0.999999988              -0.000304809               0.000914896               0.999999988              -0.000289465               0.000903116               0.999999988              -0.000282597               0.000904374               0.999999988              -0.000276463               0.000911432               0.999999988              -0.000267228               0.000919874               0.999999988              -0.000252920               0.000927192               0.999999988              -0.000232310               0.000931711               0.999999988              -0.000204195               0.000932734               0.999999988              -0.000168607               0.000930078               0.999999988              -0.000125880               0.000924057               0.999999988              -0.000076688               0.000914909               0.999999988              -0.000021351               0.000903177               0.999999988               0.000039445               0.000889450               0.999999988               0.000104542               0.000874742               0.999999988               0.000172398               0.000860006               0.999999988              -0.000390301               0.001104017               0.999999988              -0.000283705               0.001047131               0.999999988              -0.000242293               0.001017641               0.999999988              -0.000225682               0.001007216               0.999999988              -0.000218220               0.001008554               0.999999988              -0.000212581               0.001016488               0.999999988              -0.000205247               0.001027264               0.999999988              -0.000194071               0.001038563               0.999999988              -0.000177777               0.001048941               0.999999988              -0.000155222               0.001057024               0.999999988              -0.000125831               0.001062416               0.999999988              -0.000089517               0.001065112               0.999999988              -0.000046380               0.001065401               0.999999988               0.000003384               0.001063554               0.999999988               0.000059390               0.001059876               0.999999988               0.000121351               0.001055005               0.999999988               0.000188226               0.001049619               0.999999988              -0.000316384               0.001162410               0.999999988              -0.000223800               0.001132201               0.999999988              -0.000184880               0.001113152               0.999999988              -0.000167967               0.001106713               0.999999988              -0.000159938               0.001109939               0.999999988              -0.000154474               0.001119513               0.999999988              -0.000148527               0.001132867               0.999999988              -0.000139863               0.001147949               0.999999988              -0.000127403               0.001163394               0.999999988              -0.000110142               0.001178095               0.999999988              -0.000087039               0.001191262               0.999999988              -0.000057401               0.001202449               0.999999988              -0.000021074               0.001211735               0.999999988               0.000021790               0.001219111               0.999999988               0.000071464               0.001224817               0.999999988               0.000128480               0.001229147               0.999999988               0.000192929               0.001232758               0.999999988              -0.000239644               0.001208982               0.999999988              -0.000166099               0.001202950               0.999999988              -0.000132791               0.001195550               0.999999988              -0.000117253               0.001194963               0.999999988              -0.000109503               0.001201428               0.999999988              -0.000104462               0.001213451               0.999999988              -0.000099496               0.001229510               0.999999988              -0.000093002               0.001248121               0.999999988              -0.000084013               0.001268055               0.999999988              -0.000071601               0.001288441               0.999999988              -0.000054428               0.001308695               0.999999988              -0.000031879               0.001328086               0.999999988              -0.000003532               0.001346162               0.999999988               0.000030932               0.001362819               0.999999988               0.000072108               0.001377895               0.999999988               0.000121308               0.001391487               0.999999988               0.000179977               0.001403917               0.999999988              -0.000160903               0.001242615               0.999999988              -0.000109990               0.001255975               0.999999988              -0.000085538               0.001259227               0.999999988              -0.000073490               0.001264595               0.999999988              -0.000067249               0.001274850               0.999999988              -0.000063181               0.001289762               0.999999988              -0.000059386               0.001308494               0.999999988              -0.000054997               0.001330084               0.999999988              -0.000049251               0.001353794               0.999999988              -0.000041121               0.001378929               0.999999988              -0.000029788               0.001404806               0.999999988              -0.000014613               0.001430914               0.999999988               0.000004887               0.001456766               0.999999988               0.000029250               0.001481863               0.999999988               0.000059075               0.001505834               0.999999988               0.000096005               0.001528437               0.999999988               0.000142370               0.001549387               0.999999988              -0.000080819               0.001262850               0.999999988              -0.000054790               0.001288677               0.999999988              -0.000041872               0.001299487               0.999999988              -0.000035221               0.001309387               0.999999988              -0.000031699               0.001322659               0.999999988              -0.000029448               0.001339836               0.999999988              -0.000027343               0.001360576               0.999999988              -0.000025141               0.001384352               0.999999988              -0.000022280               0.001410737               0.999999988              -0.000018237               0.001439149               0.999999988              -0.000012602               0.001468955               0.999999988              -0.000004891               0.001499642               0.999999988               0.000005216               0.001530741               0.999999988               0.000017789               0.001561740               0.999999988               0.000033479               0.001592189               0.999999988               0.000053491               0.001621532               0.999999988               0.000079367               0.001648983               0.999999988               0.000000000               0.001269682               0.999999988              -0.000000000               0.001299750               0.999999988               0.000000000               0.001313215               0.999999988              -0.000000000               0.001324817               0.999999988              -0.000000000               0.001339230               0.999999988              -0.000000000               0.001357246               0.999999988              -0.000000000               0.001378757               0.999999988              -0.000000000               0.001403358               0.999999988               0.000000000               0.001430645               0.999999988              -0.000000000               0.001460258               0.999999988              -0.000000000               0.001491614               0.999999988               0.000000000               0.001524009               0.999999988              -0.000000000               0.001556880               0.999999988              -0.000000000               0.001589788               0.999999988              -0.000000000               0.001622423               0.999999988              -0.000000000               0.001654210               0.999999988              -0.000000000               0.001684102               0.999999988              -0.000858897               0.000000000               0.999999988              -0.000904382               0.000000000               0.999999988              -0.000923346               0.000000000               0.999999988              -0.000933499               0.000000000               0.999999988              -0.000941462              -0.000000000               0.999999988              -0.000949635              -0.000000000               0.999999988              -0.000958679               0.000000000               0.999999988              -0.000968699               0.000000000               0.999999988              -0.000979414               0.000000000               0.999999988              -0.000990341               0.000000000               0.999999988              -0.001001038              -0.000000000               0.999999988              -0.001011276               0.000000000               0.999999988              -0.001020691               0.000000000               0.999999988              -0.001028901              -0.000000000               0.999999988              -0.001035594               0.000000000               0.999999988              -0.001040239              -0.000000000               0.999999988              -0.001042041               0.000000000               0.999999988              -0.000854397              -0.000119386               0.999999988              -0.000895905              -0.000094417               0.999999988              -0.000912169              -0.000082631               0.999999988              -0.000920573              -0.000077352               0.999999988              -0.000927299              -0.000075311               0.999999988              -0.000934451              -0.000074643               0.999999988              -0.000942609              -0.000074498               0.999999988              -0.000951711              -0.000074336               0.999999988              -0.000961362              -0.000073443               0.999999988              -0.000971083              -0.000071540               0.999999988              -0.000980530              -0.000068447               0.999999988              -0.000989266              -0.000063907               0.999999988              -0.000996834              -0.000057528               0.999999988              -0.001003052              -0.000048729               0.999999988              -0.001007508              -0.000036886               0.999999988              -0.001009814              -0.000021340               0.999999988              -0.001009414              -0.000000886               0.999999988              -0.000840598              -0.000237792               0.999999988              -0.000870624              -0.000188420               0.999999988              -0.000879601              -0.000166064               0.999999988              -0.000883301              -0.000156520               0.999999988              -0.000886739              -0.000153234               0.999999988              -0.000891280              -0.000152586               0.999999988              -0.000897064              -0.000152772               0.999999988              -0.000903642              -0.000152649               0.999999988              -0.000910393              -0.000151105               0.999999988              -0.000916862              -0.000147572               0.999999988              -0.000922539              -0.000141596               0.999999988              -0.000926886              -0.000132594               0.999999988              -0.000929481              -0.000120090               0.999999988              -0.000930064              -0.000103291               0.999999988              -0.000928402              -0.000081332               0.999999988              -0.000924414              -0.000053287               0.999999988              -0.000917957              -0.000017625               0.999999988              -0.000817727              -0.000354191               0.999999988              -0.000829720              -0.000281917               0.999999988              -0.000828226              -0.000251056               0.999999988              -0.000825608              -0.000239041               0.999999988              -0.000824854              -0.000235817               0.999999988              -0.000826044              -0.000236081               0.999999988              -0.000828467              -0.000237119               0.999999988              -0.000831487              -0.000237339               0.999999988              -0.000834250              -0.000235324               0.999999988              -0.000835915              -0.000230284               0.999999988              -0.000835851              -0.000221524               0.999999988              -0.000833566              -0.000208370               0.999999988              -0.000828818              -0.000190308               0.999999988              -0.000821538              -0.000166682               0.999999988              -0.000811615              -0.000136923               0.999999988              -0.000799104              -0.000100402               0.999999988              -0.000784247              -0.000056197               0.999999988              -0.000786294              -0.000467604               0.999999988              -0.000775022              -0.000374998               0.999999988              -0.000761683              -0.000338375               0.999999988              -0.000752848              -0.000325780               0.999999988              -0.000748073              -0.000323854               0.999999988              -0.000745984              -0.000325735               0.999999988              -0.000745138              -0.000328028               0.999999988              -0.000744193              -0.000328645               0.999999988              -0.000741978              -0.000326107               0.999999988              -0.000737637              -0.000319340               0.999999988              -0.000730547              -0.000307725               0.999999988              -0.000720501              -0.000290534               0.999999988              -0.000707225              -0.000267606               0.999999988              -0.000690759              -0.000238561               0.999999988              -0.000671240              -0.000203155               0.999999988              -0.000648915              -0.000161273               0.999999988              -0.000624308              -0.000112995               0.999999988              -0.000746626              -0.000577116               0.999999988              -0.000709188              -0.000467880               0.999999988              -0.000684911              -0.000428282               0.999999988              -0.000671138              -0.000416761               0.999999988              -0.000663628              -0.000416922               0.999999988              -0.000659170              -0.000420569               0.999999988              -0.000655265              -0.000423978               0.999999988              -0.000649971              -0.000424599               0.999999988              -0.000641967              -0.000421094               0.999999988              -0.000630553              -0.000412491               0.999999988              -0.000615280              -0.000397963               0.999999988              -0.000595939              -0.000377334               0.999999988              -0.000572615              -0.000350420               0.999999988              -0.000545474              -0.000317204               0.999999988              -0.000514973              -0.000278165               0.999999988              -0.000481753              -0.000233896               0.999999988              -0.000446883              -0.000185475               0.999999988              -0.000699456              -0.000681626               0.999999988              -0.000635505              -0.000560736               0.999999988              -0.000602818              -0.000520585               0.999999988              -0.000586519              -0.000511046               0.999999988              -0.000578066              -0.000513317               0.999999988              -0.000571869              -0.000518501               0.999999988              -0.000564740              -0.000522444               0.999999988              -0.000554539              -0.000522587               0.999999988              -0.000539968              -0.000517643               0.999999988              -0.000520350              -0.000507001               0.999999988              -0.000495510              -0.000489807               0.999999988              -0.000465488              -0.000466179               0.999999988              -0.000430729              -0.000436296               0.999999988              -0.000391900              -0.000400634               0.999999988              -0.000350027              -0.000360267               0.999999988              -0.000306299              -0.000316445               0.999999988              -0.000262102              -0.000271402               0.999999988              -0.000645832              -0.000779965               0.999999988              -0.000557422              -0.000653409               0.999999988              -0.000519961              -0.000614531               0.999999988              -0.000504012              -0.000606981               0.999999988              -0.000495629              -0.000611040               0.999999988              -0.000487907              -0.000617213               0.999999988              -0.000477261              -0.000621196               0.999999988              -0.000461451              -0.000620357               0.999999988              -0.000439266              -0.000613612               0.999999988              -0.000410273              -0.000600747               0.999999988              -0.000374679              -0.000581125               0.999999988              -0.000333048              -0.000555290               0.999999988              -0.000286399              -0.000523718               0.999999988              -0.000235968              -0.000487458               0.999999988              -0.000183129              -0.000447946               0.999999988              -0.000129340              -0.000407055               0.999999988              -0.000075842              -0.000366649               0.999999988              -0.000587462              -0.000870362               0.999999988              -0.000477746              -0.000745736               0.999999988              -0.000440733              -0.000708523               0.999999988              -0.000426847              -0.000702608               0.999999988              -0.000419130              -0.000707854               0.999999988              -0.000409720              -0.000714460               0.999999988              -0.000394917              -0.000718015               0.999999988              -0.000372609              -0.000715842               0.999999988              -0.000341608              -0.000707296               0.999999988              -0.000302121              -0.000692298               0.999999988              -0.000254791              -0.000670981               0.999999988              -0.000200758              -0.000644002               0.999999988              -0.000141561              -0.000612471               0.999999988              -0.000078721              -0.000577958               0.999999988              -0.000013990              -0.000542193               0.999999988               0.000051082              -0.000506948               0.999999988               0.000115475              -0.000473272               0.999999989              -0.000526821              -0.000956272               0.999999988              -0.000410782              -0.000850204               0.999999988              -0.000371533              -0.000810214               0.999999988              -0.000357304              -0.000800217               0.999999988              -0.000350513              -0.000802926               0.999999988              -0.000343077              -0.000809678               0.999999988              -0.000331377              -0.000815784               0.999999988              -0.000313352              -0.000818688               0.999999988              -0.000287716              -0.000816935               0.999999988              -0.000254015              -0.000810328               0.999999988              -0.000212466              -0.000799007               0.999999988              -0.000163819              -0.000783254               0.999999988              -0.000109120              -0.000763586               0.999999988              -0.000049259              -0.000740893               0.999999988               0.000014769              -0.000716480               0.999999988               0.000081273              -0.000691678               0.999999988               0.000148395              -0.000667868               0.999999988              -0.000460680              -0.001034848               0.999999988              -0.000346101              -0.000951711               0.999999988              -0.000304809              -0.000914896               0.999999988              -0.000289465              -0.000903116               0.999999988              -0.000282597              -0.000904374               0.999999988              -0.000276463              -0.000911432               0.999999988              -0.000267228              -0.000919874               0.999999988              -0.000252920              -0.000927192               0.999999988              -0.000232310              -0.000931711               0.999999988              -0.000204195              -0.000932734               0.999999988              -0.000168607              -0.000930078               0.999999988              -0.000125880              -0.000924057               0.999999988              -0.000076688              -0.000914909               0.999999988              -0.000021351              -0.000903177               0.999999988               0.000039445              -0.000889450               0.999999988               0.000104542              -0.000874742               0.999999988               0.000172398              -0.000860006               0.999999988              -0.000390301              -0.001104017               0.999999988              -0.000283705              -0.001047131               0.999999988              -0.000242293              -0.001017641               0.999999988              -0.000225682              -0.001007216               0.999999988              -0.000218220              -0.001008554               0.999999988              -0.000212581              -0.001016488               0.999999988              -0.000205247              -0.001027264               0.999999988              -0.000194071              -0.001038563               0.999999988              -0.000177777              -0.001048941               0.999999988              -0.000155222              -0.001057024               0.999999988              -0.000125831              -0.001062416               0.999999988              -0.000089517              -0.001065112               0.999999988              -0.000046380              -0.001065401               0.999999988               0.000003384              -0.001063554               0.999999988               0.000059390              -0.001059876               0.999999988               0.000121351              -0.001055005               0.999999988               0.000188226              -0.001049619               0.999999988              -0.000316384              -0.001162410               0.999999988              -0.000223800              -0.001132201               0.999999988              -0.000184880              -0.001113152               0.999999988              -0.000167967              -0.001106713               0.999999988              -0.000159938              -0.001109939               0.999999988              -0.000154474              -0.001119513               0.999999988              -0.000148527              -0.001132867               0.999999988              -0.000139863              -0.001147949               0.999999988              -0.000127403              -0.001163394               0.999999988              -0.000110142              -0.001178095               0.999999988              -0.000087039              -0.001191262               0.999999988              -0.000057401              -0.001202449               0.999999988              -0.000021074              -0.001211735               0.999999988               0.000021790              -0.001219111               0.999999988               0.000071464              -0.001224817               0.999999988               0.000128480              -0.001229147               0.999999988               0.000192929              -0.001232758               0.999999988              -0.000239644              -0.001208982               0.999999988              -0.000166099              -0.001202950               0.999999988              -0.000132791              -0.001195550               0.999999988              -0.000117253              -0.001194963               0.999999988              -0.000109503              -0.001201428               0.999999988              -0.000104462              -0.001213451               0.999999988              -0.000099496              -0.001229510               0.999999988              -0.000093002              -0.001248121               0.999999988              -0.000084013              -0.001268055               0.999999988              -0.000071601              -0.001288441               0.999999988              -0.000054428              -0.001308695               0.999999988              -0.000031879              -0.001328086               0.999999988              -0.000003532              -0.001346162               0.999999988               0.000030932              -0.001362819               0.999999988               0.000072108              -0.001377895               0.999999988               0.000121308              -0.001391487               0.999999988               0.000179977              -0.001403917               0.999999988              -0.000160903              -0.001242615               0.999999988              -0.000109990              -0.001255975               0.999999988              -0.000085538              -0.001259227               0.999999988              -0.000073490              -0.001264595               0.999999988              -0.000067249              -0.001274850               0.999999988              -0.000063181              -0.001289762               0.999999988              -0.000059386              -0.001308494               0.999999988              -0.000054997              -0.001330084               0.999999988              -0.000049251              -0.001353794               0.999999988              -0.000041121              -0.001378929               0.999999988              -0.000029788              -0.001404806               0.999999988              -0.000014613              -0.001430914               0.999999988               0.000004887              -0.001456766               0.999999988               0.000029250              -0.001481863               0.999999988               0.000059075              -0.001505834               0.999999988               0.000096005              -0.001528437               0.999999988               0.000142370              -0.001549387               0.999999988              -0.000080819              -0.001262850               0.999999988              -0.000054790              -0.001288677               0.999999988              -0.000041872              -0.001299487               0.999999988              -0.000035221              -0.001309387               0.999999988              -0.000031699              -0.001322659               0.999999988              -0.000029448              -0.001339836               0.999999988              -0.000027343              -0.001360576               0.999999988              -0.000025141              -0.001384352               0.999999988              -0.000022280              -0.001410737               0.999999988              -0.000018237              -0.001439149               0.999999988              -0.000012602              -0.001468955               0.999999988              -0.000004891              -0.001499642               0.999999988               0.000005216              -0.001530741               0.999999988               0.000017789              -0.001561740               0.999999988               0.000033479              -0.001592189               0.999999988               0.000053491              -0.001621532               0.999999988               0.000079367              -0.001648983               0.999999988               0.000000000              -0.001269682               0.999999988               0.000000000              -0.001299750               0.999999988               0.000000000              -0.001313215               0.999999988              -0.000000000              -0.001324817               0.999999988              -0.000000000              -0.001339230               0.999999988               0.000000000              -0.001357246               0.999999988              -0.000000000              -0.001378757               0.999999988              -0.000000000              -0.001403358               0.999999988               0.000000000              -0.001430645               0.999999988               0.000000000              -0.001460258               0.999999988              -0.000000000              -0.001491614               0.999999988              -0.000000000              -0.001524009               0.999999988               0.000000000              -0.001556880               0.999999988               0.000000000              -0.001589788               0.999999988               0.000000000              -0.001622423               0.999999988               0.000000000              -0.001654210               0.999999988              -0.000000000              -0.001684102               0.999999988               0.000858897               0.000000000               0.999999988               0.000904382              -0.000000000               0.999999988               0.000923346               0.000000000               0.999999988               0.000933499               0.000000000               0.999999988               0.000941462              -0.000000000               0.999999988               0.000949635               0.000000000               0.999999988               0.000958679               0.000000000               0.999999988               0.000968699               0.000000000               0.999999988               0.000979414               0.000000000               0.999999988               0.000990341               0.000000000               0.999999988               0.001001038              -0.000000000               0.999999988               0.001011276              -0.000000000               0.999999988               0.001020691              -0.000000000               0.999999988               0.001028901               0.000000000               0.999999988               0.001035594               0.000000000               0.999999988               0.001040239               0.000000000               0.999999988               0.001042041               0.000000000               0.999999988               0.000854397              -0.000119386               0.999999988               0.000895905              -0.000094417               0.999999988               0.000912169              -0.000082631               0.999999988               0.000920573              -0.000077352               0.999999988               0.000927299              -0.000075311               0.999999988               0.000934451              -0.000074643               0.999999988               0.000942609              -0.000074498               0.999999988               0.000951711              -0.000074336               0.999999988               0.000961362              -0.000073443               0.999999988               0.000971083              -0.000071540               0.999999988               0.000980530              -0.000068447               0.999999988               0.000989266              -0.000063907               0.999999988               0.000996834              -0.000057528               0.999999988               0.001003052              -0.000048729               0.999999988               0.001007508              -0.000036886               0.999999988               0.001009814              -0.000021340               0.999999988               0.001009414              -0.000000886               0.999999988               0.000840598              -0.000237792               0.999999988               0.000870624              -0.000188420               0.999999988               0.000879601              -0.000166064               0.999999988               0.000883301              -0.000156520               0.999999988               0.000886739              -0.000153234               0.999999988               0.000891280              -0.000152586               0.999999988               0.000897064              -0.000152772               0.999999988               0.000903642              -0.000152649               0.999999988               0.000910393              -0.000151105               0.999999988               0.000916862              -0.000147572               0.999999988               0.000922539              -0.000141596               0.999999988               0.000926886              -0.000132594               0.999999988               0.000929481              -0.000120090               0.999999988               0.000930064              -0.000103291               0.999999988               0.000928402              -0.000081332               0.999999988               0.000924414              -0.000053287               0.999999988               0.000917957              -0.000017625               0.999999988               0.000817727              -0.000354191               0.999999988               0.000829720              -0.000281917               0.999999988               0.000828226              -0.000251056               0.999999988               0.000825608              -0.000239041               0.999999988               0.000824854              -0.000235817               0.999999988               0.000826044              -0.000236081               0.999999988               0.000828467              -0.000237119               0.999999988               0.000831487              -0.000237339               0.999999988               0.000834250              -0.000235324               0.999999988               0.000835915              -0.000230284               0.999999988               0.000835851              -0.000221524               0.999999988               0.000833566              -0.000208370               0.999999988               0.000828818              -0.000190308               0.999999988               0.000821538              -0.000166682               0.999999988               0.000811615              -0.000136923               0.999999988               0.000799104              -0.000100402               0.999999988               0.000784247              -0.000056197               0.999999988               0.000786294              -0.000467604               0.999999988               0.000775022              -0.000374998               0.999999988               0.000761683              -0.000338375               0.999999988               0.000752848              -0.000325780               0.999999988               0.000748073              -0.000323854               0.999999988               0.000745984              -0.000325735               0.999999988               0.000745138              -0.000328028               0.999999988               0.000744193              -0.000328645               0.999999988               0.000741978              -0.000326107               0.999999988               0.000737637              -0.000319340               0.999999988               0.000730547              -0.000307725               0.999999988               0.000720501              -0.000290534               0.999999988               0.000707225              -0.000267606               0.999999988               0.000690759              -0.000238561               0.999999988               0.000671240              -0.000203155               0.999999988               0.000648915              -0.000161273               0.999999988               0.000624308              -0.000112995               0.999999988               0.000746626              -0.000577116               0.999999988               0.000709188              -0.000467880               0.999999988               0.000684911              -0.000428282               0.999999988               0.000671138              -0.000416761               0.999999988               0.000663628              -0.000416922               0.999999988               0.000659170              -0.000420569               0.999999988               0.000655265              -0.000423978               0.999999988               0.000649971              -0.000424599               0.999999988               0.000641967              -0.000421094               0.999999988               0.000630553              -0.000412491               0.999999988               0.000615280              -0.000397963               0.999999988               0.000595939              -0.000377334               0.999999988               0.000572615              -0.000350420               0.999999988               0.000545474              -0.000317204               0.999999988               0.000514973              -0.000278165               0.999999988               0.000481753              -0.000233896               0.999999988               0.000446883              -0.000185475               0.999999988               0.000699456              -0.000681626               0.999999988               0.000635505              -0.000560736               0.999999988               0.000602818              -0.000520585               0.999999988               0.000586519              -0.000511046               0.999999988               0.000578066              -0.000513317               0.999999988               0.000571869              -0.000518501               0.999999988               0.000564740              -0.000522444               0.999999988               0.000554539              -0.000522587               0.999999988               0.000539968              -0.000517643               0.999999988               0.000520350              -0.000507001               0.999999988               0.000495510              -0.000489807               0.999999988               0.000465488              -0.000466179               0.999999988               0.000430729              -0.000436296               0.999999988               0.000391900              -0.000400634               0.999999988               0.000350027              -0.000360267               0.999999988               0.000306299              -0.000316445               0.999999988               0.000262102              -0.000271402               0.999999988               0.000645832              -0.000779965               0.999999988               0.000557422              -0.000653409               0.999999988               0.000519961              -0.000614531               0.999999988               0.000504012              -0.000606981               0.999999988               0.000495629              -0.000611040               0.999999988               0.000487907              -0.000617213               0.999999988               0.000477261              -0.000621196               0.999999988               0.000461451              -0.000620357               0.999999988               0.000439266              -0.000613612               0.999999988               0.000410273              -0.000600747               0.999999988               0.000374679              -0.000581125               0.999999988               0.000333048              -0.000555290               0.999999988               0.000286399              -0.000523718               0.999999988               0.000235968              -0.000487458               0.999999988               0.000183129              -0.000447946               0.999999988               0.000129340              -0.000407055               0.999999988               0.000075842              -0.000366649               0.999999988               0.000587462              -0.000870362               0.999999988               0.000477746              -0.000745736               0.999999988               0.000440733              -0.000708523               0.999999988               0.000426847              -0.000702608               0.999999988               0.000419130              -0.000707854               0.999999988               0.000409720              -0.000714460               0.999999988               0.000394917              -0.000718015               0.999999988               0.000372609              -0.000715842               0.999999988               0.000341608              -0.000707296               0.999999988               0.000302121              -0.000692298               0.999999988               0.000254791              -0.000670981               0.999999988               0.000200758              -0.000644002               0.999999988               0.000141561              -0.000612471               0.999999988               0.000078721              -0.000577958               0.999999988               0.000013990              -0.000542193               0.999999988              -0.000051082              -0.000506948               0.999999988              -0.000115475              -0.000473272               0.999999989               0.000526821              -0.000956272               0.999999988               0.000410782              -0.000850204               0.999999988               0.000371533              -0.000810214               0.999999988               0.000357304              -0.000800217               0.999999988               0.000350513              -0.000802926               0.999999988               0.000343077              -0.000809678               0.999999988               0.000331377              -0.000815784               0.999999988               0.000313352              -0.000818688               0.999999988               0.000287716              -0.000816935               0.999999988               0.000254015              -0.000810328               0.999999988               0.000212466              -0.000799007               0.999999988               0.000163819              -0.000783254               0.999999988               0.000109120              -0.000763586               0.999999988               0.000049259              -0.000740893               0.999999988              -0.000014769              -0.000716480               0.999999988              -0.000081273              -0.000691678               0.999999988              -0.000148395              -0.000667868               0.999999988               0.000460680              -0.001034848               0.999999988               0.000346101              -0.000951711               0.999999988               0.000304809              -0.000914896               0.999999988               0.000289465              -0.000903116               0.999999988               0.000282597              -0.000904374               0.999999988               0.000276463              -0.000911432               0.999999988               0.000267228              -0.000919874               0.999999988               0.000252920              -0.000927192               0.999999988               0.000232310              -0.000931711               0.999999988               0.000204195              -0.000932734               0.999999988               0.000168607              -0.000930078               0.999999988               0.000125880              -0.000924057               0.999999988               0.000076688              -0.000914909               0.999999988               0.000021351              -0.000903177               0.999999988              -0.000039445              -0.000889450               0.999999988              -0.000104542              -0.000874742               0.999999988              -0.000172398              -0.000860006               0.999999988               0.000390301              -0.001104017               0.999999988               0.000283705              -0.001047131               0.999999988               0.000242293              -0.001017641               0.999999988               0.000225682              -0.001007216               0.999999988               0.000218220              -0.001008554               0.999999988               0.000212581              -0.001016488               0.999999988               0.000205247              -0.001027264               0.999999988               0.000194071              -0.001038563               0.999999988               0.000177777              -0.001048941               0.999999988               0.000155222              -0.001057024               0.999999988               0.000125831              -0.001062416               0.999999988               0.000089517              -0.001065112               0.999999988               0.000046380              -0.001065401               0.999999988              -0.000003384              -0.001063554               0.999999988              -0.000059390              -0.001059876               0.999999988              -0.000121351              -0.001055005               0.999999988              -0.000188226              -0.001049619               0.999999988               0.000316384              -0.001162410               0.999999988               0.000223800              -0.001132201               0.999999988               0.000184880              -0.001113152               0.999999988               0.000167967              -0.001106713               0.999999988               0.000159938              -0.001109939               0.999999988               0.000154474              -0.001119513               0.999999988               0.000148527              -0.001132867               0.999999988               0.000139863              -0.001147949               0.999999988               0.000127403              -0.001163394               0.999999988               0.000110142              -0.001178095               0.999999988               0.000087039              -0.001191262               0.999999988               0.000057401              -0.001202449               0.999999988               0.000021074              -0.001211735               0.999999988              -0.000021790              -0.001219111               0.999999988              -0.000071464              -0.001224817               0.999999988              -0.000128480              -0.001229147               0.999999988              -0.000192929              -0.001232758               0.999999988               0.000239644              -0.001208982               0.999999988               0.000166099              -0.001202950               0.999999988               0.000132791              -0.001195550               0.999999988               0.000117253              -0.001194963               0.999999988               0.000109503              -0.001201428               0.999999988               0.000104462              -0.001213451               0.999999988               0.000099496              -0.001229510               0.999999988               0.000093002              -0.001248121               0.999999988               0.000084013              -0.001268055               0.999999988               0.000071601              -0.001288441               0.999999988               0.000054428              -0.001308695               0.999999988               0.000031879              -0.001328086               0.999999988               0.000003532              -0.001346162               0.999999988              -0.000030932              -0.001362819               0.999999988              -0.000072108              -0.001377895               0.999999988              -0.000121308              -0.001391487               0.999999988              -0.000179977              -0.001403917               0.999999988               0.000160903              -0.001242615               0.999999988               0.000109990              -0.001255975               0.999999988               0.000085538              -0.001259227               0.999999988               0.000073490              -0.001264595               0.999999988               0.000067249              -0.001274850               0.999999988               0.000063181              -0.001289762               0.999999988               0.000059386              -0.001308494               0.999999988               0.000054997              -0.001330084               0.999999988               0.000049251              -0.001353794               0.999999988               0.000041121              -0.001378929               0.999999988               0.000029788              -0.001404806               0.999999988               0.000014613              -0.001430914               0.999999988              -0.000004887              -0.001456766               0.999999988              -0.000029250              -0.001481863               0.999999988              -0.000059075              -0.001505834               0.999999988              -0.000096005              -0.001528437               0.999999988              -0.000142370              -0.001549387               0.999999988               0.000080819              -0.001262850               0.999999988               0.000054790              -0.001288677               0.999999988               0.000041872              -0.001299487               0.999999988               0.000035221              -0.001309387               0.999999988               0.000031699              -0.001322659               0.999999988               0.000029448              -0.001339836               0.999999988               0.000027343              -0.001360576               0.999999988               0.000025141              -0.001384352               0.999999988               0.000022280              -0.001410737               0.999999988               0.000018237              -0.001439149               0.999999988               0.000012602              -0.001468955               0.999999988               0.000004891              -0.001499642               0.999999988              -0.000005216              -0.001530741               0.999999988              -0.000017789              -0.001561740               0.999999988              -0.000033479              -0.001592189               0.999999988              -0.000053491              -0.001621532               0.999999988              -0.000079367              -0.001648983               0.999999988               0.000000000              -0.001269682               0.999999988               0.000000000              -0.001299750               0.999999988               0.000000000              -0.001313215               0.999999988              -0.000000000              -0.001324817               0.999999988              -0.000000000              -0.001339230               0.999999988               0.000000000              -0.001357246               0.999999988              -0.000000000              -0.001378757               0.999999988              -0.000000000              -0.001403358               0.999999988               0.000000000              -0.001430645               0.999999988               0.000000000              -0.001460258               0.999999988              -0.000000000              -0.001491614               0.999999988              -0.000000000              -0.001524009               0.999999988               0.000000000              -0.001556880               0.999999988               0.000000000              -0.001589788               0.999999988               0.000000000              -0.001622423               0.999999988               0.000000000              -0.001654210               0.999999988              -0.000000000              -0.001684102               0.999999988               0.000858897               0.000000000               0.999999988               0.000904382              -0.000000000               0.999999988               0.000923346               0.000000000               0.999999988               0.000933499               0.000000000               0.999999988               0.000941462              -0.000000000               0.999999988               0.000949635               0.000000000               0.999999988               0.000958679               0.000000000               0.999999988               0.000968699               0.000000000               0.999999988               0.000979414               0.000000000               0.999999988               0.000990341               0.000000000               0.999999988               0.001001038              -0.000000000               0.999999988               0.001011276              -0.000000000               0.999999988               0.001020691              -0.000000000               0.999999988               0.001028901               0.000000000               0.999999988               0.001035594               0.000000000               0.999999988               0.001040239               0.000000000               0.999999988               0.001042041               0.000000000               0.999999988               0.000854397               0.000119386               0.999999988               0.000895905               0.000094417               0.999999988               0.000912169               0.000082631               0.999999988               0.000920573               0.000077352               0.999999988               0.000927299               0.000075311               0.999999988               0.000934451               0.000074643               0.999999988               0.000942609               0.000074498               0.999999988               0.000951711               0.000074336               0.999999988               0.000961362               0.000073443               0.999999988               0.000971083               0.000071540               0.999999988               0.000980530               0.000068447               0.999999988               0.000989266               0.000063907               0.999999988               0.000996834               0.000057528               0.999999988               0.001003052               0.000048729               0.999999988               0.001007508               0.000036886               0.999999988               0.001009814               0.000021340               0.999999988               0.001009414               0.000000886               0.999999988               0.000840598               0.000237792               0.999999988               0.000870624               0.000188420               0.999999988               0.000879601               0.000166064               0.999999988               0.000883301               0.000156520               0.999999988               0.000886739               0.000153234               0.999999988               0.000891280               0.000152586               0.999999988               0.000897064               0.000152772               0.999999988               0.000903642               0.000152649               0.999999988               0.000910393               0.000151105               0.999999988               0.000916862               0.000147572               0.999999988               0.000922539               0.000141596               0.999999988               0.000926886               0.000132594               0.999999988               0.000929481               0.000120090               0.999999988               0.000930064               0.000103291               0.999999988               0.000928402               0.000081332               0.999999988               0.000924414               0.000053287               0.999999988               0.000917957               0.000017625               0.999999988               0.000817727               0.000354191               0.999999988               0.000829720               0.000281917               0.999999988               0.000828226               0.000251056               0.999999988               0.000825608               0.000239041               0.999999988               0.000824854               0.000235817               0.999999988               0.000826044               0.000236081               0.999999988               0.000828467               0.000237119               0.999999988               0.000831487               0.000237339               0.999999988               0.000834250               0.000235324               0.999999988               0.000835915               0.000230284               0.999999988               0.000835851               0.000221524               0.999999988               0.000833566               0.000208370               0.999999988               0.000828818               0.000190308               0.999999988               0.000821538               0.000166682               0.999999988               0.000811615               0.000136923               0.999999988               0.000799104               0.000100402               0.999999988               0.000784247               0.000056197               0.999999988               0.000786294               0.000467604               0.999999988               0.000775022               0.000374998               0.999999988               0.000761683               0.000338375               0.999999988               0.000752848               0.000325780               0.999999988               0.000748073               0.000323854               0.999999988               0.000745984               0.000325735               0.999999988               0.000745138               0.000328028               0.999999988               0.000744193               0.000328645               0.999999988               0.000741978               0.000326107               0.999999988               0.000737637               0.000319340               0.999999988               0.000730547               0.000307725               0.999999988               0.000720501               0.000290534               0.999999988               0.000707225               0.000267606               0.999999988               0.000690759               0.000238561               0.999999988               0.000671240               0.000203155               0.999999988               0.000648915               0.000161273               0.999999988               0.000624308               0.000112995               0.999999988               0.000746626               0.000577116               0.999999988               0.000709188               0.000467880               0.999999988               0.000684911               0.000428282               0.999999988               0.000671138               0.000416761               0.999999988               0.000663628               0.000416922               0.999999988               0.000659170               0.000420569               0.999999988               0.000655265               0.000423978               0.999999988               0.000649971               0.000424599               0.999999988               0.000641967               0.000421094               0.999999988               0.000630553               0.000412491               0.999999988               0.000615280               0.000397963               0.999999988               0.000595939               0.000377334               0.999999988               0.000572615               0.000350420               0.999999988               0.000545474               0.000317204               0.999999988               0.000514973               0.000278165               0.999999988               0.000481753               0.000233896               0.999999988               0.000446883               0.000185475               0.999999988               0.000699456               0.000681626               0.999999988               0.000635505               0.000560736               0.999999988               0.000602818               0.000520585               0.999999988               0.000586519               0.000511046               0.999999988               0.000578066               0.000513317               0.999999988               0.000571869               0.000518501               0.999999988               0.000564740               0.000522444               0.999999988               0.000554539               0.000522587               0.999999988               0.000539968               0.000517643               0.999999988               0.000520350               0.000507001               0.999999988               0.000495510               0.000489807               0.999999988               0.000465488               0.000466179               0.999999988               0.000430729               0.000436296               0.999999988               0.000391900               0.000400634               0.999999988               0.000350027               0.000360267               0.999999988               0.000306299               0.000316445               0.999999988               0.000262102               0.000271402               0.999999988               0.000645832               0.000779965               0.999999988               0.000557422               0.000653409               0.999999988               0.000519961               0.000614531               0.999999988               0.000504012               0.000606981               0.999999988               0.000495629               0.000611040               0.999999988               0.000487907               0.000617213               0.999999988               0.000477261               0.000621196               0.999999988               0.000461451               0.000620357               0.999999988               0.000439266               0.000613612               0.999999988               0.000410273               0.000600747               0.999999988               0.000374679               0.000581125               0.999999988               0.000333048               0.000555290               0.999999988               0.000286399               0.000523718               0.999999988               0.000235968               0.000487458               0.999999988               0.000183129               0.000447946               0.999999988               0.000129340               0.000407055               0.999999988               0.000075842               0.000366649               0.999999988               0.000587462               0.000870362               0.999999988               0.000477746               0.000745736               0.999999988               0.000440733               0.000708523               0.999999988               0.000426847               0.000702608               0.999999988               0.000419130               0.000707854               0.999999988               0.000409720               0.000714460               0.999999988               0.000394917               0.000718015               0.999999988               0.000372609               0.000715842               0.999999988               0.000341608               0.000707296               0.999999988               0.000302121               0.000692298               0.999999988               0.000254791               0.000670981               0.999999988               0.000200758               0.000644002               0.999999988               0.000141561               0.000612471               0.999999988               0.000078721               0.000577958               0.999999988               0.000013990               0.000542193               0.999999988              -0.000051082               0.000506948               0.999999988              -0.000115475               0.000473272               0.999999989               0.000526821               0.000956272               0.999999988               0.000410782               0.000850204               0.999999988               0.000371533               0.000810214               0.999999988               0.000357304               0.000800217               0.999999988               0.000350513               0.000802926               0.999999988               0.000343077               0.000809678               0.999999988               0.000331377               0.000815784               0.999999988               0.000313352               0.000818688               0.999999988               0.000287716               0.000816935               0.999999988               0.000254015               0.000810328               0.999999988               0.000212466               0.000799007               0.999999988               0.000163819               0.000783254               0.999999988               0.000109120               0.000763586               0.999999988               0.000049259               0.000740893               0.999999988              -0.000014769               0.000716480               0.999999988              -0.000081273               0.000691678               0.999999988              -0.000148395               0.000667868               0.999999988               0.000460680               0.001034848               0.999999988               0.000346101               0.000951711               0.999999988               0.000304809               0.000914896               0.999999988               0.000289465               0.000903116               0.999999988               0.000282597               0.000904374               0.999999988               0.000276463               0.000911432               0.999999988               0.000267228               0.000919874               0.999999988               0.000252920               0.000927192               0.999999988               0.000232310               0.000931711               0.999999988               0.000204195               0.000932734               0.999999988               0.000168607               0.000930078               0.999999988               0.000125880               0.000924057               0.999999988               0.000076688               0.000914909               0.999999988               0.000021351               0.000903177               0.999999988              -0.000039445               0.000889450               0.999999988              -0.000104542               0.000874742               0.999999988              -0.000172398               0.000860006               0.999999988               0.000390301               0.001104017               0.999999988               0.000283705               0.001047131               0.999999988               0.000242293               0.001017641               0.999999988               0.000225682               0.001007216               0.999999988               0.000218220               0.001008554               0.999999988               0.000212581               0.001016488               0.999999988               0.000205247               0.001027264               0.999999988               0.000194071               0.001038563               0.999999988               0.000177777               0.001048941               0.999999988               0.000155222               0.001057024               0.999999988               0.000125831               0.001062416               0.999999988               0.000089517               0.001065112               0.999999988               0.000046380               0.001065401               0.999999988              -0.000003384               0.001063554               0.999999988              -0.000059390               0.001059876               0.999999988              -0.000121351               0.001055005               0.999999988              -0.000188226               0.001049619               0.999999988               0.000316384               0.001162410               0.999999988               0.000223800               0.001132201               0.999999988               0.000184880               0.001113152               0.999999988               0.000167967               0.001106713               0.999999988               0.000159938               0.001109939               0.999999988               0.000154474               0.001119513               0.999999988               0.000148527               0.001132867               0.999999988               0.000139863               0.001147949               0.999999988               0.000127403               0.001163394               0.999999988               0.000110142               0.001178095               0.999999988               0.000087039               0.001191262               0.999999988               0.000057401               0.001202449               0.999999988               0.000021074               0.001211735               0.999999988              -0.000021790               0.001219111               0.999999988              -0.000071464               0.001224817               0.999999988              -0.000128480               0.001229147               0.999999988              -0.000192929               0.001232758               0.999999988               0.000239644               0.001208982               0.999999988               0.000166099               0.001202950               0.999999988               0.000132791               0.001195550               0.999999988               0.000117253               0.001194963               0.999999988               0.000109503               0.001201428               0.999999988               0.000104462               0.001213451               0.999999988               0.000099496               0.001229510               0.999999988               0.000093002               0.001248121               0.999999988               0.000084013               0.001268055               0.999999988               0.000071601               0.001288441               0.999999988               0.000054428               0.001308695               0.999999988               0.000031879               0.001328086               0.999999988               0.000003532               0.001346162               0.999999988              -0.000030932               0.001362819               0.999999988              -0.000072108               0.001377895               0.999999988              -0.000121308               0.001391487               0.999999988              -0.000179977               0.001403917               0.999999988               0.000160903               0.001242615               0.999999988               0.000109990               0.001255975               0.999999988               0.000085538               0.001259227               0.999999988               0.000073490               0.001264595               0.999999988               0.000067249               0.001274850               0.999999988               0.000063181               0.001289762               0.999999988               0.000059386               0.001308494               0.999999988               0.000054997               0.001330084               0.999999988               0.000049251               0.001353794               0.999999988               0.000041121               0.001378929               0.999999988               0.000029788               0.001404806               0.999999988               0.000014613               0.001430914               0.999999988              -0.000004887               0.001456766               0.999999988              -0.000029250               0.001481863               0.999999988              -0.000059075               0.001505834               0.999999988              -0.000096005               0.001528437               0.999999988              -0.000142370               0.001549387               0.999999988               0.000080819               0.001262850               0.999999988               0.000054790               0.001288677               0.999999988               0.000041872               0.001299487               0.999999988               0.000035221               0.001309387               0.999999988               0.000031699               0.001322659               0.999999988               0.000029448               0.001339836               0.999999988               0.000027343               0.001360576               0.999999988               0.000025141               0.001384352               0.999999988               0.000022280               0.001410737               0.999999988               0.000018237               0.001439149               0.999999988               0.000012602               0.001468955               0.999999988               0.000004891               0.001499642               0.999999988              -0.000005216               0.001530741               0.999999988              -0.000017789               0.001561740               0.999999988              -0.000033479               0.001592189               0.999999988              -0.000053491               0.001621532               0.999999988              -0.000079367               0.001648983               0.999999988               0.000000000               0.001269682               0.999999988              -0.000000000               0.001299750               0.999999988               0.000000000               0.001313215               0.999999988              -0.000000000               0.001324817               0.999999988              -0.000000000               0.001339230               0.999999988              -0.000000000               0.001357246               0.999999988              -0.000000000               0.001378757               0.999999988              -0.000000000               0.001403358               0.999999988               0.000000000               0.001430645               0.999999988              -0.000000000               0.001460258               0.999999988              -0.000000000               0.001491614               0.999999988               0.000000000               0.001524009               0.999999988              -0.000000000               0.001556880               0.999999988              -0.000000000               0.001589788               0.999999988              -0.000000000               0.001622423               0.999999988              -0.000000000               0.001654210               0.999999988              -0.000000000               0.001684102               0.999999988 </DataArray>
<DataArray type="Float64"                                    Name="defo"                                                      NumberOfComponents=" 3" format="ascii">
             -0.000858897               0.000000000               0.999999988              -0.000904382               0.000000000               0.999999988              -0.000923346               0.000000000               0.999999988              -0.000933499               0.000000000               0.999999988              -0.000941462              -0.000000000               0.999999988              -0.000949635              -0.000000000               0.999999988              -0.000958679               0.000000000               0.999999988              -0.000968699               0.000000000               0.999999988              -0.000979414               0.000000000               0.999999988              -0.000990341               0.000000000               0.999999988              -0.001001038              -0.000000000               0.999999988              -0.001011276               0.000000000               0.999999988              -0.001020691               0.000000000               0.999999988              -0.001028901              -0.000000000               0.999999988              -0.001035594               0.000000000               0.999999988              -0.001040239              -0.000000000               0.999999988              -0.001042041               0.000000000               0.999999988              -0.000854397               0.000119386               0.999999988              -0.000895905               0.000094417               0.999999988              -0.000912169               0.000082631               0.999999988              -0.000920573               0.000077352               0.999999988              -0.000927299               0.000075311               0.999999988              -0.000934451               0.000074643               0.999999988              -0.000942609               0.000074498               0.999999988              -0.000951711               0.000074336               0.999999988              -0.000961362               0.000073443               0.999999988              -0.000971083               0.000071540               0.999999988              -0.000980530               0.000068447               0.999999988              -0.000989266               0.000063907               0.999999988              -0.000996834               0.000057528               0.999999988              -0.001003052               0.000048729               0.999999988              -0.001007508               0.000036886               0.999999988              -0.001009814               0.000021340               0.999999988              -0.001009414               0.000000886               0.999999988              -0.000840598               0.000237792               0.999999988              -0.000870624               0.000188420               0.999999988              -0.000879601               0.000166064               0.999999988              -0.000883301               0.000156520               0.999999988              -0.000886739               0.000153234               0.999999988              -0.000891280               0.000152586               0.999999988              -0.000897064               0.000152772               0.999999988              -0.000903642               0.000152649               0.999999988              -0.000910393               0.000151105               0.999999988              -0.000916862               0.000147572               0.999999988              -0.000922539               0.000141596               0.999999988              -0.000926886               0.000132594               0.999999988              -0.000929481               0.000120090               0.999999988              -0.000930064               0.000103291               0.999999988              -0.000928402               0.000081332               0.999999988              -0.000924414               0.000053287               0.999999988              -0.000917957               0.000017625               0.999999988              -0.000817727               0.000354191               0.999999988              -0.000829720               0.000281917               0.999999988              -0.000828226               0.000251056               0.999999988              -0.000825608               0.000239041               0.999999988              -0.000824854               0.000235817               0.999999988              -0.000826044               0.000236081               0.999999988              -0.000828467               0.000237119               0.999999988              -0.000831487               0.000237339               0.999999988              -0.000834250               0.000235324               0.999999988              -0.000835915               0.000230284               0.999999988              -0.000835851               0.000221524               0.999999988              -0.000833566               0.000208370               0.999999988              -0.000828818               0.000190308               0.999999988              -0.000821538               0.000166682               0.999999988              -0.000811615               0.000136923               0.999999988              -0.000799104               0.000100402               0.999999988              -0.000784247               0.000056197               0.999999988              -0.000786294               0.000467604               0.999999988              -0.000775022               0.000374998               0.999999988              -0.000761683               0.000338375               0.999999988              -0.000752848               0.000325780               0.999999988              -0.000748073               0.000323854               0.999999988              -0.000745984               0.000325735               0.999999988              -0.000745138               0.000328028               0.999999988              -0.000744193               0.000328645               0.999999988              -0.000741978               0.000326107               0.999999988              -0.000737637               0.000319340               0.999999988              -0.000730547               0.000307725               0.999999988              -0.000720501               0.000290534               0.999999988              -0.000707225               0.000267606               0.999999988              -0.000690759               0.000238561               0.999999988              -0.000671240               0.000203155               0.999999988              -0.000648915               0.000161273               0.999999988              -0.000624308               0.000112995               0.999999988              -0.000746626               0.000577116               0.999999988              -0.000709188               0.000467880               0.999999988              -0.000684911               0.000428282               0.999999988              -0.000671138               0.000416761               0.999999988              -0.000663628               0.000416922               0.999999988              -0.000659170               0.000420569               0.999999988              -0.000655265               0.000423978               0.999999988              -0.000649971               0.000424599               0.999999988              -0.000641967               0.000421094               0.999999988              -0.000630553               0.000412491               0.999999988              -0.000615280               0.000397963               0.999999988              -0.000595939               0.000377334               0.999999988              -0.000572615               0.000350420               0.999999988              -0.000545474               0.000317204               0.999999988              -0.000514973               0.000278165               0.999999988              -0.000481753               0.000233896               0.999999988              -0.000446883               0.000185475               0.999999988              -0.000699456               0.000681626               0.999999988              -0.000635505               0.000560736               0.999999988              -0.000602818               0.000520585               0.999999988              -0.000586519               0.000511046               0.999999988              -0.000578066               0.000513317               0.999999988              -0.000571869               0.000518501               0.999999988              -0.000564740               0.000522444               0.999999988              -0.000554539               0.000522587               0.999999988              -0.000539968               0.000517643               0.999999988              -0.000520350               0.000507001               0.999999988              -0.000495510               0.000489807               0.999999988              -0.000465488               0.000466179               0.999999988              -0.000430729               0.000436296               0.999999988              -0.000391900               0.000400634               0.999999988              -0.000350027               0.000360267               0.999999988              -0.000306299               0.000316445               0.999999988              -0.000262102               0.000271402               0.999999988              -0.000645832               0.000779965               0.999999988              -0.000557422               0.000653409               0.999999988              -0.000519961               0.000614531               0.999999988              -0.000504012               0.000606981               0.999999988              -0.000495629               0.000611040               0.999999988              -0.000487907               0.000617213               0.999999988              -0.000477261               0.000621196               0.999999988              -0.000461451               0.000620357               0.999999988              -0.000439266               0.000613612               0.999999988              -0.000410273               0.000600747               0.999999988              -0.000374679               0.000581125               0.999999988              -0.000333048               0.000555290               0.999999988              -0.000286399               0.000523718               0.999999988              -0.000235968               0.000487458               0.999999988              -0.000183129               0.000447946               0.999999988              -0.000129340               0.000407055               0.999999988              -0.000075842               0.000366649               0.999999988              -0.000587462               0.000870362               0.999999988              -0.000477746               0.000745736               0.999999988              -0.000440733               0.000708523               0.999999988              -0.000426847               0.000702608               0.999999988              -0.000419130               0.000707854               0.999999988              -0.000409720               0.000714460               0.999999988              -0.000394917               0.000718015               0.999999988              -0.000372609               0.000715842               0.999999988              -0.000341608               0.000707296               0.999999988              -0.000302121               0.000692298               0.999999988              -0.000254791               0.000670981               0.999999988              -0.000200758               0.000644002               0.999999988              -0.000141561               0.000612471               0.999999988              -0.000078721               0.000577958               0.999999988              -0.000013990               0.000542193               0.999999988               0.000051082               0.000506948               0.999999988               0.000115475               0.000473272               0.999999989              -0.000526821               0.000956272               0.999999988              -0.000410782               0.000850204               0.999999988              -0.000371533               0.000810214               0.999999988              -0.000357304               0.000800217               0.999999988              -0.000350513               0.000802926               0.999999988              -0.000343077               0.000809678               0.999999988              -0.000331377               0.000815784               0.999999988              -0.000313352               0.000818688               0.999999988              -0.000287716               0.000816935               0.999999988              -0.000254015               0.000810328               0.999999988              -0.000212466               0.000799007               0.999999988              -0.000163819               0.000783254               0.999999988              -0.000109120               0.000763586               0.999999988              -0.000049259               0.000740893               0.999999988               0.000014769               0.000716480               0.999999988               0.000081273               0.000691678               0.999999988               0.000148395               0.000667868               0.999999988              -0.000460680               0.001034848               0.999999988              -0.000346101               0.000951711               0.999999988              -0.000304809               0.000914896               0.999999988              -0.000289465               0.000903116               0.999999988              -0.000282597               0.000904374               0.999999988              -0.000276463               0.000911432               0.999999988              -0.000267228               0.000919874               0.999999988              -0.000252920               0.000927192               0.999999988              -0.000232310               0.000931711               0.999999988              -0.000204195               0.000932734               0.999999988              -0.000168607               0.000930078               0.999999988              -0.000125880               0.000924057               0.999999988              -0.000076688               0.000914909               0.999999988              -0.000021351               0.000903177               0.999999988               0.000039445               0.000889450               0.999999988               0.000104542               0.000874742               0.999999988               0.000172398               0.000860006               0.999999988              -0.000390301               0.001104017               0.999999988              -0.000283705               0.001047131               0.999999988              -0.000242293               0.001017641               0.999999988              -0.000225682               0.001007216               0.999999988              -0.000218220               0.001008554               0.999999988              -0.000212581               0.001016488               0.999999988              -0.000205247               0.001027264               0.999999988              -0.000194071               0.001038563               0.999999988              -0.000177777               0.001048941               0.999999988              -0.000155222               0.001057024               0.999999988              -0.000125831               0.001062416               0.999999988              -0.000089517               0.001065112               0.999999988              -0.000046380               0.001065401               0.999999988               0.000003384               0.001063554               0.999999988               0.000059390               0.001059876               0.999999988               0.000121351               0.001055005               0.999999988               0.000188226               0.001049619               0.999999988              -0.000316384               0.001162410               0.999999988              -0.000223800               0.001132201               0.999999988              -0.000184880               0.001113152               0.999999988              -0.000167967               0.001106713               0.999999988              -0.000159938               0.001109939               0.999999988              -0.000154474               0.001119513               0.999999988              -0.000148527               0.001132867               0.999999988              -0.000139863               0.001147949               0.999999988              -0.000127403               0.001163394               0.999999988              -0.000110142               0.001178095               0.999999988              -0.000087039               0.001191262               0.999999988              -0.000057401               0.001202449               0.999999988              -0.000021074               0.001211735               0.999999988               0.000021790               0.001219111               0.999999988               0.000071464               0.001224817               0.999999988               0.000128480               0.001229147               0.999999988               0.000192929               0.001232758               0.999999988              -0.000239644               0.001208982               0.999999988              -0.000166099               0.001202950               0.999999988              -0.000132791               0.001195550               0.999999988              -0.000117253               0.001194963               0.999999988              -0.000109503               0.001201428               0.999999988              -0.000104462               0.001213451               0.999999988              -0.000099496               0.001229510               0.999999988              -0.000093002               0.001248121               0.999999988              -0.000084013               0.001268055               0.999999988              -0.000071601               0.001288441               0.999999988              -0.000054428               0.001308695               0.999999988              -0.000031879               0.001328086               0.999999988              -0.000003532               0.001346162               0.999999988               0.000030932               0.001362819               0.999999988               0.000072108               0.001377895               0.999999988               0.000121308               0.001391487               0.999999988               0.000179977               0.001403917               0.999999988              -0.000160903               0.001242615               0.999999988              -0.000109990               0.001255975               0.999999988              -0.000085538               0.001259227               0.999999988              -0.000073490               0.001264595               0.999999988              -0.000067249               0.001274850               0.999999988              -0.000063181               0.001289762               0.999999988              -0.000059386               0.001308494               0.999999988              -0.000054997               0.001330084               0.999999988              -0.000049251               0.001353794               0.999999988              -0.000041121               0.001378929               0.999999988              -0.000029788               0.001404806               0.999999988              -0.000014613               0.001430914               0.999999988               0.000004887               0.001456766               0.999999988               0.000029250               0.001481863               0.999999988               0.000059075               0.001505834               0.999999988               0.000096005               0.001528437               0.999999988               0.000142370               0.001549387               0.999999988              -0.000080819               0.001262850               0.999999988              -0.000054790               0.001288677               0.999999988              -0.000041872               0.001299487               0.999999988              -0.000035221               0.001309387               0.999999988              -0.000031699               0.001322659               0.999999988              -0.000029448               0.001339836               0.999999988              -0.000027343               0.001360576               0.999999988              -0.000025141               0.001384352               0.999999988              -0.000022280               0.001410737               0.999999988              -0.000018237               0.001439149               0.999999988              -0.000012602               0.001468955               0.999999988              -0.000004891               0.001499642               0.999999988               0.000005216               0.001530741               0.999999988               0.000017789               0.001561740               0.999999988               0.000033479               0.001592189               0.999999988               0.000053491               0.001621532               0.999999988               0.000079367               0.001648983               0.999999988               0.000000000               0.001269682               0.999999988              -0.000000000               0.001299750               0.999999988               0.000000000               0.001313215               0.999999988              -0.000000000               0.001324817               0.999999988              -0.000000000               0.001339230               0.999999988              -0.000000000               0.001357246               0.999999988              -0.000000000               0.001378757               0.999999988              -0.000000000               0.001403358               0.999999988               0.000000000               0.001430645               0.999999988              -0.000000000               0.001460258               0.999999988              -0.000000000               0.001491614               0.999999988               0.000000000               0.001524009               0.999999988              -0.000000000               0.001556880               0.999999988              -0.000000000               0.001589788               0.999999988              -0.000000000               0.001622423               0.999999988              -0.000000000               0.001654210               0.999999988              -0.000000000               0.001684102               0.999999988              -0.000858897               0.000000000               0.999999988              -0.000904382               0.000000000               0.999999988              -0.000923346               0.000000000               0.999999988              -0.000933499               0.000000000               0.999999988              -0.000941462              -0.000000000               0.999999988              -0.000949635              -0.000000000               0.999999988              -0.000958679               0.000000000               0.999999988              -0.000968699               0.000000000               0.999999988              -0.000979414               0.000000000               0.999999988              -0.000990341               0.000000000               0.999999988              -0.001001038              -0.000000000               0.999999988              -0.001011276               0.000000000               0.999999988              -0.001020691               0.000000000               0.999999988              -0.001028901              -0.000000000               0.999999988              -0.001035594               0.000000000               0.999999988              -0.001040239              -0.000000000               0.999999988              -0.001042041               0.000000000               0.999999988              -0.000854397              -0.000119386               0.999999988              -0.000895905              -0.000094417               0.999999988              -0.000912169              -0.000082631               0.999999988              -0.000920573              -0.000077352               0.999999988              -0.000927299              -0.000075311               0.999999988              -0.000934451              -0.000074643               0.999999988              -0.000942609              -0.000074498               0.999999988              -0.000951711              -0.000074336               0.999999988              -0.000961362              -0.000073443               0.999999988              -0.000971083              -0.000071540               0.999999988              -0.000980530              -0.000068447               0.999999988              -0.000989266              -0.000063907               0.999999988              -0.000996834              -0.000057528               0.999999988              -0.001003052              -0.000048729               0.999999988              -0.001007508              -0.000036886               0.999999988              -0.001009814              -0.000021340               0.999999988              -0.001009414              -0.000000886               0.999999988              -0.000840598              -0.000237792               0.999999988              -0.000870624              -0.000188420               0.999999988              -0.000879601              -0.000166064               0.999999988              -0.000883301              -0.000156520               0.999999988              -0.000886739              -0.000153234               0.999999988              -0.000891280              -0.000152586               0.999999988              -0.000897064              -0.000152772               0.999999988              -0.000903642              -0.000152649               0.999999988              -0.000910393              -0.000151105               0.999999988              -0.000916862              -0.000147572               0.999999988              -0.000922539              -0.000141596               0.999999988              -0.000926886              -0.000132594               0.999999988              -0.000929481              -0.000120090               0.999999988              -0.000930064              -0.000103291               0.999999988              -0.000928402              -0.000081332               0.999999988              -0.000924414              -0.000053287               0.999999988              -0.000917957              -0.000017625               0.999999988              -0.000817727              -0.000354191               0.999999988              -0.000829720              -0.000281917               0.999999988              -0.000828226              -0.000251056               0.999999988              -0.000825608              -0.000239041               0.999999988              -0.000824854              -0.000235817               0.999999988              -0.000826044              -0.000236081               0.999999988              -0.000828467              -0.000237119               0.999999988              -0.000831487              -0.000237339               0.999999988              -0.000834250              -0.000235324               0.999999988              -0.000835915              -0.000230284               0.999999988              -0.000835851              -0.000221524               0.999999988              -0.000833566              -0.000208370               0.999999988              -0.000828818              -0.000190308               0.999999988              -0.000821538              -0.000166682               0.999999988              -0.000811615              -0.000136923               0.999999988              -0.000799104              -0.000100402               0.999999988              -0.000784247              -0.000056197               0.999999988              -0.000786294              -0.000467604               0.999999988              -0.000775022              -0.000374998               0.999999988              -0.000761683              -0.000338375               0.999999988              -0.000752848              -0.000325780               0.999999988              -0.000748073              -0.000323854               0.999999988              -0.000745984              -0.000325735               0.999999988              -0.000745138              -0.000328028               0.999999988              -0.000744193              -0.000328645               0.999999988              -0.000741978              -0.000326107               0.999999988              -0.000737637              -0.000319340               0.999999988              -0.000730547              -0.000307725               0.999999988              -0.000720501              -0.000290534               0.999999988              -0.000707225              -0.000267606               0.999999988              -0.000690759              -0.000238561               0.999999988              -0.000671240              -0.000203155               0.999999988              -0.000648915              -0.000161273               0.999999988              -0.000624308              -0.000112995               0.999999988              -0.000746626              -0.000577116               0.999999988              -0.000709188              -0.000467880               0.999999988              -0.000684911              -0.000428282               0.999999988              -0.000671138              -0.000416761               0.999999988              -0.000663628              -0.000416922               0.999999988              -0.000659170              -0.000420569               0.999999988              -0.000655265              -0.000423978               0.999999988              -0.000649971              -0.000424599               0.999999988              -0.000641967              -0.000421094               0.999999988              -0.000630553              -0.000412491               0.999999988              -0.000615280              -0.000397963               0.999999988              -0.000595939              -0.000377334               0.999999988              -0.000572615              -0.000350420               0.999999988              -0.000545474              -0.000317204               0.999999988              -0.000514973              -0.000278165               0.999999988              -0.000481753              -0.000233896               0.999999988              -0.000446883              -0.000185475               0.999999988              -0.000699456              -0.000681626               0.999999988              -0.000635505              -0.000560736               0.999999988              -0.000602818              -0.000520585               0.999999988              -0.000586519              -0.000511046               0.999999988              -0.000578066              -0.000513317               0.999999988              -0.000571869              -0.000518501               0.999999988              -0.000564740              -0.000522444               0.999999988              -0.000554539              -0.000522587               0.999999988              -0.000539968              -0.000517643               0.999999988              -0.000520350              -0.000507001               0.999999988              -0.000495510              -0.000489807               0.999999988              -0.000465488              -0.000466179               0.999999988              -0.000430729              -0.000436296               0.999999988              -0.000391900              -0.000400634               0.999999988              -0.000350027              -0.000360267               0.999999988              -0.000306299              -0.000316445               0.999999988              -0.000262102              -0.000271402               0.999999988              -0.000645832              -0.000779965               0.999999988              -0.000557422              -0.000653409               0.999999988              -0.000519961              -0.000614531               0.999999988              -0.000504012              -0.000606981               0.999999988              -0.000495629              -0.000611040               0.999999988              -0.000487907              -0.000617213               0.999999988              -0.000477261              -0.000621196               0.999999988              -0.000461451              -0.000620357               0.999999988              -0.000439266              -0.000613612               0.999999988              -0.000410273              -0.000600747               0.999999988              -0.000374679              -0.000581125               0.999999988              -0.000333048              -0.000555290               0.999999988              -0.000286399              -0.000523718               0.999999988              -0.000235968              -0.000487458               0.999999988              -0.000183129              -0.000447946               0.999999988              -0.000129340              -0.000407055               0.999999988              -0.000075842              -0.000366649               0.999999988              -0.000587462              -0.000870362               0.999999988              -0.000477746              -0.000745736               0.999999988              -0.000440733              -0.000708523               0.999999988              -0.000426847              -0.000702608               0.999999988              -0.000419130              -0.000707854               0.999999988              -0.000409720              -0.000714460               0.999999988              -0.000394917              -0.000718015               0.999999988              -0.000372609              -0.000715842               0.999999988              -0.000341608              -0.000707296               0.999999988              -0.000302121              -0.000692298               0.999999988              -0.000254791              -0.000670981               0.999999988              -0.000200758              -0.000644002               0.999999988              -0.000141561              -0.000612471               0.999999988              -0.000078721              -0.000577958               0.999999988              -0.000013990              -0.000542193               0.999999988               0.000051082              -0.000506948               0.999999988               0.000115475              -0.000473272               0.999999989              -0.000526821              -0.000956272               0.999999988              -0.000410782              -0.000850204               0.999999988              -0.000371533              -0.000810214               0.999999988              -0.000357304              -0.000800217               0.999999988              -0.000350513              -0.000802926               0.999999988              -0.000343077              -0.000809678               0.999999988              -0.000331377              -0.000815784               0.999999988              -0.000313352              -0.000818688               0.999999988              -0.000287716              -0.000816935               0.999999988              -0.000254015              -0.000810328               0.999999988              -0.000212466              -0.000799007               0.999999988              -0.000163819              -0.000783254               0.999999988              -0.000109120              -0.000763586               0.999999988              -0.000049259              -0.000740893               0.999999988               0.000014769              -0.000716480               0.999999988               0.000081273              -0.000691678               0.999999988               0.000148395              -0.000667868               0.999999988              -0.000460680              -0.001034848               0.999999988              -0.000346101              -0.000951711               0.999999988              -0.000304809              -0.000914896               0.999999988              -0.000289465              -0.000903116               0.999999988              -0.000282597              -0.000904374               0.999999988              -0.000276463              -0.000911432               0.999999988              -0.000267228              -0.000919874               0.999999988              -0.000252920              -0.000927192               0.999999988              -0.000232310              -0.000931711               0.999999988              -0.000204195              -0.000932734               0.999999988              -0.000168607              -0.000930078               0.999999988              -0.000125880              -0.000924057               0.999999988              -0.000076688              -0.000914909               0.999999988              -0.000021351              -0.000903177               0.999999988               0.000039445              -0.000889450               0.999999988               0.000104542              -0.000874742               0.999999988               0.000172398              -0.000860006               0.999999988              -0.000390301              -0.001104017               0.999999988              -0.000283705              -0.001047131               0.999999988              -0.000242293              -0.001017641               0.999999988              -0.000225682              -0.001007216               0.999999988              -0.000218220              -0.001008554               0.999999988              -0.000212581              -0.001016488               0.999999988              -0.000205247              -0.001027264               0.999999988              -0.000194071              -0.001038563               0.999999988              -0.000177777              -0.001048941               0.999999988              -0.000155222              -0.001057024               0.999999988              -0.000125831              -0.001062416               0.999999988              -0.000089517              -0.001065112               0.999999988              -0.000046380              -0.001065401               0.999999988               0.000003384              -0.001063554               0.999999988               0.000059390              -0.001059876               0.999999988               0.000121351              -0.001055005               0.999999988               0.000188226              -0.001049619               0.999999988              -0.000316384              -0.001162410               0.999999988              -0.000223800              -0.001132201               0.999999988              -0.000184880              -0.001113152               0.999999988              -0.000167967              -0.001106713               0.999999988              -0.000159938              -0.001109939               0.999999988              -0.000154474              -0.001119513               0.999999988              -0.000148527              -0.001132867               0.999999988              -0.000139863              -0.001147949               0.999999988              -0.000127403              -0.001163394               0.999999988              -0.000110142              -0.001178095               0.999999988              -0.000087039              -0.001191262               0.999999988              -0.000057401              -0.001202449               0.999999988              -0.000021074              -0.001211735               0.999999988               0.000021790              -0.001219111               0.999999988               0.000071464              -0.001224817               0.999999988               0.000128480              -0.001229147               0.999999988               0.000192929              -0.001232758               0.999999988              -0.000239644              -0.001208982               0.999999988              -0.000166099              -0.001202950               0.999999988              -0.000132791              -0.001195550               0.999999988              -0.000117253              -0.001194963               0.999999988              -0.000109503              -0.001201428               0.999999988              -0.000104462              -0.001213451               0.999999988              -0.000099496              -0.001229510               0.999999988              -0.000093002              -0.001248121               0.999999988              -0.000084013              -0.001268055               0.999999988              -0.000071601              -0.001288441               0.999999988              -0.000054428              -0.001308695               0.999999988              -0.000031879              -0.001328086               0.999999988              -0.000003532              -0.001346162               0.999999988               0.000030932              -0.001362819               0.999999988               0.000072108              -0.001377895               0.999999988               0.000121308              -0.001391487               0.999999988               0.000179977              -0.001403917               0.999999988              -0.000160903              -0.001242615               0.999999988              -0.000109990              -0.001255975               0.999999988              -0.000085538              -0.001259227               0.999999988              -0.000073490              -0.001264595               0.999999988              -0.000067249              -0.001274850               0.999999988              -0.000063181              -0.001289762               0.999999988              -0.000059386              -0.001308494               0.999999988              -0.000054997              -0.001330084               0.999999988              -0.000049251              -0.001353794               0.999999988              -0.000041121              -0.001378929               0.999999988              -0.000029788              -0.001404806               0.999999988              -0.000014613              -0.001430914               0.999999988               0.000004887              -0.001456766               0.999999988               0.000029250              -0.001481863               0.999999988               0.000059075              -0.001505834               0.999999988               0.000096005              -0.001528437               0.999999988               0.000142370              -0.001549387               0.999999988              -0.000080819              -0.001262850               0.999999988              -0.000054790              -0.001288677               0.999999988              -0.000041872              -0.001299487               0.999999988              -0.000035221              -0.001309387               0.999999988              -0.000031699              -0.001322659               0.999999988              -0.000029448              -0.001339836               0.999999988              -0.000027343              -0.001360576               0.999999988              -0.000025141              -0.001384352               0.999999988              -0.000022280              -0.001410737               0.999999988              -0.000018237              -0.001439149               0.999999988              -0.000012602              -0.001468955               0.999999988              -0.000004891              -0.001499642               0.999999988               0.000005216              -0.001530741               0.999999988               0.000017789              -0.001561740               0.999999988               0.000033479              -0.001592189               0.999999988               0.000053491              -0.001621532               0.999999988               0.000079367              -0.001648983               0.999999988               0.000000000              -0.001269682               0.999999988               0.000000000              -0.001299750               0.999999988               0.000000000              -0.001313215               0.999999988              -0.000000000              -0.001324817               0.999999988              -0.000000000              -0.001339230               0.999999988               0.000000000              -0.001357246               0.999999988              -0.000000000              -0.001378757               0.999999988              -0.000000000              -0.001403358               0.999999988               0.000000000              -0.001430645               0.999999988               0.000000000              -0.001460258               0.999999988              -0.000000000              -0.001491614               0.999999988              -0.000000000              -0.001524009               0.999999988               0.000000000              -0.001556880               0.999999988               0.000000000              -0.001589788               0.999999988               0.000000000              -0.001622423               0.999999988               0.000000000              -0.001654210               0.999999988              -0.000000000              -0.001684102               0.999999988               0.000858897               0.000000000               0.999999988               0.000904382              -0.000000000               0.999999988               0.000923346               0.000000000               0.999999988               0.000933499               0.000000000               0.999999988               0.000941462              -0.000000000               0.999999988               0.000949635               0.000000000               0.999999988               0.000958679               0.000000000               0.999999988               0.000968699               0.000000000               0.999999988               0.000979414               0.000000000               0.999999988               0.000990341               0.000000000               0.999999988               0.001001038              -0.000000000               0.999999988               0.001011276              -0.000000000               0.999999988               0.001020691              -0.000000000               0.999999988               0.001028901               0.000000000               0.999999988               0.001035594               0.000000000               0.999999988               0.001040239               0.000000000               0.999999988               0.001042041               0.000000000               0.999999988               0.000854397              -0.000119386               0.999999988               0.000895905              -0.000094417               0.999999988               0.000912169              -0.000082631               0.999999988               0.000920573              -0.000077352               0.999999988               0.000927299              -0.000075311               0.999999988               0.000934451              -0.000074643               0.999999988               0.000942609              -0.000074498               0.999999988               0.000951711              -0.000074336               0.999999988               0.000961362              -0.000073443               0.999999988               0.000971083              -0.000071540               0.999999988               0.000980530              -0.000068447               0.999999988               0.000989266              -0.000063907               0.999999988               0.000996834              -0.000057528               0.999999988               0.001003052              -0.000048729               0.999999988               0.001007508              -0.000036886               0.999999988               0.001009814              -0.000021340               0.999999988               0.001009414              -0.000000886               0.999999988               0.000840598              -0.000237792               0.999999988               0.000870624              -0.000188420               0.999999988               0.000879601              -0.000166064               0.999999988               0.000883301              -0.000156520               0.999999988               0.000886739              -0.000153234               0.999999988               0.000891280              -0.000152586               0.999999988               0.000897064              -0.000152772               0.999999988               0.000903642              -0.000152649               0.999999988               0.000910393              -0.000151105               0.999999988               0.000916862              -0.000147572               0.999999988               0.000922539              -0.000141596               0.999999988               0.000926886              -0.000132594               0.999999988               0.000929481              -0.000120090               0.999999988               0.000930064              -0.000103291               0.999999988               0.000928402              -0.000081332               0.999999988               0.000924414              -0.000053287               0.999999988               0.000917957              -0.000017625               0.999999988               0.000817727              -0.000354191               0.999999988               0.000829720              -0.000281917               0.999999988               0.000828226              -0.000251056               0.999999988               0.000825608              -0.000239041               0.999999988               0.000824854              -0.000235817               0.999999988               0.000826044              -0.000236081               0.999999988               0.000828467              -0.000237119               0.999999988               0.000831487              -0.000237339               0.999999988               0.000834250              -0.000235324               0.999999988               0.000835915              -0.000230284               0.999999988               0.000835851              -0.000221524               0.999999988               0.000833566              -0.000208370               0.999999988               0.000828818              -0.000190308               0.999999988               0.000821538              -0.000166682               0.999999988               0.000811615              -0.000136923               0.999999988               0.000799104              -0.000100402               0.999999988               0.000784247              -0.000056197               0.999999988               0.000786294              -0.000467604               0.999999988               0.000775022              -0.000374998               0.999999988               0.000761683              -0.000338375               0.999999988               0.000752848              -0.000325780               0.999999988               0.000748073              -0.000323854               0.999999988               0.000745984              -0.000325735               0.999999988               0.000745138              -0.000328028               0.999999988               0.000744193              -0.000328645               0.999999988               0.000741978              -0.000326107               0.999999988               0.000737637              -0.000319340               0.999999988               0.000730547              -0.000307725               0.999999988               0.000720501              -0.000290534               0.999999988               0.000707225              -0.000267606               0.999999988               0.000690759              -0.000238561               0.999999988               0.000671240              -0.000203155               0.999999988               0.000648915              -0.000161273               0.999999988               0.000624308              -0.000112995               0.999999988               0.000746626              -0.000577116               0.999999988               0.000709188              -0.000467880               0.999999988               0.000684911              -0.000428282               0.999999988               0.000671138              -0.000416761               0.999999988               0.000663628              -0.000416922               0.999999988               0.000659170              -0.000420569               0.999999988               0.000655265              -0.000423978               0.999999988               0.000649971              -0.000424599               0.999999988               0.000641967              -0.000421094               0.999999988               0.000630553              -0.000412491               0.999999988               0.000615280              -0.000397963               0.999999988               0.000595939              -0.000377334               0.999999988               0.000572615              -0.000350420               0.999999988               0.000545474              -0.000317204               0.999999988               0.000514973              -0.000278165               0.999999988               0.000481753              -0.000233896               0.999999988               0.000446883              -0.000185475               0.999999988               0.000699456              -0.000681626               0.999999988               0.000635505              -0.000560736               0.999999988               0.000602818              -0.000520585               0.999999988               0.000586519              -0.000511046               0.999999988               0.000578066              -0.000513317               0.999999988               0.000571869              -0.000518501               0.999999988               0.000564740              -0.000522444               0.999999988               0.000554539              -0.000522587               0.999999988               0.000539968              -0.000517643               0.999999988               0.000520350              -0.000507001               0.999999988               0.000495510              -0.000489807               0.999999988               0.000465488              -0.000466179               0.999999988               0.000430729              -0.000436296               0.999999988               0.000391900              -0.000400634               0.999999988               0.000350027              -0.000360267               0.999999988               0.000306299              -0.000316445               0.999999988               0.000262102              -0.000271402               0.999999988               0.000645832              -0.000779965               0.999999988               0.000557422              -0.000653409               0.999999988               0.000519961              -0.000614531               0.999999988               0.000504012              -0.000606981               0.999999988               0.000495629              -0.000611040               0.999999988               0.000487907              -0.000617213               0.999999988               0.000477261              -0.000621196               0.999999988               0.000461451              -0.000620357               0.999999988               0.000439266              -0.000613612               0.999999988               0.000410273              -0.000600747               0.999999988               0.000374679              -0.000581125               0.999999988               0.000333048              -0.000555290               0.999999988               0.000286399              -0.000523718               0.999999988               0.000235968              -0.000487458               0.999999988               0.000183129              -0.000447946               0.999999988               0.000129340              -0.000407055               0.999999988               0.000075842              -0.000366649               0.999999988               0.000587462              -0.000870362               0.999999988               0.000477746              -0.000745736               0.999999988               0.000440733              -0.000708523               0.999999988               0.000426847              -0.000702608               0.999999988               0.000419130              -0.000707854               0.999999988               0.000409720              -0.000714460               0.999999988               0.000394917              -0.000718015               0.999999988               0.000372609              -0.000715842               0.999999988               0.000341608              -0.000707296               0.999999988               0.000302121              -0.000692298               0.999999988               0.000254791              -0.000670981               0.999999988               0.000200758              -0.000644002               0.999999988               0.000141561              -0.000612471               0.999999988               0.000078721              -0.000577958               0.999999988               0.000013990              -0.000542193               0.999999988              -0.000051082              -0.000506948               0.999999988              -0.000115475              -0.000473272               0.999999989               0.000526821              -0.000956272               0.999999988               0.000410782              -0.000850204               0.999999988               0.000371533              -0.000810214               0.999999988               0.000357304              -0.000800217               0.999999988               0.000350513              -0.000802926               0.999999988               0.000343077              -0.000809678               0.999999988               0.000331377              -0.000815784               0.999999988               0.000313352              -0.000818688               0.999999988               0.000287716              -0.000816935               0.999999988               0.000254015              -0.000810328               0.999999988               0.000212466              -0.000799007               0.999999988               0.000163819              -0.000783254               0.999999988               0.000109120              -0.000763586               0.999999988               0.000049259              -0.000740893               0.999999988              -0.000014769              -0.000716480               0.999999988              -0.000081273              -0.000691678               0.999999988              -0.000148395              -0.000667868               0.999999988               0.000460680              -0.001034848               0.999999988               0.000346101              -0.000951711               0.999999988               0.000304809              -0.000914896               0.999999988               0.000289465              -0.000903116               0.999999988               0.000282597              -0.000904374               0.999999988               0.000276463              -0.000911432               0.999999988               0.000267228              -0.000919874               0.999999988               0.000252920              -0.000927192               0.999999988               0.000232310              -0.000931711               0.999999988               0.000204195              -0.000932734               0.999999988               0.000168607              -0.000930078               0.999999988               0.000125880              -0.000924057               0.999999988               0.000076688              -0.000914909               0.999999988               0.000021351              -0.000903177               0.999999988              -0.000039445              -0.000889450               0.999999988              -0.000104542              -0.000874742               0.999999988              -0.000172398              -0.000860006               0.999999988               0.000390301              -0.001104017               0.999999988               0.000283705              -0.001047131               0.999999988               0.000242293              -0.001017641               0.999999988               0.000225682              -0.001007216               0.999999988               0.000218220              -0.001008554               0.999999988               0.000212581              -0.001016488               0.999999988               0.000205247              -0.001027264               0.999999988               0.000194071              -0.001038563               0.999999988               0.000177777              -0.001048941               0.999999988               0.000155222              -0.001057024               0.999999988               0.000125831              -0.001062416               0.999999988               0.000089517              -0.001065112               0.999999988               0.000046380              -0.001065401               0.999999988              -0.000003384              -0.001063554               0.999999988              -0.000059390              -0.001059876               0.999999988              -0.000121351              -0.001055005               0.999999988              -0.000188226              -0.001049619               0.999999988               0.000316384              -0.001162410               0.999999988               0.000223800              -0.001132201               0.999999988               0.000184880              -0.001113152               0.999999988               0.000167967              -0.001106713               0.999999988               0.000159938              -0.001109939               0.999999988               0.000154474              -0.001119513               0.999999988               0.000148527              -0.001132867               0.999999988               0.000139863              -0.001147949               0.999999988               0.000127403              -0.001163394               0.999999988               0.000110142              -0.001178095               0.999999988               0.000087039              -0.001191262               0.999999988               0.000057401              -0.001202449               0.999999988               0.000021074              -0.001211735               0.999999988              -0.000021790              -0.001219111               0.999999988              -0.000071464              -0.001224817               0.999999988              -0.000128480              -0.001229147               0.999999988              -0.000192929              -0.001232758               0.999999988               0.000239644              -0.001208982               0.999999988               0.000166099              -0.001202950               0.999999988               0.000132791              -0.001195550               0.999999988               0.000117253              -0.001194963               0.999999988               0.000109503              -0.001201428               0.999999988               0.000104462              -0.001213451               0.999999988               0.000099496              -0.001229510               0.999999988               0.000093002              -0.001248121               0.999999988               0.000084013              -0.001268055               0.999999988               0.000071601              -0.001288441               0.999999988               0.000054428              -0.001308695               0.999999988               0.000031879              -0.001328086               0.999999988               0.000003532              -0.001346162               0.999999988              -0.000030932              -0.001362819               0.999999988              -0.000072108              -0.001377895               0.999999988              -0.000121308              -0.001391487               0.999999988              -0.000179977              -0.001403917               0.999999988               0.000160903              -0.001242615               0.999999988               0.000109990              -0.001255975               0.999999988               0.000085538              -0.001259227               0.999999988               0.000073490              -0.001264595               0.999999988               0.000067249              -0.001274850               0.999999988               0.000063181              -0.001289762               0.999999988               0.000059386              -0.001308494               0.999999988               0.000054997              -0.001330084               0.999999988               0.000049251              -0.001353794               0.999999988               0.000041121              -0.001378929               0.999999988               0.000029788              -0.001404806               0.999999988               0.000014613              -0.001430914               0.999999988              -0.000004887              -0.001456766               0.999999988              -0.000029250              -0.001481863               0.999999988              -0.000059075              -0.001505834               0.999999988              -0.000096005              -0.001528437               0.999999988              -0.000142370              -0.001549387               0.999999988               0.000080819              -0.001262850               0.999999988               0.000054790              -0.001288677               0.999999988               0.000041872              -0.001299487               0.999999988               0.000035221              -0.001309387               0.999999988               0.000031699              -0.001322659               0.999999988               0.000029448              -0.001339836               0.999999988               0.000027343              -0.001360576               0.999999988               0.000025141              -0.001384352               0.999999988               0.000022280              -0.001410737               0.999999988               0.000018237              -0.001439149               0.999999988               0.000012602              -0.001468955               0.999999988               0.000004891              -0.001499642               0.999999988              -0.000005216              -0.001530741               0.999999988              -0.000017789              -0.001561740               0.999999988              -0.000033479              -0.001592189               0.999999988              -0.000053491              -0.001621532               0.999999988              -0.000079367              -0.001648983               0.999999988               0.000000000              -0.001269682               0.999999988               0.000000000              -0.001299750               0.999999988               0.000000000              -0.001313215               0.999999988              -0.000000000              -0.001324817               0.999999988              -0.000000000              -0.001339230               0.999999988               0.000000000              -0.001357246               0.999999988              -0.000000000              -0.001378757               0.999999988              -0.000000000              -0.001403358               0.999999988               0.000000000              -0.001430645               0.999999988               0.000000000              -0.001460258               0.999999988              -0.000000000              -0.001491614               0.999999988              -0.000000000              -0.001524009               0.999999988               0.000000000              -0.001556880               0.999999988               0.000000000              -0.001589788               0.999999988               0.000000000              -0.001622423               0.999999988               0.000000000              -0.001654210               0.999999988              -0.000000000              -0.001684102               0.999999988               0.000858897               0.000000000               0.999999988               0.000904382              -0.000000000               0.999999988               0.000923346               0.000000000               0.999999988               0.000933499               0.000000000               0.999999988               0.000941462              -0.000000000               0.999999988               0.000949635               0.000000000               0.999999988               0.000958679               0.000000000               0.999999988               0.000968699               0.000000000               0.999999988               0.000979414               0.000000000               0.999999988               0.000990341               0.000000000               0.999999988               0.001001038              -0.000000000               0.999999988               0.001011276              -0.000000000               0.999999988               0.001020691              -0.000000000               0.999999988               0.001028901               0.000000000               0.999999988               0.001035594               0.000000000               0.999999988               0.001040239               0.000000000               0.999999988               0.001042041               0.000000000               0.999999988               0.000854397               0.000119386               0.999999988               0.000895905               0.000094417               0.999999988               0.000912169               0.000082631               0.999999988               0.000920573               0.000077352               0.999999988               0.000927299               0.000075311               0.999999988               0.000934451               0.000074643               0.999999988               0.000942609               0.000074498               0.999999988               0.000951711               0.000074336               0.999999988               0.000961362               0.000073443               0.999999988               0.000971083               0.000071540               0.999999988               0.000980530               0.000068447               0.999999988               0.000989266               0.000063907               0.999999988               0.000996834               0.000057528               0.999999988               0.001003052               0.000048729               0.999999988               0.001007508               0.000036886               0.999999988               0.001009814               0.000021340               0.999999988               0.001009414               0.000000886               0.999999988               0.000840598               0.000237792               0.999999988               0.000870624               0.000188420               0.999999988               0.000879601               0.000166064               0.999999988               0.000883301               0.000156520               0.999999988               0.000886739               0.000153234               0.999999988               0.000891280               0.000152586               0.999999988               0.000897064               0.000152772               0.999999988               0.000903642               0.000152649               0.999999988               0.000910393               0.000151105               0.999999988               0.000916862               0.000147572               0.999999988               0.000922539               0.000141596               0.999999988               0.000926886               0.000132594               0.999999988               0.000929481               0.000120090               0.999999988               0.000930064               0.000103291               0.999999988               0.000928402               0.000081332               0.999999988               0.000924414               0.000053287               0.999999988               0.000917957               0.000017625               0.999999988               0.000817727               0.000354191               0.999999988               0.000829720               0.000281917               0.999999988               0.000828226               0.000251056               0.999999988               0.000825608               0.000239041               0.999999988               0.000824854               0.000235817               0.999999988               0.000826044               0.000236081               0.999999988               0.000828467               0.000237119               0.999999988               0.000831487               0.000237339               0.999999988               0.000834250               0.000235324               0.999999988               0.000835915               0.000230284               0.999999988               0.000835851               0.000221524               0.999999988               0.000833566               0.000208370               0.999999988               0.000828818               0.000190308               0.999999988               0.000821538               0.000166682               0.999999988               0.000811615               0.000136923               0.999999988               0.000799104               0.000100402               0.999999988               0.000784247               0.000056197               0.999999988               0.000786294               0.000467604               0.999999988               0.000775022               0.000374998               0.999999988               0.000761683               0.000338375               0.999999988               0.000752848               0.000325780               0.999999988               0.000748073               0.000323854               0.999999988               0.000745984               0.000325735               0.999999988               0.000745138               0.000328028               0.999999988               0.000744193               0.000328645               0.999999988               0.000741978               0.000326107               0.999999988               0.000737637               0.000319340               0.999999988               0.000730547               0.000307725               0.999999988               0.000720501               0.000290534               0.999999988               0.000707225               0.000267606               0.999999988               0.000690759               0.000238561               0.999999988               0.000671240               0.000203155               0.999999988               0.000648915               0.000161273               0.999999988               0.000624308               0.000112995               0.999999988               0.000746626               0.000577116               0.999999988               0.000709188               0.000467880               0.999999988               0.000684911               0.000428282               0.999999988               0.000671138               0.000416761               0.999999988               0.000663628               0.000416922               0.999999988               0.000659170               0.000420569               0.999999988               0.000655265               0.000423978               0.999999988               0.000649971               0.000424599               0.999999988               0.000641967               0.000421094               0.999999988               0.000630553               0.000412491               0.999999988               0.000615280               0.000397963               0.999999988               0.000595939               0.000377334               0.999999988               0.000572615               0.000350420               0.999999988               0.000545474               0.000317204               0.999999988               0.000514973               0.000278165               0.999999988               0.000481753               0.000233896               0.999999988               0.000446883               0.000185475               0.999999988               0.000699456               0.000681626               0.999999988               0.000635505               0.000560736               0.999999988               0.000602818               0.000520585               0.999999988               0.000586519               0.000511046               0.999999988               0.000578066               0.000513317               0.999999988               0.000571869               0.000518501               0.999999988               0.000564740               0.000522444               0.999999988               0.000554539               0.000522587               0.999999988               0.000539968               0.000517643               0.999999988               0.000520350               0.000507001               0.999999988               0.000495510               0.000489807               0.999999988               0.000465488               0.000466179               0.999999988               0.000430729               0.000436296               0.999999988               0.000391900               0.000400634               0.999999988               0.000350027               0.000360267               0.999999988               0.000306299               0.000316445               0.999999988               0.000262102               0.000271402               0.999999988               0.000645832               0.000779965               0.999999988               0.000557422               0.000653409               0.999999988               0.000519961               0.000614531               0.999999988               0.000504012               0.000606981               0.999999988               0.000495629               0.000611040               0.999999988               0.000487907               0.000617213               0.999999988               0.000477261               0.000621196               0.999999988               0.000461451               0.000620357               0.999999988               0.000439266               0.000613612               0.999999988               0.000410273               0.000600747               0.999999988               0.000374679               0.000581125               0.999999988               0.000333048               0.000555290               0.999999988               0.000286399               0.000523718               0.999999988               0.000235968               0.000487458               0.999999988               0.000183129               0.000447946               0.999999988               0.000129340               0.000407055               0.999999988               0.000075842               0.000366649               0.999999988               0.000587462               0.000870362               0.999999988               0.000477746               0.000745736               0.999999988               0.000440733               0.000708523               0.999999988               0.000426847               0.000702608               0.999999988               0.000419130               0.000707854               0.999999988               0.000409720               0.000714460               0.999999988               0.000394917               0.000718015               0.999999988               0.000372609               0.000715842               0.999999988               0.000341608               0.000707296               0.999999988               0.000302121               0.000692298               0.999999988               0.000254791               0.000670981               0.999999988               0.000200758               0.000644002               0.999999988               0.000141561               0.000612471               0.999999988               0.000078721               0.000577958               0.999999988               0.000013990               0.000542193               0.999999988              -0.000051082               0.000506948               0.999999988              -0.000115475               0.000473272               0.999999989               0.000526821               0.000956272               0.999999988               0.000410782               0.000850204               0.999999988               0.000371533               0.000810214               0.999999988               0.000357304               0.000800217               0.999999988               0.000350513               0.000802926               0.999999988               0.000343077               0.000809678               0.999999988               0.000331377               0.000815784               0.999999988               0.000313352               0.000818688               0.999999988               0.000287716               0.000816935               0.999999988               0.000254015               0.000810328               0.999999988               0.000212466               0.000799007               0.999999988               0.000163819               0.000783254               0.999999988               0.000109120               0.000763586               0.999999988               0.000049259               0.000740893               0.999999988              -0.000014769               0.000716480               0.999999988              -0.000081273               0.000691678               0.999999988              -0.000148395               0.000667868               0.999999988               0.000460680               0.001034848               0.999999988               0.000346101               0.000951711               0.999999988               0.000304809               0.000914896               0.999999988               0.000289465               0.000903116               0.999999988               0.000282597               0.000904374               0.999999988               0.000276463               0.000911432               0.999999988               0.000267228               0.000919874               0.999999988               0.000252920               0.000927192               0.999999988               0.000232310               0.000931711               0.999999988               0.000204195               0.000932734               0.999999988               0.000168607               0.000930078               0.999999988               0.000125880               0.000924057               0.999999988               0.000076688               0.000914909               0.999999988               0.000021351               0.000903177               0.999999988              -0.000039445               0.000889450               0.999999988              -0.000104542               0.000874742               0.999999988              -0.000172398               0.000860006               0.999999988               0.000390301               0.001104017               0.999999988               0.000283705               0.001047131               0.999999988               0.000242293               0.001017641               0.999999988               0.000225682               0.001007216               0.999999988               0.000218220               0.001008554               0.999999988               0.000212581               0.001016488               0.999999988               0.000205247               0.001027264               0.999999988               0.000194071               0.001038563               0.999999988               0.000177777               0.001048941               0.999999988               0.000155222               0.001057024               0.999999988               0.000125831               0.001062416               0.999999988               0.000089517               0.001065112               0.999999988               0.000046380               0.001065401               0.999999988              -0.000003384               0.001063554               0.999999988              -0.000059390               0.001059876               0.999999988              -0.000121351               0.001055005               0.999999988              -0.000188226               0.001049619               0.999999988               0.000316384               0.001162410               0.999999988               0.000223800               0.001132201               0.999999988               0.000184880               0.001113152               0.999999988               0.000167967               0.001106713               0.999999988               0.000159938               0.001109939               0.999999988               0.000154474               0.001119513               0.999999988               0.000148527               0.001132867               0.999999988               0.000139863               0.001147949               0.999999988               0.000127403               0.001163394               0.999999988               0.000110142               0.001178095               0.999999988               0.000087039               0.001191262               0.999999988               0.000057401               0.001202449               0.999999988               0.000021074               0.001211735               0.999999988              -0.000021790               0.001219111               0.999999988              -0.000071464               0.001224817               0.999999988              -0.000128480               0.001229147               0.999999988              -0.000192929               0.001232758               0.999999988               0.000239644               0.001208982               0.999999988               0.000166099               0.001202950               0.999999988               0.000132791               0.001195550               0.999999988               0.000117253               0.001194963               0.999999988               0.000109503               0.001201428               0.999999988               0.000104462               0.001213451               0.999999988               0.000099496               0.001229510               0.999999988               0.000093002               0.001248121               0.999999988               0.000084013               0.001268055               0.999999988               0.000071601               0.001288441               0.999999988               0.000054428               0.001308695               0.999999988               0.000031879               0.001328086               0.999999988               0.000003532               0.001346162               0.999999988              -0.000030932               0.001362819               0.999999988              -0.000072108               0.001377895               0.999999988              -0.000121308               0.001391487               0.999999988              -0.000179977               0.001403917               0.999999988               0.000160903               0.001242615               0.999999988               0.000109990               0.001255975               0.999999988               0.000085538               0.001259227               0.999999988               0.000073490               0.001264595               0.999999988               0.000067249               0.001274850               0.999999988               0.000063181               0.001289762               0.999999988               0.000059386               0.001308494               0.999999988               0.000054997               0.001330084               0.999999988               0.000049251               0.001353794               0.999999988               0.000041121               0.001378929               0.999999988               0.000029788               0.001404806               0.999999988               0.000014613               0.001430914               0.999999988              -0.000004887               0.001456766               0.999999988              -0.000029250               0.001481863               0.999999988              -0.000059075               0.001505834               0.999999988              -0.000096005               0.001528437               0.999999988              -0.000142370               0.001549387               0.999999988               0.000080819               0.001262850               0.999999988               0.000054790               0.001288677               0.999999988               0.000041872               0.001299487               0.999999988               0.000035221               0.001309387               0.999999988               0.000031699               0.001322659               0.999999988               0.000029448               0.001339836               0.999999988               0.000027343               0.001360576               0.999999988               0.000025141               0.001384352               0.999999988               0.000022280               0.001410737               0.999999988               0.000018237               0.001439149               0.999999988               0.000012602               0.001468955               0.999999988               0.000004891               0.001499642               0.999999988              -0.000005216               0.001530741               0.999999988              -0.000017789               0.001561740               0.999999988              -0.000033479               0.001592189               0.999999988              -0.000053491               0.001621532               0.999999988              -0.000079367               0.001648983               0.999999988               0.000000000               0.001269682               0.999999988              -0.000000000               0.001299750               0.999999988               0.000000000               0.001313215               0.999999988              -0.000000000               0.001324817               0.999999988              -0.000000000               0.001339230               0.999999988              -0.000000000               0.001357246               0.999999988              -0.000000000               0.001378757               0.999999988              -0.000000000               0.001403358               0.999999988               0.000000000               0.001430645               0.999999988              -0.000000000               0.001460258               0.999999988              -0.000000000               0.001491614               0.999999988               0.000000000               0.001524009               0.999999988              -0.000000000               0.001556880               0.999999988              -0.000000000               0.001589788               0.999999988              -0.000000000               0.001622423               0.999999988              -0.000000000               0.001654210               0.999999988              -0.000000000               0.001684102               0.999999988 </DataArray>
<DataArray type="Float64"                                    Name="stress"                                                      NumberOfComponents="10" format="ascii">
              0.002047078               0.021651850               0.000000000              -0.001938822               0.007863485               0.005924663               0.000000000               0.000000000               0.000000000               0.000000000               0.001950487               0.016571747               0.000000000              -0.001340033               0.005970538               0.004630505               0.000000000               0.000000000               0.000000000               0.000000000               0.002495412               0.012422506              -0.000000000              -0.000617032               0.004346471               0.003729439               0.000000000               0.000000000               0.000000000               0.000000000               0.002297231               0.010062684              -0.000000000              -0.000396373               0.003486319               0.003089946               0.000000000               0.000000000               0.000000000               0.000000000               0.001890698               0.008552565              -0.000000000              -0.000360058               0.002970846               0.002610788               0.000000000               0.000000000               0.000000000               0.000000000               0.001464052               0.007476805               0.000000000              -0.000385580               0.002620770               0.002235190               0.000000000               0.000000000               0.000000000               0.000000000               0.001080651               0.006646077               0.000000000              -0.000425514               0.002357175               0.001931660               0.000000000               0.000000000               0.000000000               0.000000000               0.000760424               0.005957801               0.000000000              -0.000459565               0.002139102               0.001679537               0.000000000               0.000000000               0.000000000               0.000000000               0.000510015               0.005341265               0.000000000              -0.000476401               0.001939204               0.001462803               0.000000000               0.000000000               0.000000000               0.000000000               0.000322777               0.004761577              -0.000000000              -0.000474155               0.001745228               0.001271073               0.000000000               0.000000000               0.000000000               0.000000000               0.000181045               0.004196856              -0.000000000              -0.000456714               0.001551176               0.001094462               0.000000000               0.000000000               0.000000000               0.000000000               0.000078284               0.003629817               0.000000000              -0.000424370               0.001351383               0.000927014               0.000000000               0.000000000               0.000000000               0.000000000               0.000008342               0.003039953              -0.000000000              -0.000376865               0.001138929               0.000762064               0.000000000               0.000000000               0.000000000               0.000000000              -0.000039681               0.002401630               0.000000000              -0.000315084               0.000905563               0.000590480               0.000000000               0.000000000               0.000000000               0.000000000              -0.000062304               0.001695754               0.000000000              -0.000235333               0.000643690               0.000408357               0.000000000               0.000000000               0.000000000               0.000000000              -0.000042907               0.000906409              -0.000000000              -0.000129391               0.000345264               0.000215873               0.000000000               0.000000000               0.000000000               0.000000000              -0.000084159               0.000306006               0.000000000              -0.000069810               0.000125271               0.000055460               0.000000000               0.000000000               0.000000000               0.000000000               0.002110502               0.021187801              -0.001435660              -0.001857032               0.007681541               0.005824508               0.000000000               0.000000000               0.000000000               0.000000000               0.001895621               0.016272156              -0.000638220              -0.001323158               0.005865050               0.004541892               0.000000000               0.000000000               0.000000000               0.000000000               0.002312630               0.012301756               0.000150673              -0.000670481               0.004324038               0.003653557               0.000000000               0.000000000               0.000000000               0.000000000               0.002062236               0.010034987               0.000476674              -0.000481034               0.003505307               0.003024273               0.000000000               0.000000000               0.000000000               0.000000000               0.001646856               0.008576524               0.000600622              -0.000454494               0.003010311               0.002555817               0.000000000               0.000000000               0.000000000               0.000000000               0.001230140               0.007532039               0.000635717              -0.000480201               0.002670722               0.002190520               0.000000000               0.000000000               0.000000000               0.000000000               0.000865377               0.006717848               0.000633665              -0.000515214               0.002410998               0.001895784               0.000000000               0.000000000               0.000000000               0.000000000               0.000570523               0.006036373               0.000610570              -0.000540599               0.002192304               0.001651704               0.000000000               0.000000000               0.000000000               0.000000000               0.000345623               0.005425517               0.000577157              -0.000548580               0.001991347               0.001442768               0.000000000               0.000000000               0.000000000               0.000000000               0.000178304               0.004850416               0.000542577              -0.000539437               0.001796601               0.001257164               0.000000000               0.000000000               0.000000000               0.000000000               0.000058637               0.004289479               0.000506783              -0.000514195               0.001601210               0.001087015               0.000000000               0.000000000               0.000000000               0.000000000              -0.000015873               0.003726907               0.000467993              -0.000471815               0.001399561               0.000927747               0.000000000               0.000000000               0.000000000               0.000000000              -0.000061591               0.003145920               0.000419995              -0.000416336               0.001187408               0.000771072               0.000000000               0.000000000               0.000000000               0.000000000              -0.000086938               0.002529918               0.000356314              -0.000348841               0.000959578               0.000610737               0.000000000               0.000000000               0.000000000               0.000000000              -0.000087263               0.001867174               0.000273610              -0.000266120               0.000711092               0.000444972               0.000000000               0.000000000               0.000000000               0.000000000              -0.000055057               0.001146258               0.000157262              -0.000163929               0.000436725               0.000272796               0.000000000               0.000000000               0.000000000               0.000000000              -0.000085440               0.000610879               0.000098438              -0.000108400               0.000239757               0.000131358               0.000000000               0.000000000               0.000000000               0.000000000               0.002243728               0.019855783              -0.002643482              -0.001640572               0.007165385               0.005524813               0.000000000               0.000000000               0.000000000               0.000000000               0.001702304               0.015425934              -0.001164988              -0.001289875               0.005571885               0.004282010               0.000000000               0.000000000               0.000000000               0.000000000               0.001773009               0.011962905               0.000279344              -0.000830483               0.004264423               0.003433940               0.000000000               0.000000000               0.000000000               0.000000000               0.001401251               0.009958743               0.000852287              -0.000719372               0.003559339               0.002839966               0.000000000               0.000000000               0.000000000               0.000000000               0.000973873               0.008640054               0.001059581              -0.000714803               0.003118257               0.002403454               0.000000000               0.000000000               0.000000000               0.000000000               0.000595281               0.007672059               0.001109607              -0.000735776               0.002802586               0.002066810               0.000000000               0.000000000               0.000000000               0.000000000               0.000288984               0.006895281               0.001096605              -0.000753540               0.002549584               0.001796044               0.000000000               0.000000000               0.000000000               0.000000000               0.000063767               0.006229834               0.001049219              -0.000754815               0.002328196               0.001573380               0.000000000               0.000000000               0.000000000               0.000000000              -0.000090677               0.005629085               0.000984714              -0.000737638               0.002122222               0.001384584               0.000000000               0.000000000               0.000000000               0.000000000              -0.000190581               0.005062958               0.000918309              -0.000704336               0.001922414               0.001218078               0.000000000               0.000000000               0.000000000               0.000000000              -0.000241596               0.004511775               0.000850139              -0.000654569               0.001722100               0.001067530               0.000000000               0.000000000               0.000000000               0.000000000              -0.000251324               0.003963028               0.000777245              -0.000589624               0.001517537               0.000927914               0.000000000               0.000000000               0.000000000               0.000000000              -0.000235672               0.003409600               0.000690718              -0.000514576               0.001308047               0.000793471               0.000000000               0.000000000               0.000000000               0.000000000              -0.000200801               0.002850659               0.000580143              -0.000431632               0.001094087               0.000662455               0.000000000               0.000000000               0.000000000               0.000000000              -0.000149362               0.002288697               0.000439013              -0.000342097               0.000876924               0.000534827               0.000000000               0.000000000               0.000000000               0.000000000              -0.000082250               0.001727130               0.000248940              -0.000246734               0.000657949               0.000411215               0.000000000               0.000000000               0.000000000               0.000000000              -0.000084156               0.001340662               0.000153462              -0.000199141               0.000513263               0.000314122               0.000000000               0.000000000               0.000000000               0.000000000               0.002336876               0.017835165              -0.003469096              -0.001353066               0.006396017               0.005042951               0.000000000               0.000000000               0.000000000               0.000000000               0.001336206               0.014172049              -0.001516022              -0.001270426               0.005147444               0.003877018               0.000000000               0.000000000               0.000000000               0.000000000               0.000925365               0.011472249               0.000359758              -0.001087017               0.004186384               0.003099367               0.000000000               0.000000000               0.000000000               0.000000000               0.000424130               0.009838394               0.001056319              -0.001070748               0.003636348               0.002565600               0.000000000               0.000000000               0.000000000               0.000000000               0.000016039               0.008704574               0.001287692              -0.001082055               0.003262181               0.002180125               0.000000000               0.000000000               0.000000000               0.000000000              -0.000277395               0.007829215               0.001326951              -0.001082673               0.002970603               0.001887930               0.000000000               0.000000000               0.000000000               0.000000000              -0.000478100               0.007096159               0.001291560              -0.001066305               0.002720798               0.001654492               0.000000000               0.000000000               0.000000000               0.000000000              -0.000601132               0.006445207               0.001221433              -0.001031073               0.002492072               0.001460998               0.000000000               0.000000000               0.000000000               0.000000000              -0.000650243               0.005850255               0.001135652              -0.000975121               0.002275105               0.001299985               0.000000000               0.000000000               0.000000000               0.000000000              -0.000642851               0.005288726               0.001048077              -0.000902158               0.002063610               0.001161452               0.000000000               0.000000000               0.000000000               0.000000000              -0.000595055               0.004747341               0.000956349              -0.000816562               0.001854618               0.001038057               0.000000000               0.000000000               0.000000000               0.000000000              -0.000519489               0.004220003               0.000857252              -0.000722307               0.001647423               0.000925115               0.000000000               0.000000000               0.000000000               0.000000000              -0.000430871               0.003708672               0.000744696              -0.000625159               0.001444598               0.000819439               0.000000000               0.000000000               0.000000000               0.000000000              -0.000331642               0.003222048               0.000610030              -0.000527121               0.001249712               0.000722591               0.000000000               0.000000000               0.000000000               0.000000000              -0.000221666               0.002772265               0.000447967              -0.000429657               0.001067298               0.000637641               0.000000000               0.000000000               0.000000000               0.000000000              -0.000110569               0.002372191               0.000245954              -0.000337986               0.000903384               0.000565398               0.000000000               0.000000000               0.000000000               0.000000000              -0.000082365               0.002126526               0.000147073              -0.000296702               0.000807735               0.000511033               0.000000000               0.000000000               0.000000000               0.000000000               0.002258812               0.015377001              -0.003828379              -0.001075071               0.005483972               0.004408901               0.000000000               0.000000000               0.000000000               0.000000000               0.000780958               0.012683450              -0.001675872              -0.001292570               0.004658631               0.003366061               0.000000000               0.000000000               0.000000000               0.000000000              -0.000131535               0.010896730               0.000350158              -0.001411413               0.004102678               0.002691265               0.000000000               0.000000000               0.000000000               0.000000000              -0.000706963               0.009667226               0.001045047              -0.001473511               0.003713547               0.002240036               0.000000000               0.000000000               0.000000000               0.000000000              -0.001030648               0.008718928               0.001249568              -0.001476356               0.003398398               0.001922043               0.000000000               0.000000000               0.000000000               0.000000000              -0.001195684               0.007922147               0.001262867              -0.001438646               0.003120238               0.001681591               0.000000000               0.000000000               0.000000000               0.000000000              -0.001250765               0.007222717               0.001207199              -0.001371873               0.002864839               0.001492966               0.000000000               0.000000000               0.000000000               0.000000000              -0.001229953               0.006581015               0.001128486              -0.001283856               0.002621602               0.001337745               0.000000000               0.000000000               0.000000000               0.000000000              -0.001151614               0.005987538               0.001040919              -0.001180295               0.002389257               0.001208963               0.000000000               0.000000000               0.000000000               0.000000000              -0.001031690               0.005432019               0.000949129              -0.001065884               0.002165949               0.001100066               0.000000000               0.000000000               0.000000000               0.000000000              -0.000890828               0.004904639               0.000851135              -0.000947138               0.001950576               0.001003438               0.000000000               0.000000000               0.000000000               0.000000000              -0.000736811               0.004411330               0.000746353              -0.000827718               0.001746335               0.000918616               0.000000000               0.000000000               0.000000000               0.000000000              -0.000575895               0.003956801               0.000632433              -0.000710559               0.001555773               0.000845214               0.000000000               0.000000000               0.000000000               0.000000000              -0.000418718               0.003548349               0.000503504              -0.000600561               0.001382958               0.000782397               0.000000000               0.000000000               0.000000000               0.000000000              -0.000265384               0.003202922               0.000356540              -0.000499883               0.001234258               0.000734375               0.000000000               0.000000000               0.000000000               0.000000000              -0.000126609               0.002937177               0.000187781              -0.000414624               0.001117257               0.000702633               0.000000000               0.000000000               0.000000000               0.000000000              -0.000078484               0.002799162               0.000107182              -0.000379326               0.001059487               0.000680161               0.000000000               0.000000000               0.000000000               0.000000000               0.001872798               0.012725640              -0.003735925              -0.000888407               0.004537972               0.003649566               0.000000000               0.000000000               0.000000000               0.000000000               0.000033864               0.011118726              -0.001684722              -0.001377139               0.004165251               0.002788112               0.000000000               0.000000000               0.000000000               0.000000000              -0.001266876               0.010281062               0.000214105              -0.001760207               0.004013722               0.002253515               0.000000000               0.000000000               0.000000000               0.000000000              -0.001813673               0.009426296               0.000812181              -0.001858410               0.003761537               0.001903127               0.000000000               0.000000000               0.000000000               0.000000000              -0.001987160               0.008629354               0.000964478              -0.001823850               0.003484372               0.001660522               0.000000000               0.000000000               0.000000000               0.000000000              -0.001979126               0.007891614               0.000961948              -0.001728620               0.003206718               0.001478098               0.000000000               0.000000000               0.000000000               0.000000000              -0.001865580               0.007211041               0.000912012              -0.001600969               0.002937312               0.001336344               0.000000000               0.000000000               0.000000000               0.000000000              -0.001686760               0.006577738               0.000848420              -0.001454749               0.002677474               0.001222725               0.000000000               0.000000000               0.000000000               0.000000000              -0.001475109               0.005992767               0.000782301              -0.001302259               0.002431655               0.001129397               0.000000000               0.000000000               0.000000000               0.000000000              -0.001250193               0.005456872               0.000707431              -0.001150929               0.002202582               0.001051653               0.000000000               0.000000000               0.000000000               0.000000000              -0.001022281               0.004964138               0.000626583              -0.001003870               0.001989319               0.000985449               0.000000000               0.000000000               0.000000000               0.000000000              -0.000801161               0.004522686               0.000541717              -0.000865769               0.001796136               0.000930367               0.000000000               0.000000000               0.000000000               0.000000000              -0.000591291               0.004135977               0.000446945              -0.000738730               0.001624888               0.000886159               0.000000000               0.000000000               0.000000000               0.000000000              -0.000398997               0.003814151               0.000343886              -0.000626391               0.001480168               0.000853777               0.000000000               0.000000000               0.000000000               0.000000000              -0.000230361               0.003573474               0.000232773              -0.000533068               0.001368835               0.000835767               0.000000000               0.000000000               0.000000000               0.000000000              -0.000099743               0.003428350               0.000116481              -0.000465946               0.001298087               0.000832141               0.000000000               0.000000000               0.000000000               0.000000000              -0.000047509               0.003384278               0.000058951              -0.000440850               0.001275031               0.000834182               0.000000000               0.000000000               0.000000000               0.000000000               0.001123772               0.010102412              -0.003278299              -0.000841388               0.003647899               0.002806511               0.000000000               0.000000000               0.000000000               0.000000000              -0.000861172               0.009602568              -0.001599281              -0.001523258               0.003708576               0.002185318               0.000000000               0.000000000               0.000000000               0.000000000              -0.002360472               0.009642824              -0.000056187              -0.002090525               0.003911084               0.001820559               0.000000000               0.000000000               0.000000000               0.000000000              -0.002761327               0.009090386               0.000398025              -0.002171790               0.003754028               0.001582238               0.000000000               0.000000000               0.000000000               0.000000000              -0.002729817               0.008410858               0.000516678              -0.002075033               0.003495269               0.001420236               0.000000000               0.000000000               0.000000000               0.000000000              -0.002521525               0.007725040               0.000528479              -0.001911197               0.003212053               0.001300856               0.000000000               0.000000000               0.000000000               0.000000000              -0.002236648               0.007067873               0.000509212              -0.001722223               0.002930008               0.001207785               0.000000000               0.000000000               0.000000000               0.000000000              -0.001912287               0.006453342               0.000480898              -0.001523772               0.002659016               0.001135245               0.000000000               0.000000000               0.000000000               0.000000000              -0.001577960               0.005891950               0.000454386              -0.001328225               0.002406705               0.001078480               0.000000000               0.000000000               0.000000000               0.000000000              -0.001256349               0.005389504               0.000416789              -0.001144816               0.002178089               0.001033273               0.000000000               0.000000000               0.000000000               0.000000000              -0.000955035               0.004946981               0.000367694              -0.000976508               0.001974480               0.000997972               0.000000000               0.000000000               0.000000000               0.000000000              -0.000680652               0.004571182               0.000311572              -0.000826640               0.001799259               0.000972619               0.000000000               0.000000000               0.000000000               0.000000000              -0.000441749               0.004265939               0.000243065              -0.000698896               0.001654931               0.000956034               0.000000000               0.000000000               0.000000000               0.000000000              -0.000245062               0.004040253               0.000167978              -0.000596928               0.001545714               0.000948785               0.000000000               0.000000000               0.000000000               0.000000000              -0.000102614               0.003898711               0.000093405              -0.000525818               0.001474830               0.000949012               0.000000000               0.000000000               0.000000000               0.000000000              -0.000025123               0.003845940               0.000033952              -0.000490162               0.001445355               0.000955192               0.000000000               0.000000000               0.000000000               0.000000000               0.000003496               0.003857783               0.000006420              -0.000480911               0.001446218               0.000965308               0.000000000               0.000000000               0.000000000               0.000000000               0.000061750               0.007687083              -0.002562680              -0.000937729               0.002874911               0.001937182               0.000000000               0.000000000               0.000000000               0.000000000              -0.001840780               0.008220877              -0.001470284              -0.001717898               0.003312897               0.001594999               0.000000000               0.000000000               0.000000000               0.000000000              -0.003301007               0.008970693              -0.000446104              -0.002359208               0.003776604               0.001417395               0.000000000               0.000000000               0.000000000               0.000000000              -0.003454076               0.008652253              -0.000119468              -0.002376804               0.003676324               0.001299519               0.000000000               0.000000000               0.000000000               0.000000000              -0.003192035               0.008074159               0.000005994              -0.002206278               0.003426785               0.001220508               0.000000000               0.000000000               0.000000000               0.000000000              -0.002795618               0.007439859               0.000059496              -0.001978334               0.003139373               0.001161039               0.000000000               0.000000000               0.000000000               0.000000000              -0.002355827               0.006820069               0.000087153              -0.001735939               0.002851980               0.001116041               0.000000000               0.000000000               0.000000000               0.000000000              -0.001901897               0.006241968               0.000106079              -0.001493454               0.002578453               0.001085000               0.000000000               0.000000000               0.000000000               0.000000000              -0.001464713               0.005725073               0.000127891              -0.001264898               0.002329971               0.001065073               0.000000000               0.000000000               0.000000000               0.000000000              -0.001065945               0.005273519               0.000135917              -0.001058917               0.002110794               0.001051878               0.000000000               0.000000000               0.000000000               0.000000000              -0.000713096               0.004898738               0.000124731              -0.000879751               0.001926147               0.001046396               0.000000000               0.000000000               0.000000000               0.000000000              -0.000416409               0.004603303               0.000100306              -0.000731564               0.001778274               0.001046709               0.000000000               0.000000000               0.000000000               0.000000000              -0.000184594               0.004390796               0.000061985              -0.000618071               0.001669607               0.001051537               0.000000000               0.000000000               0.000000000               0.000000000              -0.000023309               0.004266459               0.000019975              -0.000542047               0.001602821               0.001060774               0.000000000               0.000000000               0.000000000               0.000000000               0.000058104               0.004224199              -0.000012663              -0.000506235               0.001576797               0.001070563               0.000000000               0.000000000               0.000000000               0.000000000               0.000059362               0.004250020              -0.000022276              -0.000508990               0.001586323               0.001077332               0.000000000               0.000000000               0.000000000               0.000000000               0.000045081               0.004294807              -0.000024724              -0.000519944               0.001604903               0.001084958               0.000000000               0.000000000               0.000000000               0.000000000              -0.001184560               0.005658832              -0.001707554              -0.001151562               0.002270112               0.001118550               0.000000000               0.000000000               0.000000000               0.000000000              -0.002799184               0.006983973              -0.001337473              -0.001922686               0.002968863               0.001046177               0.000000000               0.000000000               0.000000000               0.000000000              -0.004044502               0.008282066              -0.000912180              -0.002551940               0.003611308               0.001059367               0.000000000               0.000000000               0.000000000               0.000000000              -0.003934477               0.008206113              -0.000665316              -0.002501187               0.003569073               0.001067886               0.000000000               0.000000000               0.000000000               0.000000000              -0.003476024               0.007753859              -0.000508062              -0.002272736               0.003342173               0.001069437               0.000000000               0.000000000               0.000000000               0.000000000              -0.002928853               0.007200627              -0.000399283              -0.001998393               0.003066316               0.001067923               0.000000000               0.000000000               0.000000000               0.000000000              -0.002371945               0.006639468              -0.000316905              -0.001719409               0.002786270               0.001066861               0.000000000               0.000000000               0.000000000               0.000000000              -0.001819521               0.006119082              -0.000246637              -0.001447202               0.002522074               0.001074872               0.000000000               0.000000000               0.000000000               0.000000000              -0.001300346               0.005661266              -0.000178885              -0.001195285               0.002285498               0.001090213               0.000000000               0.000000000               0.000000000               0.000000000              -0.000843930               0.005265967              -0.000123389              -0.000974717               0.002080211               0.001105493               0.000000000               0.000000000               0.000000000               0.000000000              -0.000457662               0.004947302              -0.000087517              -0.000790034               0.001912429               0.001122395               0.000000000               0.000000000               0.000000000               0.000000000              -0.000150526               0.004708600              -0.000069373              -0.000645021               0.001784525               0.001139504               0.000000000               0.000000000               0.000000000               0.000000000               0.000074797               0.004558747              -0.000062162              -0.000541793               0.001700165               0.001158372               0.000000000               0.000000000               0.000000000               0.000000000               0.000211286               0.004502131              -0.000055139              -0.000483533               0.001661873               0.001178340               0.000000000               0.000000000               0.000000000               0.000000000               0.000253687               0.004533256              -0.000042560              -0.000471523               0.001668245               0.001196722               0.000000000               0.000000000               0.000000000               0.000000000               0.000219047               0.004631187              -0.000023534              -0.000496755               0.001709298               0.001212544               0.000000000               0.000000000               0.000000000               0.000000000               0.000175007               0.004700626              -0.000012295              -0.000521949               0.001740843               0.001218893               0.000000000               0.000000000               0.000000000               0.000000000              -0.002624242               0.003784795              -0.000817428              -0.001457187               0.001747314               0.000290127               0.000000000               0.000000000               0.000000000               0.000000000              -0.003612681               0.005544341              -0.001192251              -0.002047793               0.002530693               0.000482899               0.000000000               0.000000000               0.000000000               0.000000000              -0.004504849               0.007231403              -0.001393971              -0.002593237               0.003274856               0.000681618               0.000000000               0.000000000               0.000000000               0.000000000              -0.004250238               0.007514071              -0.001236396              -0.002533092               0.003349029               0.000815937               0.000000000               0.000000000               0.000000000               0.000000000              -0.003713305               0.007320371              -0.001048463              -0.002307530               0.003209276               0.000901746               0.000000000               0.000000000               0.000000000               0.000000000              -0.003111695               0.006962507              -0.000885098              -0.002037194               0.002999877               0.000962683               0.000000000               0.000000000               0.000000000               0.000000000              -0.002516382               0.006551846              -0.000750174              -0.001762620               0.002771467               0.001008847               0.000000000               0.000000000               0.000000000               0.000000000              -0.001937766               0.006145737              -0.000634999              -0.001494876               0.002546850               0.001051975               0.000000000               0.000000000               0.000000000               0.000000000              -0.001384963               0.005776497              -0.000527790              -0.001241420               0.002339287               0.001097866               0.000000000               0.000000000               0.000000000               0.000000000              -0.000888719               0.005458174              -0.000425218              -0.001015539               0.002157886               0.001142347               0.000000000               0.000000000               0.000000000               0.000000000              -0.000462350               0.005192670              -0.000335732              -0.000822463               0.002005027               0.001182564               0.000000000               0.000000000               0.000000000               0.000000000              -0.000111608               0.004983499              -0.000264689              -0.000664789               0.001882746               0.001217957               0.000000000               0.000000000               0.000000000               0.000000000               0.000160185               0.004837508              -0.000203088              -0.000544618               0.001794026               0.001249408               0.000000000               0.000000000               0.000000000               0.000000000               0.000348214               0.004767185              -0.000138612              -0.000465317               0.001744151               0.001278834               0.000000000               0.000000000               0.000000000               0.000000000               0.000449105               0.004775715              -0.000076174              -0.000428549               0.001734739               0.001306190               0.000000000               0.000000000               0.000000000               0.000000000               0.000473541               0.004860158              -0.000029010              -0.000429941               0.001763350               0.001333409               0.000000000               0.000000000               0.000000000               0.000000000               0.000448376               0.004912317              -0.000004300              -0.000445898               0.001786055               0.001340158               0.000000000               0.000000000               0.000000000               0.000000000              -0.004445214               0.002091738               0.000040616              -0.001928419               0.001340043              -0.000588376               0.000000000               0.000000000               0.000000000               0.000000000              -0.004531827               0.004084482              -0.000989686              -0.002209991               0.002098143              -0.000111848               0.000000000               0.000000000               0.000000000               0.000000000              -0.004882877               0.005966496              -0.001780536              -0.002576885               0.002847773               0.000270888               0.000000000               0.000000000               0.000000000               0.000000000              -0.004494077               0.006591112              -0.001775165              -0.002509162               0.003033402               0.000524240               0.000000000               0.000000000               0.000000000               0.000000000              -0.003913651               0.006699575              -0.001593616              -0.002305061               0.003001522               0.000696462               0.000000000               0.000000000               0.000000000               0.000000000              -0.003292606               0.006577126              -0.001395666              -0.002056863               0.002877974               0.000821111               0.000000000               0.000000000               0.000000000               0.000000000              -0.002678828               0.006353199              -0.001219141              -0.001798706               0.002717280               0.000918574               0.000000000               0.000000000               0.000000000               0.000000000              -0.002085684               0.006092180              -0.001066357              -0.001543650               0.002545256               0.001001606               0.000000000               0.000000000               0.000000000               0.000000000              -0.001514463               0.005830321              -0.000924077              -0.001296711               0.002375658               0.001078947               0.000000000               0.000000000               0.000000000               0.000000000              -0.000982941               0.005583655              -0.000783388              -0.001066557               0.002216719               0.001150161               0.000000000               0.000000000               0.000000000               0.000000000              -0.000506670               0.005368599              -0.000651232              -0.000861074               0.002076540               0.001215466               0.000000000               0.000000000               0.000000000               0.000000000              -0.000096819               0.005190489              -0.000530268              -0.000685117               0.001958518               0.001273401               0.000000000               0.000000000               0.000000000               0.000000000               0.000239093               0.005052442              -0.000413815              -0.000541894               0.001864762               0.001322868               0.000000000               0.000000000               0.000000000               0.000000000               0.000500388               0.004959803              -0.000295318              -0.000432329               0.001797361               0.001365032               0.000000000               0.000000000               0.000000000               0.000000000               0.000686665               0.004921221              -0.000180775              -0.000357652               0.001759608               0.001401956               0.000000000               0.000000000               0.000000000               0.000000000               0.000788499               0.004940976              -0.000079368              -0.000321934               0.001754287               0.001432353               0.000000000               0.000000000               0.000000000               0.000000000               0.000804789               0.004957273              -0.000030138              -0.000317862               0.001758362               0.001440500               0.000000000               0.000000000               0.000000000               0.000000000              -0.006518321               0.000720510               0.000782196              -0.002534432               0.001084973              -0.001449459               0.000000000               0.000000000               0.000000000               0.000000000              -0.005589063               0.002696727              -0.000722496              -0.002432986               0.001709892              -0.000723093               0.000000000               0.000000000               0.000000000               0.000000000              -0.005199394               0.004506826              -0.001972784              -0.002513121               0.002339966              -0.000173155               0.000000000               0.000000000               0.000000000               0.000000000              -0.004589378               0.005368080              -0.002151506              -0.002392021               0.002586682               0.000194660               0.000000000               0.000000000               0.000000000               0.000000000              -0.003942582               0.005749136              -0.002025422              -0.002197105               0.002648727               0.000451622               0.000000000               0.000000000               0.000000000               0.000000000              -0.003307985               0.005868374              -0.001828942              -0.001974037               0.002614117               0.000640080               0.000000000               0.000000000               0.000000000               0.000000000              -0.002689714               0.005849805              -0.001635717              -0.001739865               0.002529870               0.000790005               0.000000000               0.000000000               0.000000000               0.000000000              -0.002094069               0.005765047              -0.001458130              -0.001505903               0.002423631               0.000917727               0.000000000               0.000000000               0.000000000               0.000000000              -0.001520239               0.005637317              -0.001294026              -0.001274752               0.002304004               0.001029252               0.000000000               0.000000000               0.000000000               0.000000000              -0.000965701               0.005489729              -0.001136187              -0.001048352               0.002179342               0.001130990               0.000000000               0.000000000               0.000000000               0.000000000              -0.000449001               0.005351305              -0.000981137              -0.000837287               0.002062846               0.001225559               0.000000000               0.000000000               0.000000000               0.000000000               0.000010098               0.005231319              -0.000825635              -0.000650127               0.001960464               0.001310338               0.000000000               0.000000000               0.000000000               0.000000000               0.000403587               0.005133310              -0.000668340              -0.000490317               0.001874525               0.001384208               0.000000000               0.000000000               0.000000000               0.000000000               0.000732280               0.005053530              -0.000507921              -0.000357085               0.001803521               0.001446436               0.000000000               0.000000000               0.000000000               0.000000000               0.000989093               0.005003079              -0.000339317              -0.000254474               0.001752501               0.001498027               0.000000000               0.000000000               0.000000000               0.000000000               0.001153907               0.004988306              -0.000165724              -0.000190823               0.001726360               0.001535537               0.000000000               0.000000000               0.000000000               0.000000000               0.001207660               0.004988992              -0.000081113              -0.000170751               0.001719898               0.001549147               0.000000000               0.000000000               0.000000000               0.000000000              -0.008694569              -0.000258193               0.001285685              -0.003228187               0.000989991              -0.002238196               0.000000000               0.000000000               0.000000000               0.000000000              -0.006715318               0.001462173              -0.000436674              -0.002701012               0.001387719              -0.001313294               0.000000000               0.000000000               0.000000000               0.000000000              -0.005477892               0.002984417              -0.001940064              -0.002427257               0.001803879              -0.000623379               0.000000000               0.000000000               0.000000000               0.000000000              -0.004565464               0.003955169              -0.002280444              -0.002206441               0.002053855              -0.000152585               0.000000000               0.000000000               0.000000000               0.000000000              -0.003812416               0.004543523              -0.002237135              -0.001997592               0.002180355               0.000182763               0.000000000               0.000000000               0.000000000               0.000000000              -0.003149195               0.004883340              -0.002076666              -0.001791362               0.002224884               0.000433522               0.000000000               0.000000000               0.000000000               0.000000000              -0.002537657               0.005069223              -0.001892344              -0.001585271               0.002218147               0.000632876               0.000000000               0.000000000               0.000000000               0.000000000              -0.001953523               0.005160405              -0.001713632              -0.001377619               0.002179323               0.000801705               0.000000000               0.000000000               0.000000000               0.000000000              -0.001384215               0.005188879              -0.001548533              -0.001167688               0.002118838               0.000951150               0.000000000               0.000000000               0.000000000               0.000000000              -0.000823470               0.005179814              -0.001388165              -0.000956276               0.002045346               0.001089069               0.000000000               0.000000000               0.000000000               0.000000000              -0.000287325               0.005148193              -0.001224945              -0.000751270               0.001966470               0.001215200               0.000000000               0.000000000               0.000000000               0.000000000               0.000213913               0.005111121              -0.001059490              -0.000558672               0.001889914               0.001331242               0.000000000               0.000000000               0.000000000               0.000000000               0.000673010               0.005075749              -0.000893236              -0.000382089               0.001819263               0.001437173               0.000000000               0.000000000               0.000000000               0.000000000               0.001081725               0.005040305              -0.000717437              -0.000224391               0.001754882               0.001530491               0.000000000               0.000000000               0.000000000               0.000000000               0.001426500               0.005010665              -0.000511461              -0.000091396               0.001700670               0.001609274               0.000000000               0.000000000               0.000000000               0.000000000               0.001683353               0.004997233              -0.000268203               0.000006603               0.001663527               0.001670130               0.000000000               0.000000000               0.000000000               0.000000000               0.001797512               0.005001979              -0.000143113               0.000048819               0.001651037               0.001699856               0.000000000               0.000000000               0.000000000               0.000000000              -0.010764411              -0.000865452               0.001454198              -0.003928470               0.001020999              -0.002907471               0.000000000               0.000000000               0.000000000               0.000000000              -0.007817287               0.000460882              -0.000191236              -0.002989090               0.001149983              -0.001839107               0.000000000               0.000000000               0.000000000               0.000000000              -0.005722416               0.001565744              -0.001680110              -0.002341621               0.001302446              -0.001039175               0.000000000               0.000000000               0.000000000               0.000000000              -0.004466031               0.002523513              -0.002104400              -0.001990198               0.001504559              -0.000485638               0.000000000               0.000000000               0.000000000               0.000000000              -0.003575821               0.003237194              -0.002138884              -0.001745579               0.001660912              -0.000084667               0.000000000               0.000000000               0.000000000               0.000000000              -0.002868463               0.003749350              -0.002031578              -0.001544339               0.001764550               0.000220210               0.000000000               0.000000000               0.000000000               0.000000000              -0.002259097               0.004111678              -0.001881517              -0.001361119               0.001824251               0.000463133               0.000000000               0.000000000               0.000000000               0.000000000              -0.001687619               0.004367976              -0.001730225              -0.001178852               0.001848928               0.000670075               0.000000000               0.000000000               0.000000000               0.000000000              -0.001131095               0.004553871              -0.001586689              -0.000993393               0.001849072               0.000855679               0.000000000               0.000000000               0.000000000               0.000000000              -0.000581844               0.004694818              -0.001438365              -0.000805043               0.001833271               0.001028228               0.000000000               0.000000000               0.000000000               0.000000000              -0.000037459               0.004796593              -0.001284942              -0.000613620               0.001803388               0.001189768               0.000000000               0.000000000               0.000000000               0.000000000               0.000500097               0.004864857              -0.001134939              -0.000420570               0.001761793               0.001341223               0.000000000               0.000000000               0.000000000               0.000000000               0.001025331               0.004915080              -0.000984631              -0.000229886               0.001714972               0.001485086               0.000000000               0.000000000               0.000000000               0.000000000               0.001524996               0.004948240              -0.000820749              -0.000046657               0.001664949               0.001618292               0.000000000               0.000000000               0.000000000               0.000000000               0.001991144               0.004968019              -0.000614676               0.000125675               0.001614098               0.001739773               0.000000000               0.000000000               0.000000000               0.000000000               0.002404787               0.004985694              -0.000340125               0.000278581               0.001569021               0.001847602               0.000000000               0.000000000               0.000000000               0.000000000               0.002643806               0.005014002              -0.000195012               0.000364673               0.001549760               0.001914433               0.000000000               0.000000000               0.000000000               0.000000000              -0.012481750              -0.001162346               0.001256655              -0.004535360               0.001124330              -0.003411030               0.000000000               0.000000000               0.000000000               0.000000000              -0.008763976              -0.000252654              -0.000031588              -0.003254907               0.001000744              -0.002254163               0.000000000               0.000000000               0.000000000               0.000000000              -0.005928097               0.000412232              -0.001228889              -0.002274563               0.000895592              -0.001378971               0.000000000               0.000000000               0.000000000               0.000000000              -0.004343900               0.001281765              -0.001618166              -0.001789181               0.001023641              -0.000765540               0.000000000               0.000000000               0.000000000               0.000000000              -0.003313815               0.002053595              -0.001689964              -0.001499378               0.001184315              -0.000315062               0.000000000               0.000000000               0.000000000               0.000000000              -0.002553018               0.002674265              -0.001633098              -0.001291662               0.001321966               0.000030304               0.000000000               0.000000000               0.000000000               0.000000000              -0.001930907               0.003162902              -0.001534827              -0.001119451               0.001427440               0.000307989               0.000000000               0.000000000               0.000000000               0.000000000              -0.001368630               0.003556363              -0.001431520              -0.000957780               0.001504702               0.000546922               0.000000000               0.000000000               0.000000000               0.000000000              -0.000831783               0.003882035              -0.001325577              -0.000797172               0.001559722               0.000762551               0.000000000               0.000000000               0.000000000               0.000000000              -0.000301673               0.004149197              -0.001212661              -0.000631776               0.001593644               0.000961868               0.000000000               0.000000000               0.000000000               0.000000000               0.000242830               0.004369501              -0.001095360              -0.000455126               0.001608194               0.001153068               0.000000000               0.000000000               0.000000000               0.000000000               0.000804804               0.004551733              -0.000978492              -0.000267165               0.001606284               0.001339119               0.000000000               0.000000000               0.000000000               0.000000000               0.001382287               0.004698320              -0.000861252              -0.000068933               0.001589068               0.001520135               0.000000000               0.000000000               0.000000000               0.000000000               0.001975429               0.004812080              -0.000733821               0.000139274               0.001557586               0.001696860               0.000000000               0.000000000               0.000000000               0.000000000               0.002582589               0.004900130              -0.000566844               0.000355951               0.001514710               0.001870661               0.000000000               0.000000000               0.000000000               0.000000000               0.003200045               0.004961087              -0.000322269               0.000579875               0.001460387               0.002040263               0.000000000               0.000000000               0.000000000               0.000000000               0.003623413               0.005024976              -0.000192921               0.000730651               0.001431425               0.002162076               0.000000000               0.000000000               0.000000000               0.000000000              -0.013627046              -0.001263256               0.000726546              -0.004952232               0.001229650              -0.003722582               0.000000000               0.000000000               0.000000000               0.000000000              -0.009412014              -0.000666268               0.000021249              -0.003446219               0.000926644              -0.002519575               0.000000000               0.000000000               0.000000000               0.000000000              -0.006076752              -0.000335209              -0.000645336              -0.002236879               0.000633885              -0.001602994               0.000000000               0.000000000               0.000000000               0.000000000              -0.004250844               0.000438552              -0.000878997              -0.001648884               0.000695807              -0.000953077               0.000000000               0.000000000               0.000000000               0.000000000              -0.003114010               0.001219843              -0.000934662              -0.001320232               0.000846685              -0.000473547               0.000000000               0.000000000               0.000000000               0.000000000              -0.002309770               0.001891821              -0.000912172              -0.001102639               0.000998146              -0.000104493               0.000000000               0.000000000               0.000000000               0.000000000              -0.001669673               0.002457932              -0.000865629              -0.000933367               0.001130424               0.000197058               0.000000000               0.000000000               0.000000000               0.000000000              -0.001113723               0.002942113              -0.000814883              -0.000785409               0.001242497               0.000457088               0.000000000               0.000000000               0.000000000               0.000000000              -0.000593400               0.003361467              -0.000758206              -0.000642707               0.001334713               0.000692006               0.000000000               0.000000000               0.000000000               0.000000000              -0.000074485               0.003717861              -0.000699046              -0.000492664               0.001403496               0.000910832               0.000000000               0.000000000               0.000000000               0.000000000               0.000466020               0.004019032              -0.000637632              -0.000327621               0.001448871               0.001121250               0.000000000               0.000000000               0.000000000               0.000000000               0.001041990               0.004276593              -0.000572687              -0.000143828               0.001473459               0.001329631               0.000000000               0.000000000               0.000000000               0.000000000               0.001658780               0.004493963              -0.000508170               0.000060296               0.001477874               0.001538170               0.000000000               0.000000000               0.000000000               0.000000000               0.002322294               0.004676887              -0.000437903               0.000286246               0.001463531               0.001749778               0.000000000               0.000000000               0.000000000               0.000000000               0.003041529               0.004826935              -0.000340479               0.000537201               0.001429895               0.001967096               0.000000000               0.000000000               0.000000000               0.000000000               0.003836445               0.004929616              -0.000194134               0.000822457               0.001369037               0.002191493               0.000000000               0.000000000               0.000000000               0.000000000               0.004429793               0.005027682              -0.000118779               0.001032702               0.001331643               0.002364345               0.000000000               0.000000000               0.000000000               0.000000000              -0.014032317              -0.001284637              -0.000000000              -0.005101536               0.001272291              -0.003829245               0.000000000               0.000000000               0.000000000               0.000000000              -0.009644300              -0.000802718              -0.000000000              -0.003516270               0.000904511              -0.002611759               0.000000000               0.000000000               0.000000000               0.000000000              -0.006134126              -0.000595004              -0.000000000              -0.002225920               0.000543635              -0.001682285               0.000000000               0.000000000               0.000000000               0.000000000              -0.004216468               0.000139561              -0.000000000              -0.001598619               0.000579389              -0.001019230               0.000000000               0.000000000               0.000000000               0.000000000              -0.003039143               0.000917563               0.000000000              -0.001254372               0.000723973              -0.000530399               0.000000000               0.000000000               0.000000000               0.000000000              -0.002220430               0.001603917               0.000000000              -0.001033149               0.000879016              -0.000154133               0.000000000               0.000000000               0.000000000               0.000000000              -0.001572429               0.002197107              -0.000000000              -0.000864297               0.001020461               0.000156164               0.000000000               0.000000000               0.000000000               0.000000000              -0.001019728               0.002709922               0.000000000              -0.000721137               0.001143677               0.000422540               0.000000000               0.000000000               0.000000000               0.000000000              -0.000503268               0.003162694              -0.000000000              -0.000584061               0.001248908               0.000664847               0.000000000               0.000000000               0.000000000               0.000000000               0.000014380               0.003556925              -0.000000000              -0.000439222               0.001332037               0.000892815               0.000000000               0.000000000               0.000000000               0.000000000               0.000553762               0.003887387               0.000000000              -0.000278262               0.001388537               0.001110275               0.000000000               0.000000000               0.000000000               0.000000000               0.001135042               0.004164497               0.000000000              -0.000094921               0.001419792               0.001324871               0.000000000               0.000000000               0.000000000               0.000000000               0.001767763               0.004401357               0.000000000               0.000112740               0.001429524               0.001542264               0.000000000               0.000000000               0.000000000               0.000000000               0.002454781               0.004609141              -0.000000000               0.000344397               0.001421566               0.001765963               0.000000000               0.000000000               0.000000000               0.000000000               0.003216326               0.004788250               0.000000000               0.000607585               0.001393539               0.002001124               0.000000000               0.000000000               0.000000000               0.000000000               0.004083327               0.004913628               0.000000000               0.000917035               0.001332181               0.002249216               0.000000000               0.000000000               0.000000000               0.000000000               0.004744814               0.005027002               0.000000000               0.001150918               0.001292011               0.002442930               0.000000000               0.000000000               0.000000000               0.000000000               0.000000000               0.000000000               0.000000000               0.000000000               0.000000000               0.000000000               0.000000000               0.000000000               0.000000000               0.000000000               0.000000000               0.000000000               0.000000000               0.000000000               0.000000000               0.000000000               0.000000000               0.000000000               0.000000000               0.000000000               0.000000000               0.000000000               0.000000000               0.000000000               0.000000000               0.000000000               0.000000000               0.000000000               0.000000000               0.000000000               0.000000000               0.000000000               0.000000000               0.000000000               0.000000000               0.000000000               0.000000000               0.000000000               0.000000000               0.000000000               0.000000000               0.000000000               0.000000000               0.000000000               0.000000000               0.000000000               0.000000000               0.000000000               0.000000000               0.000000000               0.000000000               0.000000000               0.000000000               0.000000000               0.000000000               0.000000000               0.000000000               0.000000000               0.000000000               0.000000000               0.000000000               0.000000000               0.000000000               0.000000000               0.000000000               0.000000000               0.000000000               0.000000000               0.000000000               0.000000000               0.000000000               0.000000000               0.000000000               0.000000000               0.000000000               0.000000000               0.000000000               0.000000000               0.000000000               0.000000000               0.000000000               0.000000000               0.000000000               0.000000000               0.000000000               0.000000000               0.000000000               0.000000000               0.000000000               0.000000000               0.000000000               0.000000000               0.000000000               0.000000000               0.000000000               0.000000000               0.000000000               0.000000000               0.000000000               0.000000000               0.000000000               0.000000000               0.000000000               0.000000000               0.000000000               0.000000000               0.000000000               0.000000000               0.000000000               0.000000000               0.000000000               0.000000000               0.000000000               0.000000000               0.000000000               0.000000000               0.000000000               0.000000000               0.000000000               0.000000000               0.000000000               0.000000000               0.000000000               0.000000000               0.000000000               0.000000000               0.000000000               0.000000000               0.000000000               0.000000000               0.000000000               0.000000000               0.000000000               0.000000000               0.000000000               0.000000000               0.000000000               0.000000000               0.000000000               0.000000000               0.000000000               0.000000000               0.000000000               0.000000000               0.000000000               0.000000000               0.000000000               0.000000000               0.000000000               0.000000000               0.000000000               0.000000000               0.000000000               0.000000000               0.000000000               0.000000000               0.000000000               0.000000000               0.000000000               0.000000000               0.000000000               0.000000000               0.000000000               0.000000000               0.000000000               0.000000000               0.000000000               0.000000000               0.000000000               0.000000000               0.002110502               0.021187801               0.001435660              -0.001857032               0.007681541               0.005824508               0.000000000               0.000000000               0.000000000               0.000000000               0.001895621               0.016272156               0.000638220              -0.001323158               0.005865050               0.004541892               0.000000000               0.000000000               0.000000000               0.000000000               0.002312630               0.012301756              -0.000150673              -0.000670481               0.004324038               0.003653557               0.000000000               0.000000000               0.000000000               0.000000000               0.002062236               0.010034987              -0.000476674              -0.000481034               0.003505307               0.003024273               0.000000000               0.000000000               0.000000000               0.000000000               0.001646856               0.008576524              -0.000600622              -0.000454494               0.003010311               0.002555817               0.000000000               0.000000000               0.000000000               0.000000000               0.001230140               0.007532039              -0.000635717              -0.000480201               0.002670722               0.002190520               0.000000000               0.000000000               0.000000000               0.000000000               0.000865377               0.006717848              -0.000633665              -0.000515214               0.002410998               0.001895784               0.000000000               0.000000000               0.000000000               0.000000000               0.000570523               0.006036373              -0.000610570              -0.000540599               0.002192304               0.001651704               0.000000000               0.000000000               0.000000000               0.000000000               0.000345623               0.005425517              -0.000577157              -0.000548580               0.001991347               0.001442768               0.000000000               0.000000000               0.000000000               0.000000000               0.000178304               0.004850416              -0.000542577              -0.000539437               0.001796601               0.001257164               0.000000000               0.000000000               0.000000000               0.000000000               0.000058637               0.004289479              -0.000506783              -0.000514195               0.001601210               0.001087015               0.000000000               0.000000000               0.000000000               0.000000000              -0.000015873               0.003726907              -0.000467993              -0.000471815               0.001399561               0.000927747               0.000000000               0.000000000               0.000000000               0.000000000              -0.000061591               0.003145920              -0.000419995              -0.000416336               0.001187408               0.000771072               0.000000000               0.000000000               0.000000000               0.000000000              -0.000086938               0.002529918              -0.000356314              -0.000348841               0.000959578               0.000610737               0.000000000               0.000000000               0.000000000               0.000000000              -0.000087263               0.001867174              -0.000273610              -0.000266120               0.000711092               0.000444972               0.000000000               0.000000000               0.000000000               0.000000000              -0.000055057               0.001146258              -0.000157262              -0.000163929               0.000436725               0.000272796               0.000000000               0.000000000               0.000000000               0.000000000              -0.000085440               0.000610879              -0.000098438              -0.000108400               0.000239757               0.000131358               0.000000000               0.000000000               0.000000000               0.000000000               0.002243728               0.019855783               0.002643482              -0.001640572               0.007165385               0.005524813               0.000000000               0.000000000               0.000000000               0.000000000               0.001702304               0.015425934               0.001164988              -0.001289875               0.005571885               0.004282010               0.000000000               0.000000000               0.000000000               0.000000000               0.001773009               0.011962905              -0.000279344              -0.000830483               0.004264423               0.003433940               0.000000000               0.000000000               0.000000000               0.000000000               0.001401251               0.009958743              -0.000852287              -0.000719372               0.003559339               0.002839966               0.000000000               0.000000000               0.000000000               0.000000000               0.000973873               0.008640054              -0.001059581              -0.000714803               0.003118257               0.002403454               0.000000000               0.000000000               0.000000000               0.000000000               0.000595281               0.007672059              -0.001109607              -0.000735776               0.002802586               0.002066810               0.000000000               0.000000000               0.000000000               0.000000000               0.000288984               0.006895281              -0.001096605              -0.000753540               0.002549584               0.001796044               0.000000000               0.000000000               0.000000000               0.000000000               0.000063767               0.006229834              -0.001049219              -0.000754815               0.002328196               0.001573380               0.000000000               0.000000000               0.000000000               0.000000000              -0.000090677               0.005629085              -0.000984714              -0.000737638               0.002122222               0.001384584               0.000000000               0.000000000               0.000000000               0.000000000              -0.000190581               0.005062958              -0.000918309              -0.000704336               0.001922414               0.001218078               0.000000000               0.000000000               0.000000000               0.000000000              -0.000241596               0.004511775              -0.000850139              -0.000654569               0.001722100               0.001067530               0.000000000               0.000000000               0.000000000               0.000000000              -0.000251324               0.003963028              -0.000777245              -0.000589624               0.001517537               0.000927914               0.000000000               0.000000000               0.000000000               0.000000000              -0.000235672               0.003409600              -0.000690718              -0.000514576               0.001308047               0.000793471               0.000000000               0.000000000               0.000000000               0.000000000              -0.000200801               0.002850659              -0.000580143              -0.000431632               0.001094087               0.000662455               0.000000000               0.000000000               0.000000000               0.000000000              -0.000149362               0.002288697              -0.000439013              -0.000342097               0.000876924               0.000534827               0.000000000               0.000000000               0.000000000               0.000000000              -0.000082250               0.001727130              -0.000248940              -0.000246734               0.000657949               0.000411215               0.000000000               0.000000000               0.000000000               0.000000000              -0.000084156               0.001340662              -0.000153462              -0.000199141               0.000513263               0.000314122               0.000000000               0.000000000               0.000000000               0.000000000               0.002336876               0.017835165               0.003469096              -0.001353066               0.006396017               0.005042951               0.000000000               0.000000000               0.000000000               0.000000000               0.001336206               0.014172049               0.001516022              -0.001270426               0.005147444               0.003877018               0.000000000               0.000000000               0.000000000               0.000000000               0.000925365               0.011472249              -0.000359758              -0.001087017               0.004186384               0.003099367               0.000000000               0.000000000               0.000000000               0.000000000               0.000424130               0.009838394              -0.001056319              -0.001070748               0.003636348               0.002565600               0.000000000               0.000000000               0.000000000               0.000000000               0.000016039               0.008704574              -0.001287692              -0.001082055               0.003262181               0.002180125               0.000000000               0.000000000               0.000000000               0.000000000              -0.000277395               0.007829215              -0.001326951              -0.001082673               0.002970603               0.001887930               0.000000000               0.000000000               0.000000000               0.000000000              -0.000478100               0.007096159              -0.001291560              -0.001066305               0.002720798               0.001654492               0.000000000               0.000000000               0.000000000               0.000000000              -0.000601132               0.006445207              -0.001221433              -0.001031073               0.002492072               0.001460998               0.000000000               0.000000000               0.000000000               0.000000000              -0.000650243               0.005850255              -0.001135652              -0.000975121               0.002275105               0.001299985               0.000000000               0.000000000               0.000000000               0.000000000              -0.000642851               0.005288726              -0.001048077              -0.000902158               0.002063610               0.001161452               0.000000000               0.000000000               0.000000000               0.000000000              -0.000595055               0.004747341              -0.000956349              -0.000816562               0.001854618               0.001038057               0.000000000               0.000000000               0.000000000               0.000000000              -0.000519489               0.004220003              -0.000857252              -0.000722307               0.001647423               0.000925115               0.000000000               0.000000000               0.000000000               0.000000000              -0.000430871               0.003708672              -0.000744696              -0.000625159               0.001444598               0.000819439               0.000000000               0.000000000               0.000000000               0.000000000              -0.000331642               0.003222048              -0.000610030              -0.000527121               0.001249712               0.000722591               0.000000000               0.000000000               0.000000000               0.000000000              -0.000221666               0.002772265              -0.000447967              -0.000429657               0.001067298               0.000637641               0.000000000               0.000000000               0.000000000               0.000000000              -0.000110569               0.002372191              -0.000245954              -0.000337986               0.000903384               0.000565398               0.000000000               0.000000000               0.000000000               0.000000000              -0.000082365               0.002126526              -0.000147073              -0.000296702               0.000807735               0.000511033               0.000000000               0.000000000               0.000000000               0.000000000               0.002258812               0.015377001               0.003828379              -0.001075071               0.005483972               0.004408901               0.000000000               0.000000000               0.000000000               0.000000000               0.000780958               0.012683450               0.001675872              -0.001292570               0.004658631               0.003366061               0.000000000               0.000000000               0.000000000               0.000000000              -0.000131535               0.010896730              -0.000350158              -0.001411413               0.004102678               0.002691265               0.000000000               0.000000000               0.000000000               0.000000000              -0.000706963               0.009667226              -0.001045047              -0.001473511               0.003713547               0.002240036               0.000000000               0.000000000               0.000000000               0.000000000              -0.001030648               0.008718928              -0.001249568              -0.001476356               0.003398398               0.001922043               0.000000000               0.000000000               0.000000000               0.000000000              -0.001195684               0.007922147              -0.001262867              -0.001438646               0.003120238               0.001681591               0.000000000               0.000000000               0.000000000               0.000000000              -0.001250765               0.007222717              -0.001207199              -0.001371873               0.002864839               0.001492966               0.000000000               0.000000000               0.000000000               0.000000000              -0.001229953               0.006581015              -0.001128486              -0.001283856               0.002621602               0.001337745               0.000000000               0.000000000               0.000000000               0.000000000              -0.001151614               0.005987538              -0.001040919              -0.001180295               0.002389257               0.001208963               0.000000000               0.000000000               0.000000000               0.000000000              -0.001031690               0.005432019              -0.000949129              -0.001065884               0.002165949               0.001100066               0.000000000               0.000000000               0.000000000               0.000000000              -0.000890828               0.004904639              -0.000851135              -0.000947138               0.001950576               0.001003438               0.000000000               0.000000000               0.000000000               0.000000000              -0.000736811               0.004411330              -0.000746353              -0.000827718               0.001746335               0.000918616               0.000000000               0.000000000               0.000000000               0.000000000              -0.000575895               0.003956801              -0.000632433              -0.000710559               0.001555773               0.000845214               0.000000000               0.000000000               0.000000000               0.000000000              -0.000418718               0.003548349              -0.000503504              -0.000600561               0.001382958               0.000782397               0.000000000               0.000000000               0.000000000               0.000000000              -0.000265384               0.003202922              -0.000356540              -0.000499883               0.001234258               0.000734375               0.000000000               0.000000000               0.000000000               0.000000000              -0.000126609               0.002937177              -0.000187781              -0.000414624               0.001117257               0.000702633               0.000000000               0.000000000               0.000000000               0.000000000              -0.000078484               0.002799162              -0.000107182              -0.000379326               0.001059487               0.000680161               0.000000000               0.000000000               0.000000000               0.000000000               0.001872798               0.012725640               0.003735925              -0.000888407               0.004537972               0.003649566               0.000000000               0.000000000               0.000000000               0.000000000               0.000033864               0.011118726               0.001684722              -0.001377139               0.004165251               0.002788112               0.000000000               0.000000000               0.000000000               0.000000000              -0.001266876               0.010281062              -0.000214105              -0.001760207               0.004013722               0.002253515               0.000000000               0.000000000               0.000000000               0.000000000              -0.001813673               0.009426296              -0.000812181              -0.001858410               0.003761537               0.001903127               0.000000000               0.000000000               0.000000000               0.000000000              -0.001987160               0.008629354              -0.000964478              -0.001823850               0.003484372               0.001660522               0.000000000               0.000000000               0.000000000               0.000000000              -0.001979126               0.007891614              -0.000961948              -0.001728620               0.003206718               0.001478098               0.000000000               0.000000000               0.000000000               0.000000000              -0.001865580               0.007211041              -0.000912012              -0.001600969               0.002937312               0.001336344               0.000000000               0.000000000               0.000000000               0.000000000              -0.001686760               0.006577738              -0.000848420              -0.001454749               0.002677474               0.001222725               0.000000000               0.000000000               0.000000000               0.000000000              -0.001475109               0.005992767              -0.000782301              -0.001302259               0.002431655               0.001129397               0.000000000               0.000000000               0.000000000               0.000000000              -0.001250193               0.005456872              -0.000707431              -0.001150929               0.002202582               0.001051653               0.000000000               0.000000000               0.000000000               0.000000000              -0.001022281               0.004964138              -0.000626583              -0.001003870               0.001989319               0.000985449               0.000000000               0.000000000               0.000000000               0.000000000              -0.000801161               0.004522686              -0.000541717              -0.000865769               0.001796136               0.000930367               0.000000000               0.000000000               0.000000000               0.000000000              -0.000591291               0.004135977              -0.000446945              -0.000738730               0.001624888               0.000886159               0.000000000               0.000000000               0.000000000               0.000000000              -0.000398997               0.003814151              -0.000343886              -0.000626391               0.001480168               0.000853777               0.000000000               0.000000000               0.000000000               0.000000000              -0.000230361               0.003573474              -0.000232773              -0.000533068               0.001368835               0.000835767               0.000000000               0.000000000               0.000000000               0.000000000              -0.000099743               0.003428350              -0.000116481              -0.000465946               0.001298087               0.000832141               0.000000000               0.000000000               0.000000000               0.000000000              -0.000047509               0.003384278              -0.000058951              -0.000440850               0.001275031               0.000834182               0.000000000               0.000000000               0.000000000               0.000000000               0.001123772               0.010102412               0.003278299              -0.000841388               0.003647899               0.002806511               0.000000000               0.000000000               0.000000000               0.000000000              -0.000861172               0.009602568               0.001599281              -0.001523258               0.003708576               0.002185318               0.000000000               0.000000000               0.000000000               0.000000000              -0.002360472               0.009642824               0.000056187              -0.002090525               0.003911084               0.001820559               0.000000000               0.000000000               0.000000000               0.000000000              -0.002761327               0.009090386              -0.000398025              -0.002171790               0.003754028               0.001582238               0.000000000               0.000000000               0.000000000               0.000000000              -0.002729817               0.008410858              -0.000516678              -0.002075033               0.003495269               0.001420236               0.000000000               0.000000000               0.000000000               0.000000000              -0.002521525               0.007725040              -0.000528479              -0.001911197               0.003212053               0.001300856               0.000000000               0.000000000               0.000000000               0.000000000              -0.002236648               0.007067873              -0.000509212              -0.001722223               0.002930008               0.001207785               0.000000000               0.000000000               0.000000000               0.000000000              -0.001912287               0.006453342              -0.000480898              -0.001523772               0.002659016               0.001135245               0.000000000               0.000000000               0.000000000               0.000000000              -0.001577960               0.005891950              -0.000454386              -0.001328225               0.002406705               0.001078480               0.000000000               0.000000000               0.000000000               0.000000000              -0.001256349               0.005389504              -0.000416789              -0.001144816               0.002178089               0.001033273               0.000000000               0.000000000               0.000000000               0.000000000              -0.000955035               0.004946981              -0.000367694              -0.000976508               0.001974480               0.000997972               0.000000000               0.000000000               0.000000000               0.000000000              -0.000680652               0.004571182              -0.000311572              -0.000826640               0.001799259               0.000972619               0.000000000               0.000000000               0.000000000               0.000000000              -0.000441749               0.004265939              -0.000243065              -0.000698896               0.001654931               0.000956034               0.000000000               0.000000000               0.000000000               0.000000000              -0.000245062               0.004040253              -0.000167978              -0.000596928               0.001545714               0.000948785               0.000000000               0.000000000               0.000000000               0.000000000              -0.000102614               0.003898711              -0.000093405              -0.000525818               0.001474830               0.000949012               0.000000000               0.000000000               0.000000000               0.000000000              -0.000025123               0.003845940              -0.000033952              -0.000490162               0.001445355               0.000955192               0.000000000               0.000000000               0.000000000               0.000000000               0.000003496               0.003857783              -0.000006420              -0.000480911               0.001446218               0.000965308               0.000000000               0.000000000               0.000000000               0.000000000               0.000061750               0.007687083               0.002562680              -0.000937729               0.002874911               0.001937182               0.000000000               0.000000000               0.000000000               0.000000000              -0.001840780               0.008220877               0.001470284              -0.001717898               0.003312897               0.001594999               0.000000000               0.000000000               0.000000000               0.000000000              -0.003301007               0.008970693               0.000446104              -0.002359208               0.003776604               0.001417395               0.000000000               0.000000000               0.000000000               0.000000000              -0.003454076               0.008652253               0.000119468              -0.002376804               0.003676324               0.001299519               0.000000000               0.000000000               0.000000000               0.000000000              -0.003192035               0.008074159              -0.000005994              -0.002206278               0.003426785               0.001220508               0.000000000               0.000000000               0.000000000               0.000000000              -0.002795618               0.007439859              -0.000059496              -0.001978334               0.003139373               0.001161039               0.000000000               0.000000000               0.000000000               0.000000000              -0.002355827               0.006820069              -0.000087153              -0.001735939               0.002851980               0.001116041               0.000000000               0.000000000               0.000000000               0.000000000              -0.001901897               0.006241968              -0.000106079              -0.001493454               0.002578453               0.001085000               0.000000000               0.000000000               0.000000000               0.000000000              -0.001464713               0.005725073              -0.000127891              -0.001264898               0.002329971               0.001065073               0.000000000               0.000000000               0.000000000               0.000000000              -0.001065945               0.005273519              -0.000135917              -0.001058917               0.002110794               0.001051878               0.000000000               0.000000000               0.000000000               0.000000000              -0.000713096               0.004898738              -0.000124731              -0.000879751               0.001926147               0.001046396               0.000000000               0.000000000               0.000000000               0.000000000              -0.000416409               0.004603303              -0.000100306              -0.000731564               0.001778274               0.001046709               0.000000000               0.000000000               0.000000000               0.000000000              -0.000184594               0.004390796              -0.000061985              -0.000618071               0.001669607               0.001051537               0.000000000               0.000000000               0.000000000               0.000000000              -0.000023309               0.004266459              -0.000019975              -0.000542047               0.001602821               0.001060774               0.000000000               0.000000000               0.000000000               0.000000000               0.000058104               0.004224199               0.000012663              -0.000506235               0.001576797               0.001070563               0.000000000               0.000000000               0.000000000               0.000000000               0.000059362               0.004250020               0.000022276              -0.000508990               0.001586323               0.001077332               0.000000000               0.000000000               0.000000000               0.000000000               0.000045081               0.004294807               0.000024724              -0.000519944               0.001604903               0.001084958               0.000000000               0.000000000               0.000000000               0.000000000              -0.001184560               0.005658832               0.001707554              -0.001151562               0.002270112               0.001118550               0.000000000               0.000000000               0.000000000               0.000000000              -0.002799184               0.006983973               0.001337473              -0.001922686               0.002968863               0.001046177               0.000000000               0.000000000               0.000000000               0.000000000              -0.004044502               0.008282066               0.000912180              -0.002551940               0.003611308               0.001059367               0.000000000               0.000000000               0.000000000               0.000000000              -0.003934477               0.008206113               0.000665316              -0.002501187               0.003569073               0.001067886               0.000000000               0.000000000               0.000000000               0.000000000              -0.003476024               0.007753859               0.000508062              -0.002272736               0.003342173               0.001069437               0.000000000               0.000000000               0.000000000               0.000000000              -0.002928853               0.007200627               0.000399283              -0.001998393               0.003066316               0.001067923               0.000000000               0.000000000               0.000000000               0.000000000              -0.002371945               0.006639468               0.000316905              -0.001719409               0.002786270               0.001066861               0.000000000               0.000000000               0.000000000               0.000000000              -0.001819521               0.006119082               0.000246637              -0.001447202               0.002522074               0.001074872               0.000000000               0.000000000               0.000000000               0.000000000              -0.001300346               0.005661266               0.000178885              -0.001195285               0.002285498               0.001090213               0.000000000               0.000000000               0.000000000               0.000000000              -0.000843930               0.005265967               0.000123389              -0.000974717               0.002080211               0.001105493               0.000000000               0.000000000               0.000000000               0.000000000              -0.000457662               0.004947302               0.000087517              -0.000790034               0.001912429               0.001122395               0.000000000               0.000000000               0.000000000               0.000000000              -0.000150526               0.004708600               0.000069373              -0.000645021               0.001784525               0.001139504               0.000000000               0.000000000               0.000000000               0.000000000               0.000074797               0.004558747               0.000062162              -0.000541793               0.001700165               0.001158372               0.000000000               0.000000000               0.000000000               0.000000000               0.000211286               0.004502131               0.000055139              -0.000483533               0.001661873               0.001178340               0.000000000               0.000000000               0.000000000               0.000000000               0.000253687               0.004533256               0.000042560              -0.000471523               0.001668245               0.001196722               0.000000000               0.000000000               0.000000000               0.000000000               0.000219047               0.004631187               0.000023534              -0.000496755               0.001709298               0.001212544               0.000000000               0.000000000               0.000000000               0.000000000               0.000175007               0.004700626               0.000012295              -0.000521949               0.001740843               0.001218893               0.000000000               0.000000000               0.000000000               0.000000000              -0.002624242               0.003784795               0.000817428              -0.001457187               0.001747314               0.000290127               0.000000000               0.000000000               0.000000000               0.000000000              -0.003612681               0.005544341               0.001192251              -0.002047793               0.002530693               0.000482899               0.000000000               0.000000000               0.000000000               0.000000000              -0.004504849               0.007231403               0.001393971              -0.002593237               0.003274856               0.000681618               0.000000000               0.000000000               0.000000000               0.000000000              -0.004250238               0.007514071               0.001236396              -0.002533092               0.003349029               0.000815937               0.000000000               0.000000000               0.000000000               0.000000000              -0.003713305               0.007320371               0.001048463              -0.002307530               0.003209276               0.000901746               0.000000000               0.000000000               0.000000000               0.000000000              -0.003111695               0.006962507               0.000885098              -0.002037194               0.002999877               0.000962683               0.000000000               0.000000000               0.000000000               0.000000000              -0.002516382               0.006551846               0.000750174              -0.001762620               0.002771467               0.001008847               0.000000000               0.000000000               0.000000000               0.000000000              -0.001937766               0.006145737               0.000634999              -0.001494876               0.002546850               0.001051975               0.000000000               0.000000000               0.000000000               0.000000000              -0.001384963               0.005776497               0.000527790              -0.001241420               0.002339287               0.001097866               0.000000000               0.000000000               0.000000000               0.000000000              -0.000888719               0.005458174               0.000425218              -0.001015539               0.002157886               0.001142347               0.000000000               0.000000000               0.000000000               0.000000000              -0.000462350               0.005192670               0.000335732              -0.000822463               0.002005027               0.001182564               0.000000000               0.000000000               0.000000000               0.000000000              -0.000111608               0.004983499               0.000264689              -0.000664789               0.001882746               0.001217957               0.000000000               0.000000000               0.000000000               0.000000000               0.000160185               0.004837508               0.000203088              -0.000544618               0.001794026               0.001249408               0.000000000               0.000000000               0.000000000               0.000000000               0.000348214               0.004767185               0.000138612              -0.000465317               0.001744151               0.001278834               0.000000000               0.000000000               0.000000000               0.000000000               0.000449105               0.004775715               0.000076174              -0.000428549               0.001734739               0.001306190               0.000000000               0.000000000               0.000000000               0.000000000               0.000473541               0.004860158               0.000029010              -0.000429941               0.001763350               0.001333409               0.000000000               0.000000000               0.000000000               0.000000000               0.000448376               0.004912317               0.000004300              -0.000445898               0.001786055               0.001340158               0.000000000               0.000000000               0.000000000               0.000000000              -0.004445214               0.002091738              -0.000040616              -0.001928419               0.001340043              -0.000588376               0.000000000               0.000000000               0.000000000               0.000000000              -0.004531827               0.004084482               0.000989686              -0.002209991               0.002098143              -0.000111848               0.000000000               0.000000000               0.000000000               0.000000000              -0.004882877               0.005966496               0.001780536              -0.002576885               0.002847773               0.000270888               0.000000000               0.000000000               0.000000000               0.000000000              -0.004494077               0.006591112               0.001775165              -0.002509162               0.003033402               0.000524240               0.000000000               0.000000000               0.000000000               0.000000000              -0.003913651               0.006699575               0.001593616              -0.002305061               0.003001522               0.000696462               0.000000000               0.000000000               0.000000000               0.000000000              -0.003292606               0.006577126               0.001395666              -0.002056863               0.002877974               0.000821111               0.000000000               0.000000000               0.000000000               0.000000000              -0.002678828               0.006353199               0.001219141              -0.001798706               0.002717280               0.000918574               0.000000000               0.000000000               0.000000000               0.000000000              -0.002085684               0.006092180               0.001066357              -0.001543650               0.002545256               0.001001606               0.000000000               0.000000000               0.000000000               0.000000000              -0.001514463               0.005830321               0.000924077              -0.001296711               0.002375658               0.001078947               0.000000000               0.000000000               0.000000000               0.000000000              -0.000982941               0.005583655               0.000783388              -0.001066557               0.002216719               0.001150161               0.000000000               0.000000000               0.000000000               0.000000000              -0.000506670               0.005368599               0.000651232              -0.000861074               0.002076540               0.001215466               0.000000000               0.000000000               0.000000000               0.000000000              -0.000096819               0.005190489               0.000530268              -0.000685117               0.001958518               0.001273401               0.000000000               0.000000000               0.000000000               0.000000000               0.000239093               0.005052442               0.000413815              -0.000541894               0.001864762               0.001322868               0.000000000               0.000000000               0.000000000               0.000000000               0.000500388               0.004959803               0.000295318              -0.000432329               0.001797361               0.001365032               0.000000000               0.000000000               0.000000000               0.000000000               0.000686665               0.004921221               0.000180775              -0.000357652               0.001759608               0.001401956               0.000000000               0.000000000               0.000000000               0.000000000               0.000788499               0.004940976               0.000079368              -0.000321934               0.001754287               0.001432353               0.000000000               0.000000000               0.000000000               0.000000000               0.000804789               0.004957273               0.000030138              -0.000317862               0.001758362               0.001440500               0.000000000               0.000000000               0.000000000               0.000000000              -0.006518321               0.000720510              -0.000782196              -0.002534432               0.001084973              -0.001449459               0.000000000               0.000000000               0.000000000               0.000000000              -0.005589063               0.002696727               0.000722496              -0.002432986               0.001709892              -0.000723093               0.000000000               0.000000000               0.000000000               0.000000000              -0.005199394               0.004506826               0.001972784              -0.002513121               0.002339966              -0.000173155               0.000000000               0.000000000               0.000000000               0.000000000              -0.004589378               0.005368080               0.002151506              -0.002392021               0.002586682               0.000194660               0.000000000               0.000000000               0.000000000               0.000000000              -0.003942582               0.005749136               0.002025422              -0.002197105               0.002648727               0.000451622               0.000000000               0.000000000               0.000000000               0.000000000              -0.003307985               0.005868374               0.001828942              -0.001974037               0.002614117               0.000640080               0.000000000               0.000000000               0.000000000               0.000000000              -0.002689714               0.005849805               0.001635717              -0.001739865               0.002529870               0.000790005               0.000000000               0.000000000               0.000000000               0.000000000              -0.002094069               0.005765047               0.001458130              -0.001505903               0.002423631               0.000917727               0.000000000               0.000000000               0.000000000               0.000000000              -0.001520239               0.005637317               0.001294026              -0.001274752               0.002304004               0.001029252               0.000000000               0.000000000               0.000000000               0.000000000              -0.000965701               0.005489729               0.001136187              -0.001048352               0.002179342               0.001130990               0.000000000               0.000000000               0.000000000               0.000000000              -0.000449001               0.005351305               0.000981137              -0.000837287               0.002062846               0.001225559               0.000000000               0.000000000               0.000000000               0.000000000               0.000010098               0.005231319               0.000825635              -0.000650127               0.001960464               0.001310338               0.000000000               0.000000000               0.000000000               0.000000000               0.000403587               0.005133310               0.000668340              -0.000490317               0.001874525               0.001384208               0.000000000               0.000000000               0.000000000               0.000000000               0.000732280               0.005053530               0.000507921              -0.000357085               0.001803521               0.001446436               0.000000000               0.000000000               0.000000000               0.000000000               0.000989093               0.005003079               0.000339317              -0.000254474               0.001752501               0.001498027               0.000000000               0.000000000               0.000000000               0.000000000               0.001153907               0.004988306               0.000165724              -0.000190823               0.001726360               0.001535537               0.000000000               0.000000000               0.000000000               0.000000000               0.001207660               0.004988992               0.000081113              -0.000170751               0.001719898               0.001549147               0.000000000               0.000000000               0.000000000               0.000000000              -0.008694569              -0.000258193              -0.001285685              -0.003228187               0.000989991              -0.002238196               0.000000000               0.000000000               0.000000000               0.000000000              -0.006715318               0.001462173               0.000436674              -0.002701012               0.001387719              -0.001313294               0.000000000               0.000000000               0.000000000               0.000000000              -0.005477892               0.002984417               0.001940064              -0.002427257               0.001803879              -0.000623379               0.000000000               0.000000000               0.000000000               0.000000000              -0.004565464               0.003955169               0.002280444              -0.002206441               0.002053855              -0.000152585               0.000000000               0.000000000               0.000000000               0.000000000              -0.003812416               0.004543523               0.002237135              -0.001997592               0.002180355               0.000182763               0.000000000               0.000000000               0.000000000               0.000000000              -0.003149195               0.004883340               0.002076666              -0.001791362               0.002224884               0.000433522               0.000000000               0.000000000               0.000000000               0.000000000              -0.002537657               0.005069223               0.001892344              -0.001585271               0.002218147               0.000632876               0.000000000               0.000000000               0.000000000               0.000000000              -0.001953523               0.005160405               0.001713632              -0.001377619               0.002179323               0.000801705               0.000000000               0.000000000               0.000000000               0.000000000              -0.001384215               0.005188879               0.001548533              -0.001167688               0.002118838               0.000951150               0.000000000               0.000000000               0.000000000               0.000000000              -0.000823470               0.005179814               0.001388165              -0.000956276               0.002045346               0.001089069               0.000000000               0.000000000               0.000000000               0.000000000              -0.000287325               0.005148193               0.001224945              -0.000751270               0.001966470               0.001215200               0.000000000               0.000000000               0.000000000               0.000000000               0.000213913               0.005111121               0.001059490              -0.000558672               0.001889914               0.001331242               0.000000000               0.000000000               0.000000000               0.000000000               0.000673010               0.005075749               0.000893236              -0.000382089               0.001819263               0.001437173               0.000000000               0.000000000               0.000000000               0.000000000               0.001081725               0.005040305               0.000717437              -0.000224391               0.001754882               0.001530491               0.000000000               0.000000000               0.000000000               0.000000000               0.001426500               0.005010665               0.000511461              -0.000091396               0.001700670               0.001609274               0.000000000               0.000000000               0.000000000               0.000000000               0.001683353               0.004997233               0.000268203               0.000006603               0.001663527               0.001670130               0.000000000               0.000000000               0.000000000               0.000000000               0.001797512               0.005001979               0.000143113               0.000048819               0.001651037               0.001699856               0.000000000               0.000000000               0.000000000               0.000000000              -0.010764411              -0.000865452              -0.001454198              -0.003928470               0.001020999              -0.002907471               0.000000000               0.000000000               0.000000000               0.000000000              -0.007817287               0.000460882               0.000191236              -0.002989090               0.001149983              -0.001839107               0.000000000               0.000000000               0.000000000               0.000000000              -0.005722416               0.001565744               0.001680110              -0.002341621               0.001302446              -0.001039175               0.000000000               0.000000000               0.000000000               0.000000000              -0.004466031               0.002523513               0.002104400              -0.001990198               0.001504559              -0.000485638               0.000000000               0.000000000               0.000000000               0.000000000              -0.003575821               0.003237194               0.002138884              -0.001745579               0.001660912              -0.000084667               0.000000000               0.000000000               0.000000000               0.000000000              -0.002868463               0.003749350               0.002031578              -0.001544339               0.001764550               0.000220210               0.000000000               0.000000000               0.000000000               0.000000000              -0.002259097               0.004111678               0.001881517              -0.001361119               0.001824251               0.000463133               0.000000000               0.000000000               0.000000000               0.000000000              -0.001687619               0.004367976               0.001730225              -0.001178852               0.001848928               0.000670075               0.000000000               0.000000000               0.000000000               0.000000000              -0.001131095               0.004553871               0.001586689              -0.000993393               0.001849072               0.000855679               0.000000000               0.000000000               0.000000000               0.000000000              -0.000581844               0.004694818               0.001438365              -0.000805043               0.001833271               0.001028228               0.000000000               0.000000000               0.000000000               0.000000000              -0.000037459               0.004796593               0.001284942              -0.000613620               0.001803388               0.001189768               0.000000000               0.000000000               0.000000000               0.000000000               0.000500097               0.004864857               0.001134939              -0.000420570               0.001761793               0.001341223               0.000000000               0.000000000               0.000000000               0.000000000               0.001025331               0.004915080               0.000984631              -0.000229886               0.001714972               0.001485086               0.000000000               0.000000000               0.000000000               0.000000000               0.001524996               0.004948240               0.000820749              -0.000046657               0.001664949               0.001618292               0.000000000               0.000000000               0.000000000               0.000000000               0.001991144               0.004968019               0.000614676               0.000125675               0.001614098               0.001739773               0.000000000               0.000000000               0.000000000               0.000000000               0.002404787               0.004985694               0.000340125               0.000278581               0.001569021               0.001847602               0.000000000               0.000000000               0.000000000               0.000000000               0.002643806               0.005014002               0.000195012               0.000364673               0.001549760               0.001914433               0.000000000               0.000000000               0.000000000               0.000000000              -0.012481750              -0.001162346              -0.001256655              -0.004535360               0.001124330              -0.003411030               0.000000000               0.000000000               0.000000000               0.000000000              -0.008763976              -0.000252654               0.000031588              -0.003254907               0.001000744              -0.002254163               0.000000000               0.000000000               0.000000000               0.000000000              -0.005928097               0.000412232               0.001228889              -0.002274563               0.000895592              -0.001378971               0.000000000               0.000000000               0.000000000               0.000000000              -0.004343900               0.001281765               0.001618166              -0.001789181               0.001023641              -0.000765540               0.000000000               0.000000000               0.000000000               0.000000000              -0.003313815               0.002053595               0.001689964              -0.001499378               0.001184315              -0.000315062               0.000000000               0.000000000               0.000000000               0.000000000              -0.002553018               0.002674265               0.001633098              -0.001291662               0.001321966               0.000030304               0.000000000               0.000000000               0.000000000               0.000000000              -0.001930907               0.003162902               0.001534827              -0.001119451               0.001427440               0.000307989               0.000000000               0.000000000               0.000000000               0.000000000              -0.001368630               0.003556363               0.001431520              -0.000957780               0.001504702               0.000546922               0.000000000               0.000000000               0.000000000               0.000000000              -0.000831783               0.003882035               0.001325577              -0.000797172               0.001559722               0.000762551               0.000000000               0.000000000               0.000000000               0.000000000              -0.000301673               0.004149197               0.001212661              -0.000631776               0.001593644               0.000961868               0.000000000               0.000000000               0.000000000               0.000000000               0.000242830               0.004369501               0.001095360              -0.000455126               0.001608194               0.001153068               0.000000000               0.000000000               0.000000000               0.000000000               0.000804804               0.004551733               0.000978492              -0.000267165               0.001606284               0.001339119               0.000000000               0.000000000               0.000000000               0.000000000               0.001382287               0.004698320               0.000861252              -0.000068933               0.001589068               0.001520135               0.000000000               0.000000000               0.000000000               0.000000000               0.001975429               0.004812080               0.000733821               0.000139274               0.001557586               0.001696860               0.000000000               0.000000000               0.000000000               0.000000000               0.002582589               0.004900130               0.000566844               0.000355951               0.001514710               0.001870661               0.000000000               0.000000000               0.000000000               0.000000000               0.003200045               0.004961087               0.000322269               0.000579875               0.001460387               0.002040263               0.000000000               0.000000000               0.000000000               0.000000000               0.003623413               0.005024976               0.000192921               0.000730651               0.001431425               0.002162076               0.000000000               0.000000000               0.000000000               0.000000000              -0.013627046              -0.001263256              -0.000726546              -0.004952232               0.001229650              -0.003722582               0.000000000               0.000000000               0.000000000               0.000000000              -0.009412014              -0.000666268              -0.000021249              -0.003446219               0.000926644              -0.002519575               0.000000000               0.000000000               0.000000000               0.000000000              -0.006076752              -0.000335209               0.000645336              -0.002236879               0.000633885              -0.001602994               0.000000000               0.000000000               0.000000000               0.000000000              -0.004250844               0.000438552               0.000878997              -0.001648884               0.000695807              -0.000953077               0.000000000               0.000000000               0.000000000               0.000000000              -0.003114010               0.001219843               0.000934662              -0.001320232               0.000846685              -0.000473547               0.000000000               0.000000000               0.000000000               0.000000000              -0.002309770               0.001891821               0.000912172              -0.001102639               0.000998146              -0.000104493               0.000000000               0.000000000               0.000000000               0.000000000              -0.001669673               0.002457932               0.000865629              -0.000933367               0.001130424               0.000197058               0.000000000               0.000000000               0.000000000               0.000000000              -0.001113723               0.002942113               0.000814883              -0.000785409               0.001242497               0.000457088               0.000000000               0.000000000               0.000000000               0.000000000              -0.000593400               0.003361467               0.000758206              -0.000642707               0.001334713               0.000692006               0.000000000               0.000000000               0.000000000               0.000000000              -0.000074485               0.003717861               0.000699046              -0.000492664               0.001403496               0.000910832               0.000000000               0.000000000               0.000000000               0.000000000               0.000466020               0.004019032               0.000637632              -0.000327621               0.001448871               0.001121250               0.000000000               0.000000000               0.000000000               0.000000000               0.001041990               0.004276593               0.000572687              -0.000143828               0.001473459               0.001329631               0.000000000               0.000000000               0.000000000               0.000000000               0.001658780               0.004493963               0.000508170               0.000060296               0.001477874               0.001538170               0.000000000               0.000000000               0.000000000               0.000000000               0.002322294               0.004676887               0.000437903               0.000286246               0.001463531               0.001749778               0.000000000               0.000000000               0.000000000               0.000000000               0.003041529               0.004826935               0.000340479               0.000537201               0.001429895               0.001967096               0.000000000               0.000000000               0.000000000               0.000000000               0.003836445               0.004929616               0.000194134               0.000822457               0.001369037               0.002191493               0.000000000               0.000000000               0.000000000               0.000000000               0.004429793               0.005027682               0.000118779               0.001032702               0.001331643               0.002364345               0.000000000               0.000000000               0.000000000               0.000000000              -0.014032317              -0.001284637              -0.000000000              -0.005101536               0.001272291              -0.003829245               0.000000000               0.000000000               0.000000000               0.000000000              -0.009644300              -0.000802718               0.000000000              -0.003516270               0.000904511              -0.002611759               0.000000000               0.000000000               0.000000000               0.000000000              -0.006134126              -0.000595004               0.000000000              -0.002225920               0.000543635              -0.001682285               0.000000000               0.000000000               0.000000000               0.000000000              -0.004216468               0.000139561               0.000000000              -0.001598619               0.000579389              -0.001019230               0.000000000               0.000000000               0.000000000               0.000000000              -0.003039143               0.000917563              -0.000000000              -0.001254372               0.000723973              -0.000530399               0.000000000               0.000000000               0.000000000               0.000000000              -0.002220430               0.001603917               0.000000000              -0.001033149               0.000879016              -0.000154133               0.000000000               0.000000000               0.000000000               0.000000000              -0.001572429               0.002197107              -0.000000000              -0.000864297               0.001020461               0.000156164               0.000000000               0.000000000               0.000000000               0.000000000              -0.001019728               0.002709922              -0.000000000              -0.000721137               0.001143677               0.000422540               0.000000000               0.000000000               0.000000000               0.000000000              -0.000503268               0.003162694              -0.000000000              -0.000584061               0.001248908               0.000664847               0.000000000               0.000000000               0.000000000               0.000000000               0.000014380               0.003556925               0.000000000              -0.000439222               0.001332037               0.000892815               0.000000000               0.000000000               0.000000000               0.000000000               0.000553762               0.003887387               0.000000000              -0.000278262               0.001388537               0.001110275               0.000000000               0.000000000               0.000000000               0.000000000               0.001135042               0.004164497              -0.000000000              -0.000094921               0.001419792               0.001324871               0.000000000               0.000000000               0.000000000               0.000000000               0.001767763               0.004401357              -0.000000000               0.000112740               0.001429524               0.001542264               0.000000000               0.000000000               0.000000000               0.000000000               0.002454781               0.004609141              -0.000000000               0.000344397               0.001421566               0.001765963               0.000000000               0.000000000               0.000000000               0.000000000               0.003216326               0.004788250              -0.000000000               0.000607585               0.001393539               0.002001124               0.000000000               0.000000000               0.000000000               0.000000000               0.004083327               0.004913628               0.000000000               0.000917035               0.001332181               0.002249216               0.000000000               0.000000000               0.000000000               0.000000000               0.004744814               0.005027002               0.000000000               0.001150918               0.001292011               0.002442930               0.000000000               0.000000000               0.000000000               0.000000000               0.002047078               0.021651850               0.000000000              -0.001938822               0.007863485               0.005924663               0.000000000               0.000000000               0.000000000               0.000000000               0.001950487               0.016571747              -0.000000000              -0.001340033               0.005970538               0.004630505               0.000000000               0.000000000               0.000000000               0.000000000               0.002495412               0.012422506              -0.000000000              -0.000617032               0.004346471               0.003729439               0.000000000               0.000000000               0.000000000               0.000000000               0.002297231               0.010062684               0.000000000              -0.000396373               0.003486319               0.003089946               0.000000000               0.000000000               0.000000000               0.000000000               0.001890698               0.008552565              -0.000000000              -0.000360058               0.002970846               0.002610788               0.000000000               0.000000000               0.000000000               0.000000000               0.001464052               0.007476805              -0.000000000              -0.000385580               0.002620770               0.002235190               0.000000000               0.000000000               0.000000000               0.000000000               0.001080651               0.006646077               0.000000000              -0.000425514               0.002357175               0.001931660               0.000000000               0.000000000               0.000000000               0.000000000               0.000760424               0.005957801               0.000000000              -0.000459565               0.002139102               0.001679537               0.000000000               0.000000000               0.000000000               0.000000000               0.000510015               0.005341265               0.000000000              -0.000476401               0.001939204               0.001462803               0.000000000               0.000000000               0.000000000               0.000000000               0.000322777               0.004761577               0.000000000              -0.000474155               0.001745228               0.001271073               0.000000000               0.000000000               0.000000000               0.000000000               0.000181045               0.004196856               0.000000000              -0.000456714               0.001551176               0.001094462               0.000000000               0.000000000               0.000000000               0.000000000               0.000078284               0.003629817              -0.000000000              -0.000424370               0.001351383               0.000927014               0.000000000               0.000000000               0.000000000               0.000000000               0.000008342               0.003039953              -0.000000000              -0.000376865               0.001138929               0.000762064               0.000000000               0.000000000               0.000000000               0.000000000              -0.000039681               0.002401630              -0.000000000              -0.000315084               0.000905563               0.000590480               0.000000000               0.000000000               0.000000000               0.000000000              -0.000062304               0.001695754               0.000000000              -0.000235333               0.000643690               0.000408357               0.000000000               0.000000000               0.000000000               0.000000000              -0.000042907               0.000906409               0.000000000              -0.000129391               0.000345264               0.000215873               0.000000000               0.000000000               0.000000000               0.000000000              -0.000084159               0.000306006              -0.000000000              -0.000069810               0.000125271               0.000055460               0.000000000               0.000000000               0.000000000               0.000000000               0.002110502               0.021187801              -0.001435660              -0.001857032               0.007681541               0.005824508               0.000000000               0.000000000               0.000000000               0.000000000               0.001895621               0.016272156              -0.000638220              -0.001323158               0.005865050               0.004541892               0.000000000               0.000000000               0.000000000               0.000000000               0.002312630               0.012301756               0.000150673              -0.000670481               0.004324038               0.003653557               0.000000000               0.000000000               0.000000000               0.000000000               0.002062236               0.010034987               0.000476674              -0.000481034               0.003505307               0.003024273               0.000000000               0.000000000               0.000000000               0.000000000               0.001646856               0.008576524               0.000600622              -0.000454494               0.003010311               0.002555817               0.000000000               0.000000000               0.000000000               0.000000000               0.001230140               0.007532039               0.000635717              -0.000480201               0.002670722               0.002190520               0.000000000               0.000000000               0.000000000               0.000000000               0.000865377               0.006717848               0.000633665              -0.000515214               0.002410998               0.001895784               0.000000000               0.000000000               0.000000000               0.000000000               0.000570523               0.006036373               0.000610570              -0.000540599               0.002192304               0.001651704               0.000000000               0.000000000               0.000000000               0.000000000               0.000345623               0.005425517               0.000577157              -0.000548580               0.001991347               0.001442768               0.000000000               0.000000000               0.000000000               0.000000000               0.000178304               0.004850416               0.000542577              -0.000539437               0.001796601               0.001257164               0.000000000               0.000000000               0.000000000               0.000000000               0.000058637               0.004289479               0.000506783              -0.000514195               0.001601210               0.001087015               0.000000000               0.000000000               0.000000000               0.000000000              -0.000015873               0.003726907               0.000467993              -0.000471815               0.001399561               0.000927747               0.000000000               0.000000000               0.000000000               0.000000000              -0.000061591               0.003145920               0.000419995              -0.000416336               0.001187408               0.000771072               0.000000000               0.000000000               0.000000000               0.000000000              -0.000086938               0.002529918               0.000356314              -0.000348841               0.000959578               0.000610737               0.000000000               0.000000000               0.000000000               0.000000000              -0.000087263               0.001867174               0.000273610              -0.000266120               0.000711092               0.000444972               0.000000000               0.000000000               0.000000000               0.000000000              -0.000055057               0.001146258               0.000157262              -0.000163929               0.000436725               0.000272796               0.000000000               0.000000000               0.000000000               0.000000000              -0.000085440               0.000610879               0.000098438              -0.000108400               0.000239757               0.000131358               0.000000000               0.000000000               0.000000000               0.000000000               0.002243728               0.019855783              -0.002643482              -0.001640572               0.007165385               0.005524813               0.000000000               0.000000000               0.000000000               0.000000000               0.001702304               0.015425934              -0.001164988              -0.001289875               0.005571885               0.004282010               0.000000000               0.000000000               0.000000000               0.000000000               0.001773009               0.011962905               0.000279344              -0.000830483               0.004264423               0.003433940               0.000000000               0.000000000               0.000000000               0.000000000               0.001401251               0.009958743               0.000852287              -0.000719372               0.003559339               0.002839966               0.000000000               0.000000000               0.000000000               0.000000000               0.000973873               0.008640054               0.001059581              -0.000714803               0.003118257               0.002403454               0.000000000               0.000000000               0.000000000               0.000000000               0.000595281               0.007672059               0.001109607              -0.000735776               0.002802586               0.002066810               0.000000000               0.000000000               0.000000000               0.000000000               0.000288984               0.006895281               0.001096605              -0.000753540               0.002549584               0.001796044               0.000000000               0.000000000               0.000000000               0.000000000               0.000063767               0.006229834               0.001049219              -0.000754815               0.002328196               0.001573380               0.000000000               0.000000000               0.000000000               0.000000000              -0.000090677               0.005629085               0.000984714              -0.000737638               0.002122222               0.001384584               0.000000000               0.000000000               0.000000000               0.000000000              -0.000190581               0.005062958               0.000918309              -0.000704336               0.001922414               0.001218078               0.000000000               0.000000000               0.000000000               0.000000000              -0.000241596               0.004511775               0.000850139              -0.000654569               0.001722100               0.001067530               0.000000000               0.000000000               0.000000000               0.000000000              -0.000251324               0.003963028               0.000777245              -0.000589624               0.001517537               0.000927914               0.000000000               0.000000000               0.000000000               0.000000000              -0.000235672               0.003409600               0.000690718              -0.000514576               0.001308047               0.000793471               0.000000000               0.000000000               0.000000000               0.000000000              -0.000200801               0.002850659               0.000580143              -0.000431632               0.001094087               0.000662455               0.000000000               0.000000000               0.000000000               0.000000000              -0.000149362               0.002288697               0.000439013              -0.000342097               0.000876924               0.000534827               0.000000000               0.000000000               0.000000000               0.000000000              -0.000082250               0.001727130               0.000248940              -0.000246734               0.000657949               0.000411215               0.000000000               0.000000000               0.000000000               0.000000000              -0.000084156               0.001340662               0.000153462              -0.000199141               0.000513263               0.000314122               0.000000000               0.000000000               0.000000000               0.000000000               0.002336876               0.017835165              -0.003469096              -0.001353066               0.006396017               0.005042951               0.000000000               0.000000000               0.000000000               0.000000000               0.001336206               0.014172049              -0.001516022              -0.001270426               0.005147444               0.003877018               0.000000000               0.000000000               0.000000000               0.000000000               0.000925365               0.011472249               0.000359758              -0.001087017               0.004186384               0.003099367               0.000000000               0.000000000               0.000000000               0.000000000               0.000424130               0.009838394               0.001056319              -0.001070748               0.003636348               0.002565600               0.000000000               0.000000000               0.000000000               0.000000000               0.000016039               0.008704574               0.001287692              -0.001082055               0.003262181               0.002180125               0.000000000               0.000000000               0.000000000               0.000000000              -0.000277395               0.007829215               0.001326951              -0.001082673               0.002970603               0.001887930               0.000000000               0.000000000               0.000000000               0.000000000              -0.000478100               0.007096159               0.001291560              -0.001066305               0.002720798               0.001654492               0.000000000               0.000000000               0.000000000               0.000000000              -0.000601132               0.006445207               0.001221433              -0.001031073               0.002492072               0.001460998               0.000000000               0.000000000               0.000000000               0.000000000              -0.000650243               0.005850255               0.001135652              -0.000975121               0.002275105               0.001299985               0.000000000               0.000000000               0.000000000               0.000000000              -0.000642851               0.005288726               0.001048077              -0.000902158               0.002063610               0.001161452               0.000000000               0.000000000               0.000000000               0.000000000              -0.000595055               0.004747341               0.000956349              -0.000816562               0.001854618               0.001038057               0.000000000               0.000000000               0.000000000               0.000000000              -0.000519489               0.004220003               0.000857252              -0.000722307               0.001647423               0.000925115               0.000000000               0.000000000               0.000000000               0.000000000              -0.000430871               0.003708672               0.000744696              -0.000625159               0.001444598               0.000819439               0.000000000               0.000000000               0.000000000               0.000000000              -0.000331642               0.003222048               0.000610030              -0.000527121               0.001249712               0.000722591               0.000000000               0.000000000               0.000000000               0.000000000              -0.000221666               0.002772265               0.000447967              -0.000429657               0.001067298               0.000637641               0.000000000               0.000000000               0.000000000               0.000000000              -0.000110569               0.002372191               0.000245954              -0.000337986               0.000903384               0.000565398               0.000000000               0.000000000               0.000000000               0.000000000              -0.000082365               0.002126526               0.000147073              -0.000296702               0.000807735               0.000511033               0.000000000               0.000000000               0.000000000               0.000000000               0.002258812               0.015377001              -0.003828379              -0.001075071               0.005483972               0.004408901               0.000000000               0.000000000               0.000000000               0.000000000               0.000780958               0.012683450              -0.001675872              -0.001292570               0.004658631               0.003366061               0.000000000               0.000000000               0.000000000               0.000000000              -0.000131535               0.010896730               0.000350158              -0.001411413               0.004102678               0.002691265               0.000000000               0.000000000               0.000000000               0.000000000              -0.000706963               0.009667226               0.001045047              -0.001473511               0.003713547               0.002240036               0.000000000               0.000000000               0.000000000               0.000000000              -0.001030648               0.008718928               0.001249568              -0.001476356               0.003398398               0.001922043               0.000000000               0.000000000               0.000000000               0.000000000              -0.001195684               0.007922147               0.001262867              -0.001438646               0.003120238               0.001681591               0.000000000               0.000000000               0.000000000               0.000000000              -0.001250765               0.007222717               0.001207199              -0.001371873               0.002864839               0.001492966               0.000000000               0.000000000               0.000000000               0.000000000              -0.001229953               0.006581015               0.001128486              -0.001283856               0.002621602               0.001337745               0.000000000               0.000000000               0.000000000               0.000000000              -0.001151614               0.005987538               0.001040919              -0.001180295               0.002389257               0.001208963               0.000000000               0.000000000               0.000000000               0.000000000              -0.001031690               0.005432019               0.000949129              -0.001065884               0.002165949               0.001100066               0.000000000               0.000000000               0.000000000               0.000000000              -0.000890828               0.004904639               0.000851135              -0.000947138               0.001950576               0.001003438               0.000000000               0.000000000               0.000000000               0.000000000              -0.000736811               0.004411330               0.000746353              -0.000827718               0.001746335               0.000918616               0.000000000               0.000000000               0.000000000               0.000000000              -0.000575895               0.003956801               0.000632433              -0.000710559               0.001555773               0.000845214               0.000000000               0.000000000               0.000000000               0.000000000              -0.000418718               0.003548349               0.000503504              -0.000600561               0.001382958               0.000782397               0.000000000               0.000000000               0.000000000               0.000000000              -0.000265384               0.003202922               0.000356540              -0.000499883               0.001234258               0.000734375               0.000000000               0.000000000               0.000000000               0.000000000              -0.000126609               0.002937177               0.000187781              -0.000414624               0.001117257               0.000702633               0.000000000               0.000000000               0.000000000               0.000000000              -0.000078484               0.002799162               0.000107182              -0.000379326               0.001059487               0.000680161               0.000000000               0.000000000               0.000000000               0.000000000               0.001872798               0.012725640              -0.003735925              -0.000888407               0.004537972               0.003649566               0.000000000               0.000000000               0.000000000               0.000000000               0.000033864               0.011118726              -0.001684722              -0.001377139               0.004165251               0.002788112               0.000000000               0.000000000               0.000000000               0.000000000              -0.001266876               0.010281062               0.000214105              -0.001760207               0.004013722               0.002253515               0.000000000               0.000000000               0.000000000               0.000000000              -0.001813673               0.009426296               0.000812181              -0.001858410               0.003761537               0.001903127               0.000000000               0.000000000               0.000000000               0.000000000              -0.001987160               0.008629354               0.000964478              -0.001823850               0.003484372               0.001660522               0.000000000               0.000000000               0.000000000               0.000000000              -0.001979126               0.007891614               0.000961948              -0.001728620               0.003206718               0.001478098               0.000000000               0.000000000               0.000000000               0.000000000              -0.001865580               0.007211041               0.000912012              -0.001600969               0.002937312               0.001336344               0.000000000               0.000000000               0.000000000               0.000000000              -0.001686760               0.006577738               0.000848420              -0.001454749               0.002677474               0.001222725               0.000000000               0.000000000               0.000000000               0.000000000              -0.001475109               0.005992767               0.000782301              -0.001302259               0.002431655               0.001129397               0.000000000               0.000000000               0.000000000               0.000000000              -0.001250193               0.005456872               0.000707431              -0.001150929               0.002202582               0.001051653               0.000000000               0.000000000               0.000000000               0.000000000              -0.001022281               0.004964138               0.000626583              -0.001003870               0.001989319               0.000985449               0.000000000               0.000000000               0.000000000               0.000000000              -0.000801161               0.004522686               0.000541717              -0.000865769               0.001796136               0.000930367               0.000000000               0.000000000               0.000000000               0.000000000              -0.000591291               0.004135977               0.000446945              -0.000738730               0.001624888               0.000886159               0.000000000               0.000000000               0.000000000               0.000000000              -0.000398997               0.003814151               0.000343886              -0.000626391               0.001480168               0.000853777               0.000000000               0.000000000               0.000000000               0.000000000              -0.000230361               0.003573474               0.000232773              -0.000533068               0.001368835               0.000835767               0.000000000               0.000000000               0.000000000               0.000000000              -0.000099743               0.003428350               0.000116481              -0.000465946               0.001298087               0.000832141               0.000000000               0.000000000               0.000000000               0.000000000              -0.000047509               0.003384278               0.000058951              -0.000440850               0.001275031               0.000834182               0.000000000               0.000000000               0.000000000               0.000000000               0.001123772               0.010102412              -0.003278299              -0.000841388               0.003647899               0.002806511               0.000000000               0.000000000               0.000000000               0.000000000              -0.000861172               0.009602568              -0.001599281              -0.001523258               0.003708576               0.002185318               0.000000000               0.000000000               0.000000000               0.000000000              -0.002360472               0.009642824              -0.000056187              -0.002090525               0.003911084               0.001820559               0.000000000               0.000000000               0.000000000               0.000000000              -0.002761327               0.009090386               0.000398025              -0.002171790               0.003754028               0.001582238               0.000000000               0.000000000               0.000000000               0.000000000              -0.002729817               0.008410858               0.000516678              -0.002075033               0.003495269               0.001420236               0.000000000               0.000000000               0.000000000               0.000000000              -0.002521525               0.007725040               0.000528479              -0.001911197               0.003212053               0.001300856               0.000000000               0.000000000               0.000000000               0.000000000              -0.002236648               0.007067873               0.000509212              -0.001722223               0.002930008               0.001207785               0.000000000               0.000000000               0.000000000               0.000000000              -0.001912287               0.006453342               0.000480898              -0.001523772               0.002659016               0.001135245               0.000000000               0.000000000               0.000000000               0.000000000              -0.001577960               0.005891950               0.000454386              -0.001328225               0.002406705               0.001078480               0.000000000               0.000000000               0.000000000               0.000000000              -0.001256349               0.005389504               0.000416789              -0.001144816               0.002178089               0.001033273               0.000000000               0.000000000               0.000000000               0.000000000              -0.000955035               0.004946981               0.000367694              -0.000976508               0.001974480               0.000997972               0.000000000               0.000000000               0.000000000               0.000000000              -0.000680652               0.004571182               0.000311572              -0.000826640               0.001799259               0.000972619               0.000000000               0.000000000               0.000000000               0.000000000              -0.000441749               0.004265939               0.000243065              -0.000698896               0.001654931               0.000956034               0.000000000               0.000000000               0.000000000               0.000000000              -0.000245062               0.004040253               0.000167978              -0.000596928               0.001545714               0.000948785               0.000000000               0.000000000               0.000000000               0.000000000              -0.000102614               0.003898711               0.000093405              -0.000525818               0.001474830               0.000949012               0.000000000               0.000000000               0.000000000               0.000000000              -0.000025123               0.003845940               0.000033952              -0.000490162               0.001445355               0.000955192               0.000000000               0.000000000               0.000000000               0.000000000               0.000003496               0.003857783               0.000006420              -0.000480911               0.001446218               0.000965308               0.000000000               0.000000000               0.000000000               0.000000000               0.000061750               0.007687083              -0.002562680              -0.000937729               0.002874911               0.001937182               0.000000000               0.000000000               0.000000000               0.000000000              -0.001840780               0.008220877              -0.001470284              -0.001717898               0.003312897               0.001594999               0.000000000               0.000000000               0.000000000               0.000000000              -0.003301007               0.008970693              -0.000446104              -0.002359208               0.003776604               0.001417395               0.000000000               0.000000000               0.000000000               0.000000000              -0.003454076               0.008652253              -0.000119468              -0.002376804               0.003676324               0.001299519               0.000000000               0.000000000               0.000000000               0.000000000              -0.003192035               0.008074159               0.000005994              -0.002206278               0.003426785               0.001220508               0.000000000               0.000000000               0.000000000               0.000000000              -0.002795618               0.007439859               0.000059496              -0.001978334               0.003139373               0.001161039               0.000000000               0.000000000               0.000000000               0.000000000              -0.002355827               0.006820069               0.000087153              -0.001735939               0.002851980               0.001116041               0.000000000               0.000000000               0.000000000               0.000000000              -0.001901897               0.006241968               0.000106079              -0.001493454               0.002578453               0.001085000               0.000000000               0.000000000               0.000000000               0.000000000              -0.001464713               0.005725073               0.000127891              -0.001264898               0.002329971               0.001065073               0.000000000               0.000000000               0.000000000               0.000000000              -0.001065945               0.005273519               0.000135917              -0.001058917               0.002110794               0.001051878               0.000000000               0.000000000               0.000000000               0.000000000              -0.000713096               0.004898738               0.000124731              -0.000879751               0.001926147               0.001046396               0.000000000               0.000000000               0.000000000               0.000000000              -0.000416409               0.004603303               0.000100306              -0.000731564               0.001778274               0.001046709               0.000000000               0.000000000               0.000000000               0.000000000              -0.000184594               0.004390796               0.000061985              -0.000618071               0.001669607               0.001051537               0.000000000               0.000000000               0.000000000               0.000000000              -0.000023309               0.004266459               0.000019975              -0.000542047               0.001602821               0.001060774               0.000000000               0.000000000               0.000000000               0.000000000               0.000058104               0.004224199              -0.000012663              -0.000506235               0.001576797               0.001070563               0.000000000               0.000000000               0.000000000               0.000000000               0.000059362               0.004250020              -0.000022276              -0.000508990               0.001586323               0.001077332               0.000000000               0.000000000               0.000000000               0.000000000               0.000045081               0.004294807              -0.000024724              -0.000519944               0.001604903               0.001084958               0.000000000               0.000000000               0.000000000               0.000000000              -0.001184560               0.005658832              -0.001707554              -0.001151562               0.002270112               0.001118550               0.000000000               0.000000000               0.000000000               0.000000000              -0.002799184               0.006983973              -0.001337473              -0.001922686               0.002968863               0.001046177               0.000000000               0.000000000               0.000000000               0.000000000              -0.004044502               0.008282066              -0.000912180              -0.002551940               0.003611308               0.001059367               0.000000000               0.000000000               0.000000000               0.000000000              -0.003934477               0.008206113              -0.000665316              -0.002501187               0.003569073               0.001067886               0.000000000               0.000000000               0.000000000               0.000000000              -0.003476024               0.007753859              -0.000508062              -0.002272736               0.003342173               0.001069437               0.000000000               0.000000000               0.000000000               0.000000000              -0.002928853               0.007200627              -0.000399283              -0.001998393               0.003066316               0.001067923               0.000000000               0.000000000               0.000000000               0.000000000              -0.002371945               0.006639468              -0.000316905              -0.001719409               0.002786270               0.001066861               0.000000000               0.000000000               0.000000000               0.000000000              -0.001819521               0.006119082              -0.000246637              -0.001447202               0.002522074               0.001074872               0.000000000               0.000000000               0.000000000               0.000000000              -0.001300346               0.005661266              -0.000178885              -0.001195285               0.002285498               0.001090213               0.000000000               0.000000000               0.000000000               0.000000000              -0.000843930               0.005265967              -0.000123389              -0.000974717               0.002080211               0.001105493               0.000000000               0.000000000               0.000000000               0.000000000              -0.000457662               0.004947302              -0.000087517              -0.000790034               0.001912429               0.001122395               0.000000000               0.000000000               0.000000000               0.000000000              -0.000150526               0.004708600              -0.000069373              -0.000645021               0.001784525               0.001139504               0.000000000               0.000000000               0.000000000               0.000000000               0.000074797               0.004558747              -0.000062162              -0.000541793               0.001700165               0.001158372               0.000000000               0.000000000               0.000000000               0.000000000               0.000211286               0.004502131              -0.000055139              -0.000483533               0.001661873               0.001178340               0.000000000               0.000000000               0.000000000               0.000000000               0.000253687               0.004533256              -0.000042560              -0.000471523               0.001668245               0.001196722               0.000000000               0.000000000               0.000000000               0.000000000               0.000219047               0.004631187              -0.000023534              -0.000496755               0.001709298               0.001212544               0.000000000               0.000000000               0.000000000               0.000000000               0.000175007               0.004700626              -0.000012295              -0.000521949               0.001740843               0.001218893               0.000000000               0.000000000               0.000000000               0.000000000              -0.002624242               0.003784795              -0.000817428              -0.001457187               0.001747314               0.000290127               0.000000000               0.000000000               0.000000000               0.000000000              -0.003612681               0.005544341              -0.001192251              -0.002047793               0.002530693               0.000482899               0.000000000               0.000000000               0.000000000               0.000000000              -0.004504849               0.007231403              -0.001393971              -0.002593237               0.003274856               0.000681618               0.000000000               0.000000000               0.000000000               0.000000000              -0.004250238               0.007514071              -0.001236396              -0.002533092               0.003349029               0.000815937               0.000000000               0.000000000               0.000000000               0.000000000              -0.003713305               0.007320371              -0.001048463              -0.002307530               0.003209276               0.000901746               0.000000000               0.000000000               0.000000000               0.000000000              -0.003111695               0.006962507              -0.000885098              -0.002037194               0.002999877               0.000962683               0.000000000               0.000000000               0.000000000               0.000000000              -0.002516382               0.006551846              -0.000750174              -0.001762620               0.002771467               0.001008847               0.000000000               0.000000000               0.000000000               0.000000000              -0.001937766               0.006145737              -0.000634999              -0.001494876               0.002546850               0.001051975               0.000000000               0.000000000               0.000000000               0.000000000              -0.001384963               0.005776497              -0.000527790              -0.001241420               0.002339287               0.001097866               0.000000000               0.000000000               0.000000000               0.000000000              -0.000888719               0.005458174              -0.000425218              -0.001015539               0.002157886               0.001142347               0.000000000               0.000000000               0.000000000               0.000000000              -0.000462350               0.005192670              -0.000335732              -0.000822463               0.002005027               0.001182564               0.000000000               0.000000000               0.000000000               0.000000000              -0.000111608               0.004983499              -0.000264689              -0.000664789               0.001882746               0.001217957               0.000000000               0.000000000               0.000000000               0.000000000               0.000160185               0.004837508              -0.000203088              -0.000544618               0.001794026               0.001249408               0.000000000               0.000000000               0.000000000               0.000000000               0.000348214               0.004767185              -0.000138612              -0.000465317               0.001744151               0.001278834               0.000000000               0.000000000               0.000000000               0.000000000               0.000449105               0.004775715              -0.000076174              -0.000428549               0.001734739               0.001306190               0.000000000               0.000000000               0.000000000               0.000000000               0.000473541               0.004860158              -0.000029010              -0.000429941               0.001763350               0.001333409               0.000000000               0.000000000               0.000000000               0.000000000               0.000448376               0.004912317              -0.000004300              -0.000445898               0.001786055               0.001340158               0.000000000               0.000000000               0.000000000               0.000000000              -0.004445214               0.002091738               0.000040616              -0.001928419               0.001340043              -0.000588376               0.000000000               0.000000000               0.000000000               0.000000000              -0.004531827               0.004084482              -0.000989686              -0.002209991               0.002098143              -0.000111848               0.000000000               0.000000000               0.000000000               0.000000000              -0.004882877               0.005966496              -0.001780536              -0.002576885               0.002847773               0.000270888               0.000000000               0.000000000               0.000000000               0.000000000              -0.004494077               0.006591112              -0.001775165              -0.002509162               0.003033402               0.000524240               0.000000000               0.000000000               0.000000000               0.000000000              -0.003913651               0.006699575              -0.001593616              -0.002305061               0.003001522               0.000696462               0.000000000               0.000000000               0.000000000               0.000000000              -0.003292606               0.006577126              -0.001395666              -0.002056863               0.002877974               0.000821111               0.000000000               0.000000000               0.000000000               0.000000000              -0.002678828               0.006353199              -0.001219141              -0.001798706               0.002717280               0.000918574               0.000000000               0.000000000               0.000000000               0.000000000              -0.002085684               0.006092180              -0.001066357              -0.001543650               0.002545256               0.001001606               0.000000000               0.000000000               0.000000000               0.000000000              -0.001514463               0.005830321              -0.000924077              -0.001296711               0.002375658               0.001078947               0.000000000               0.000000000               0.000000000               0.000000000              -0.000982941               0.005583655              -0.000783388              -0.001066557               0.002216719               0.001150161               0.000000000               0.000000000               0.000000000               0.000000000              -0.000506670               0.005368599              -0.000651232              -0.000861074               0.002076540               0.001215466               0.000000000               0.000000000               0.000000000               0.000000000              -0.000096819               0.005190489              -0.000530268              -0.000685117               0.001958518               0.001273401               0.000000000               0.000000000               0.000000000               0.000000000               0.000239093               0.005052442              -0.000413815              -0.000541894               0.001864762               0.001322868               0.000000000               0.000000000               0.000000000               0.000000000               0.000500388               0.004959803              -0.000295318              -0.000432329               0.001797361               0.001365032               0.000000000               0.000000000               0.000000000               0.000000000               0.000686665               0.004921221              -0.000180775              -0.000357652               0.001759608               0.001401956               0.000000000               0.000000000               0.000000000               0.000000000               0.000788499               0.004940976              -0.000079368              -0.000321934               0.001754287               0.001432353               0.000000000               0.000000000               0.000000000               0.000000000               0.000804789               0.004957273              -0.000030138              -0.000317862               0.001758362               0.001440500               0.000000000               0.000000000               0.000000000               0.000000000              -0.006518321               0.000720510               0.000782196              -0.002534432               0.001084973              -0.001449459               0.000000000               0.000000000               0.000000000               0.000000000              -0.005589063               0.002696727              -0.000722496              -0.002432986               0.001709892              -0.000723093               0.000000000               0.000000000               0.000000000               0.000000000              -0.005199394               0.004506826              -0.001972784              -0.002513121               0.002339966              -0.000173155               0.000000000               0.000000000               0.000000000               0.000000000              -0.004589378               0.005368080              -0.002151506              -0.002392021               0.002586682               0.000194660               0.000000000               0.000000000               0.000000000               0.000000000              -0.003942582               0.005749136              -0.002025422              -0.002197105               0.002648727               0.000451622               0.000000000               0.000000000               0.000000000               0.000000000              -0.003307985               0.005868374              -0.001828942              -0.001974037               0.002614117               0.000640080               0.000000000               0.000000000               0.000000000               0.000000000              -0.002689714               0.005849805              -0.001635717              -0.001739865               0.002529870               0.000790005               0.000000000               0.000000000               0.000000000               0.000000000              -0.002094069               0.005765047              -0.001458130              -0.001505903               0.002423631               0.000917727               0.000000000               0.000000000               0.000000000               0.000000000              -0.001520239               0.005637317              -0.001294026              -0.001274752               0.002304004               0.001029252               0.000000000               0.000000000               0.000000000               0.000000000              -0.000965701               0.005489729              -0.001136187              -0.001048352               0.002179342               0.001130990               0.000000000               0.000000000               0.000000000               0.000000000              -0.000449001               0.005351305              -0.000981137              -0.000837287               0.002062846               0.001225559               0.000000000               0.000000000               0.000000000               0.000000000               0.000010098               0.005231319              -0.000825635              -0.000650127               0.001960464               0.001310338               0.000000000               0.000000000               0.000000000               0.000000000               0.000403587               0.005133310              -0.000668340              -0.000490317               0.001874525               0.001384208               0.000000000               0.000000000               0.000000000               0.000000000               0.000732280               0.005053530              -0.000507921              -0.000357085               0.001803521               0.001446436               0.000000000               0.000000000               0.000000000               0.000000000               0.000989093               0.005003079              -0.000339317              -0.000254474               0.001752501               0.001498027               0.000000000               0.000000000               0.000000000               0.000000000               0.001153907               0.004988306              -0.000165724              -0.000190823               0.001726360               0.001535537               0.000000000               0.000000000               0.000000000               0.000000000               0.001207660               0.004988992              -0.000081113              -0.000170751               0.001719898               0.001549147               0.000000000               0.000000000               0.000000000               0.000000000              -0.008694569              -0.000258193               0.001285685              -0.003228187               0.000989991              -0.002238196               0.000000000               0.000000000               0.000000000               0.000000000              -0.006715318               0.001462173              -0.000436674              -0.002701012               0.001387719              -0.001313294               0.000000000               0.000000000               0.000000000               0.000000000              -0.005477892               0.002984417              -0.001940064              -0.002427257               0.001803879              -0.000623379               0.000000000               0.000000000               0.000000000               0.000000000              -0.004565464               0.003955169              -0.002280444              -0.002206441               0.002053855              -0.000152585               0.000000000               0.000000000               0.000000000               0.000000000              -0.003812416               0.004543523              -0.002237135              -0.001997592               0.002180355               0.000182763               0.000000000               0.000000000               0.000000000               0.000000000              -0.003149195               0.004883340              -0.002076666              -0.001791362               0.002224884               0.000433522               0.000000000               0.000000000               0.000000000               0.000000000              -0.002537657               0.005069223              -0.001892344              -0.001585271               0.002218147               0.000632876               0.000000000               0.000000000               0.000000000               0.000000000              -0.001953523               0.005160405              -0.001713632              -0.001377619               0.002179323               0.000801705               0.000000000               0.000000000               0.000000000               0.000000000              -0.001384215               0.005188879              -0.001548533              -0.001167688               0.002118838               0.000951150               0.000000000               0.000000000               0.000000000               0.000000000              -0.000823470               0.005179814              -0.001388165              -0.000956276               0.002045346               0.001089069               0.000000000               0.000000000               0.000000000               0.000000000              -0.000287325               0.005148193              -0.001224945              -0.000751270               0.001966470               0.001215200               0.000000000               0.000000000               0.000000000               0.000000000               0.000213913               0.005111121              -0.001059490              -0.000558672               0.001889914               0.001331242               0.000000000               0.000000000               0.000000000               0.000000000               0.000673010               0.005075749              -0.000893236              -0.000382089               0.001819263               0.001437173               0.000000000               0.000000000               0.000000000               0.000000000               0.001081725               0.005040305              -0.000717437              -0.000224391               0.001754882               0.001530491               0.000000000               0.000000000               0.000000000               0.000000000               0.001426500               0.005010665              -0.000511461              -0.000091396               0.001700670               0.001609274               0.000000000               0.000000000               0.000000000               0.000000000               0.001683353               0.004997233              -0.000268203               0.000006603               0.001663527               0.001670130               0.000000000               0.000000000               0.000000000               0.000000000               0.001797512               0.005001979              -0.000143113               0.000048819               0.001651037               0.001699856               0.000000000               0.000000000               0.000000000               0.000000000              -0.010764411              -0.000865452               0.001454198              -0.003928470               0.001020999              -0.002907471               0.000000000               0.000000000               0.000000000               0.000000000              -0.007817287               0.000460882              -0.000191236              -0.002989090               0.001149983              -0.001839107               0.000000000               0.000000000               0.000000000               0.000000000              -0.005722416               0.001565744              -0.001680110              -0.002341621               0.001302446              -0.001039175               0.000000000               0.000000000               0.000000000               0.000000000              -0.004466031               0.002523513              -0.002104400              -0.001990198               0.001504559              -0.000485638               0.000000000               0.000000000               0.000000000               0.000000000              -0.003575821               0.003237194              -0.002138884              -0.001745579               0.001660912              -0.000084667               0.000000000               0.000000000               0.000000000               0.000000000              -0.002868463               0.003749350              -0.002031578              -0.001544339               0.001764550               0.000220210               0.000000000               0.000000000               0.000000000               0.000000000              -0.002259097               0.004111678              -0.001881517              -0.001361119               0.001824251               0.000463133               0.000000000               0.000000000               0.000000000               0.000000000              -0.001687619               0.004367976              -0.001730225              -0.001178852               0.001848928               0.000670075               0.000000000               0.000000000               0.000000000               0.000000000              -0.001131095               0.004553871              -0.001586689              -0.000993393               0.001849072               0.000855679               0.000000000               0.000000000               0.000000000               0.000000000              -0.000581844               0.004694818              -0.001438365              -0.000805043               0.001833271               0.001028228               0.000000000               0.000000000               0.000000000               0.000000000              -0.000037459               0.004796593              -0.001284942              -0.000613620               0.001803388               0.001189768               0.000000000               0.000000000               0.000000000               0.000000000               0.000500097               0.004864857              -0.001134939              -0.000420570               0.001761793               0.001341223               0.000000000               0.000000000               0.000000000               0.000000000               0.001025331               0.004915080              -0.000984631              -0.000229886               0.001714972               0.001485086               0.000000000               0.000000000               0.000000000               0.000000000               0.001524996               0.004948240              -0.000820749              -0.000046657               0.001664949               0.001618292               0.000000000               0.000000000               0.000000000               0.000000000               0.001991144               0.004968019              -0.000614676               0.000125675               0.001614098               0.001739773               0.000000000               0.000000000               0.000000000               0.000000000               0.002404787               0.004985694              -0.000340125               0.000278581               0.001569021               0.001847602               0.000000000               0.000000000               0.000000000               0.000000000               0.002643806               0.005014002              -0.000195012               0.000364673               0.001549760               0.001914433               0.000000000               0.000000000               0.000000000               0.000000000              -0.012481750              -0.001162346               0.001256655              -0.004535360               0.001124330              -0.003411030               0.000000000               0.000000000               0.000000000               0.000000000              -0.008763976              -0.000252654              -0.000031588              -0.003254907               0.001000744              -0.002254163               0.000000000               0.000000000               0.000000000               0.000000000              -0.005928097               0.000412232              -0.001228889              -0.002274563               0.000895592              -0.001378971               0.000000000               0.000000000               0.000000000               0.000000000              -0.004343900               0.001281765              -0.001618166              -0.001789181               0.001023641              -0.000765540               0.000000000               0.000000000               0.000000000               0.000000000              -0.003313815               0.002053595              -0.001689964              -0.001499378               0.001184315              -0.000315062               0.000000000               0.000000000               0.000000000               0.000000000              -0.002553018               0.002674265              -0.001633098              -0.001291662               0.001321966               0.000030304               0.000000000               0.000000000               0.000000000               0.000000000              -0.001930907               0.003162902              -0.001534827              -0.001119451               0.001427440               0.000307989               0.000000000               0.000000000               0.000000000               0.000000000              -0.001368630               0.003556363              -0.001431520              -0.000957780               0.001504702               0.000546922               0.000000000               0.000000000               0.000000000               0.000000000              -0.000831783               0.003882035              -0.001325577              -0.000797172               0.001559722               0.000762551               0.000000000               0.000000000               0.000000000               0.000000000              -0.000301673               0.004149197              -0.001212661              -0.000631776               0.001593644               0.000961868               0.000000000               0.000000000               0.000000000               0.000000000               0.000242830               0.004369501              -0.001095360              -0.000455126               0.001608194               0.001153068               0.000000000               0.000000000               0.000000000               0.000000000               0.000804804               0.004551733              -0.000978492              -0.000267165               0.001606284               0.001339119               0.000000000               0.000000000               0.000000000               0.000000000               0.001382287               0.004698320              -0.000861252              -0.000068933               0.001589068               0.001520135               0.000000000               0.000000000               0.000000000               0.000000000               0.001975429               0.004812080              -0.000733821               0.000139274               0.001557586               0.001696860               0.000000000               0.000000000               0.000000000               0.000000000               0.002582589               0.004900130              -0.000566844               0.000355951               0.001514710               0.001870661               0.000000000               0.000000000               0.000000000               0.000000000               0.003200045               0.004961087              -0.000322269               0.000579875               0.001460387               0.002040263               0.000000000               0.000000000               0.000000000               0.000000000               0.003623413               0.005024976              -0.000192921               0.000730651               0.001431425               0.002162076               0.000000000               0.000000000               0.000000000               0.000000000              -0.013627046              -0.001263256               0.000726546              -0.004952232               0.001229650              -0.003722582               0.000000000               0.000000000               0.000000000               0.000000000              -0.009412014              -0.000666268               0.000021249              -0.003446219               0.000926644              -0.002519575               0.000000000               0.000000000               0.000000000               0.000000000              -0.006076752              -0.000335209              -0.000645336              -0.002236879               0.000633885              -0.001602994               0.000000000               0.000000000               0.000000000               0.000000000              -0.004250844               0.000438552              -0.000878997              -0.001648884               0.000695807              -0.000953077               0.000000000               0.000000000               0.000000000               0.000000000              -0.003114010               0.001219843              -0.000934662              -0.001320232               0.000846685              -0.000473547               0.000000000               0.000000000               0.000000000               0.000000000              -0.002309770               0.001891821              -0.000912172              -0.001102639               0.000998146              -0.000104493               0.000000000               0.000000000               0.000000000               0.000000000              -0.001669673               0.002457932              -0.000865629              -0.000933367               0.001130424               0.000197058               0.000000000               0.000000000               0.000000000               0.000000000              -0.001113723               0.002942113              -0.000814883              -0.000785409               0.001242497               0.000457088               0.000000000               0.000000000               0.000000000               0.000000000              -0.000593400               0.003361467              -0.000758206              -0.000642707               0.001334713               0.000692006               0.000000000               0.000000000               0.000000000               0.000000000              -0.000074485               0.003717861              -0.000699046              -0.000492664               0.001403496               0.000910832               0.000000000               0.000000000               0.000000000               0.000000000               0.000466020               0.004019032              -0.000637632              -0.000327621               0.001448871               0.001121250               0.000000000               0.000000000               0.000000000               0.000000000               0.001041990               0.004276593              -0.000572687              -0.000143828               0.001473459               0.001329631               0.000000000               0.000000000               0.000000000               0.000000000               0.001658780               0.004493963              -0.000508170               0.000060296               0.001477874               0.001538170               0.000000000               0.000000000               0.000000000               0.000000000               0.002322294               0.004676887              -0.000437903               0.000286246               0.001463531               0.001749778               0.000000000               0.000000000               0.000000000               0.000000000               0.003041529               0.004826935              -0.000340479               0.000537201               0.001429895               0.001967096               0.000000000               0.000000000               0.000000000               0.000000000               0.003836445               0.004929616              -0.000194134               0.000822457               0.001369037               0.002191493               0.000000000               0.000000000               0.000000000               0.000000000               0.004429793               0.005027682              -0.000118779               0.001032702               0.001331643               0.002364345               0.000000000               0.000000000               0.000000000               0.000000000               0.000000000               0.000000000               0.000000000               0.000000000               0.000000000               0.000000000               0.000000000               0.000000000               0.000000000               0.000000000               0.000000000               0.000000000               0.000000000               0.000000000               0.000000000               0.000000000               0.000000000               0.000000000               0.000000000               0.000000000               0.000000000               0.000000000               0.000000000               0.000000000               0.000000000               0.000000000               0.000000000               0.000000000               0.000000000               0.000000000               0.000000000               0.000000000               0.000000000               0.000000000               0.000000000               0.000000000               0.000000000               0.000000000               0.000000000               0.000000000               0.000000000               0.000000000               0.000000000               0.000000000               0.000000000               0.000000000               0.000000000               0.000000000               0.000000000               0.000000000               0.000000000               0.000000000               0.000000000               0.000000000               0.000000000               0.000000000               0.000000000               0.000000000               0.000000000               0.000000000               0.000000000               0.000000000               0.000000000               0.000000000               0.000000000               0.000000000               0.000000000               0.000000000               0.000000000               0.000000000               0.000000000               0.000000000               0.000000000               0.000000000               0.000000000               0.000000000               0.000000000               0.000000000               0.000000000               0.000000000               0.000000000               0.000000000               0.000000000               0.000000000               0.000000000               0.000000000               0.000000000               0.000000000               0.000000000               0.000000000               0.000000000               0.000000000               0.000000000               0.000000000               0.000000000               0.000000000               0.000000000               0.000000000               0.000000000               0.000000000               0.000000000               0.000000000               0.000000000               0.000000000               0.000000000               0.000000000               0.000000000               0.000000000               0.000000000               0.000000000               0.000000000               0.000000000               0.000000000               0.000000000               0.000000000               0.000000000               0.000000000               0.000000000               0.000000000               0.000000000               0.000000000               0.000000000               0.000000000               0.000000000               0.000000000               0.000000000               0.000000000               0.000000000               0.000000000               0.000000000               0.000000000               0.000000000               0.000000000               0.000000000               0.000000000               0.000000000               0.000000000               0.000000000               0.000000000               0.000000000               0.000000000               0.000000000               0.000000000               0.000000000               0.000000000               0.000000000               0.000000000               0.000000000               0.000000000               0.000000000               0.000000000               0.000000000               0.000000000               0.000000000               0.000000000               0.000000000               0.000000000               0.000000000               0.000000000               0.000000000               0.000000000               0.000000000               0.000000000               0.000000000               0.000000000               0.000000000               0.000000000               0.000000000               0.000000000               0.000000000               0.000000000               0.000000000               0.000000000               0.000000000               0.000000000               0.000000000               0.000000000               0.000000000               0.000000000               0.000000000               0.000000000               0.000000000               0.000000000               0.000000000               0.000000000               0.000000000               0.000000000               0.000000000               0.000000000               0.000000000               0.000000000               0.000000000               0.000000000               0.000000000               0.000000000               0.000000000               0.000000000               0.000000000               0.000000000               0.000000000               0.000000000               0.000000000               0.000000000               0.000000000               0.000000000               0.000000000               0.000000000               0.000000000               0.000000000               0.000000000               0.000000000               0.000000000               0.000000000               0.000000000               0.000000000               0.000000000               0.000000000               0.000000000               0.000000000               0.000000000               0.000000000               0.000000000               0.000000000               0.000000000               0.000000000               0.000000000               0.000000000               0.000000000               0.000000000               0.000000000               0.000000000               0.000000000               0.000000000               0.000000000               0.000000000               0.000000000               0.000000000               0.000000000               0.000000000               0.000000000               0.000000000               0.000000000               0.000000000               0.000000000               0.000000000               0.000000000               0.000000000               0.000000000               0.000000000               0.000000000               0.000000000               0.000000000               0.000000000               0.000000000               0.000000000               0.000000000               0.000000000               0.000000000               0.000000000               0.000000000               0.000000000               0.000000000               0.000000000               0.000000000               0.000000000               0.000000000               0.000000000               0.000000000               0.000000000               0.000000000               0.000000000               0.000000000               0.000000000               0.000000000               0.000000000               0.000000000               0.000000000               0.000000000               0.000000000               0.000000000               0.000000000               0.000000000               0.000000000               0.000000000               0.000000000               0.000000000               0.000000000               0.000000000               0.000000000               0.000000000               0.000000000               0.000000000               0.000000000               0.000000000               0.000000000               0.000000000               0.000000000               0.000000000               0.000000000               0.000000000               0.000000000               0.000000000               0.000000000               0.000000000               0.000000000               0.000000000               0.000000000               0.000000000               0.000000000               0.000000000               0.000000000               0.000000000               0.000000000               0.000000000               0.000000000               0.000000000               0.000000000               0.000000000               0.000000000               0.000000000               0.000000000               0.000000000               0.000000000               0.000000000               0.000000000               0.000000000               0.000000000               0.000000000               0.000000000               0.000000000               0.000000000               0.000000000               0.000000000               0.000000000               0.000000000               0.000000000               0.000000000               0.000000000               0.000000000               0.000000000               0.002110502               0.021187801               0.001435660              -0.001857032               0.007681541               0.005824508               0.000000000               0.000000000               0.000000000               0.000000000               0.001895621               0.016272156               0.000638220              -0.001323158               0.005865050               0.004541892               0.000000000               0.000000000               0.000000000               0.000000000               0.002312630               0.012301756              -0.000150673              -0.000670481               0.004324038               0.003653557               0.000000000               0.000000000               0.000000000               0.000000000               0.002062236               0.010034987              -0.000476674              -0.000481034               0.003505307               0.003024273               0.000000000               0.000000000               0.000000000               0.000000000               0.001646856               0.008576524              -0.000600622              -0.000454494               0.003010311               0.002555817               0.000000000               0.000000000               0.000000000               0.000000000               0.001230140               0.007532039              -0.000635717              -0.000480201               0.002670722               0.002190520               0.000000000               0.000000000               0.000000000               0.000000000               0.000865377               0.006717848              -0.000633665              -0.000515214               0.002410998               0.001895784               0.000000000               0.000000000               0.000000000               0.000000000               0.000570523               0.006036373              -0.000610570              -0.000540599               0.002192304               0.001651704               0.000000000               0.000000000               0.000000000               0.000000000               0.000345623               0.005425517              -0.000577157              -0.000548580               0.001991347               0.001442768               0.000000000               0.000000000               0.000000000               0.000000000               0.000178304               0.004850416              -0.000542577              -0.000539437               0.001796601               0.001257164               0.000000000               0.000000000               0.000000000               0.000000000               0.000058637               0.004289479              -0.000506783              -0.000514195               0.001601210               0.001087015               0.000000000               0.000000000               0.000000000               0.000000000              -0.000015873               0.003726907              -0.000467993              -0.000471815               0.001399561               0.000927747               0.000000000               0.000000000               0.000000000               0.000000000              -0.000061591               0.003145920              -0.000419995              -0.000416336               0.001187408               0.000771072               0.000000000               0.000000000               0.000000000               0.000000000              -0.000086938               0.002529918              -0.000356314              -0.000348841               0.000959578               0.000610737               0.000000000               0.000000000               0.000000000               0.000000000              -0.000087263               0.001867174              -0.000273610              -0.000266120               0.000711092               0.000444972               0.000000000               0.000000000               0.000000000               0.000000000              -0.000055057               0.001146258              -0.000157262              -0.000163929               0.000436725               0.000272796               0.000000000               0.000000000               0.000000000               0.000000000              -0.000085440               0.000610879              -0.000098438              -0.000108400               0.000239757               0.000131358               0.000000000               0.000000000               0.000000000               0.000000000               0.002243728               0.019855783               0.002643482              -0.001640572               0.007165385               0.005524813               0.000000000               0.000000000               0.000000000               0.000000000               0.001702304               0.015425934               0.001164988              -0.001289875               0.005571885               0.004282010               0.000000000               0.000000000               0.000000000               0.000000000               0.001773009               0.011962905              -0.000279344              -0.000830483               0.004264423               0.003433940               0.000000000               0.000000000               0.000000000               0.000000000               0.001401251               0.009958743              -0.000852287              -0.000719372               0.003559339               0.002839966               0.000000000               0.000000000               0.000000000               0.000000000               0.000973873               0.008640054              -0.001059581              -0.000714803               0.003118257               0.002403454               0.000000000               0.000000000               0.000000000               0.000000000               0.000595281               0.007672059              -0.001109607              -0.000735776               0.002802586               0.002066810               0.000000000               0.000000000               0.000000000               0.000000000               0.000288984               0.006895281              -0.001096605              -0.000753540               0.002549584               0.001796044               0.000000000               0.000000000               0.000000000               0.000000000               0.000063767               0.006229834              -0.001049219              -0.000754815               0.002328196               0.001573380               0.000000000               0.000000000               0.000000000               0.000000000              -0.000090677               0.005629085              -0.000984714              -0.000737638               0.002122222               0.001384584               0.000000000               0.000000000               0.000000000               0.000000000              -0.000190581               0.005062958              -0.000918309              -0.000704336               0.001922414               0.001218078               0.000000000               0.000000000               0.000000000               0.000000000              -0.000241596               0.004511775              -0.000850139              -0.000654569               0.001722100               0.001067530               0.000000000               0.000000000               0.000000000               0.000000000              -0.000251324               0.003963028              -0.000777245              -0.000589624               0.001517537               0.000927914               0.000000000               0.000000000               0.000000000               0.000000000              -0.000235672               0.003409600              -0.000690718              -0.000514576               0.001308047               0.000793471               0.000000000               0.000000000               0.000000000               0.000000000              -0.000200801               0.002850659              -0.000580143              -0.000431632               0.001094087               0.000662455               0.000000000               0.000000000               0.000000000               0.000000000              -0.000149362               0.002288697              -0.000439013              -0.000342097               0.000876924               0.000534827               0.000000000               0.000000000               0.000000000               0.000000000              -0.000082250               0.001727130              -0.000248940              -0.000246734               0.000657949               0.000411215               0.000000000               0.000000000               0.000000000               0.000000000              -0.000084156               0.001340662              -0.000153462              -0.000199141               0.000513263               0.000314122               0.000000000               0.000000000               0.000000000               0.000000000               0.002336876               0.017835165               0.003469096              -0.001353066               0.006396017               0.005042951               0.000000000               0.000000000               0.000000000               0.000000000               0.001336206               0.014172049               0.001516022              -0.001270426               0.005147444               0.003877018               0.000000000               0.000000000               0.000000000               0.000000000               0.000925365               0.011472249              -0.000359758              -0.001087017               0.004186384               0.003099367               0.000000000               0.000000000               0.000000000               0.000000000               0.000424130               0.009838394              -0.001056319              -0.001070748               0.003636348               0.002565600               0.000000000               0.000000000               0.000000000               0.000000000               0.000016039               0.008704574              -0.001287692              -0.001082055               0.003262181               0.002180125               0.000000000               0.000000000               0.000000000               0.000000000              -0.000277395               0.007829215              -0.001326951              -0.001082673               0.002970603               0.001887930               0.000000000               0.000000000               0.000000000               0.000000000              -0.000478100               0.007096159              -0.001291560              -0.001066305               0.002720798               0.001654492               0.000000000               0.000000000               0.000000000               0.000000000              -0.000601132               0.006445207              -0.001221433              -0.001031073               0.002492072               0.001460998               0.000000000               0.000000000               0.000000000               0.000000000              -0.000650243               0.005850255              -0.001135652              -0.000975121               0.002275105               0.001299985               0.000000000               0.000000000               0.000000000               0.000000000              -0.000642851               0.005288726              -0.001048077              -0.000902158               0.002063610               0.001161452               0.000000000               0.000000000               0.000000000               0.000000000              -0.000595055               0.004747341              -0.000956349              -0.000816562               0.001854618               0.001038057               0.000000000               0.000000000               0.000000000               0.000000000              -0.000519489               0.004220003              -0.000857252              -0.000722307               0.001647423               0.000925115               0.000000000               0.000000000               0.000000000               0.000000000              -0.000430871               0.003708672              -0.000744696              -0.000625159               0.001444598               0.000819439               0.000000000               0.000000000               0.000000000               0.000000000              -0.000331642               0.003222048              -0.000610030              -0.000527121               0.001249712               0.000722591               0.000000000               0.000000000               0.000000000               0.000000000              -0.000221666               0.002772265              -0.000447967              -0.000429657               0.001067298               0.000637641               0.000000000               0.000000000               0.000000000               0.000000000              -0.000110569               0.002372191              -0.000245954              -0.000337986               0.000903384               0.000565398               0.000000000               0.000000000               0.000000000               0.000000000              -0.000082365               0.002126526              -0.000147073              -0.000296702               0.000807735               0.000511033               0.000000000               0.000000000               0.000000000               0.000000000               0.002258812               0.015377001               0.003828379              -0.001075071               0.005483972               0.004408901               0.000000000               0.000000000               0.000000000               0.000000000               0.000780958               0.012683450               0.001675872              -0.001292570               0.004658631               0.003366061               0.000000000               0.000000000               0.000000000               0.000000000              -0.000131535               0.010896730              -0.000350158              -0.001411413               0.004102678               0.002691265               0.000000000               0.000000000               0.000000000               0.000000000              -0.000706963               0.009667226              -0.001045047              -0.001473511               0.003713547               0.002240036               0.000000000               0.000000000               0.000000000               0.000000000              -0.001030648               0.008718928              -0.001249568              -0.001476356               0.003398398               0.001922043               0.000000000               0.000000000               0.000000000               0.000000000              -0.001195684               0.007922147              -0.001262867              -0.001438646               0.003120238               0.001681591               0.000000000               0.000000000               0.000000000               0.000000000              -0.001250765               0.007222717              -0.001207199              -0.001371873               0.002864839               0.001492966               0.000000000               0.000000000               0.000000000               0.000000000              -0.001229953               0.006581015              -0.001128486              -0.001283856               0.002621602               0.001337745               0.000000000               0.000000000               0.000000000               0.000000000              -0.001151614               0.005987538              -0.001040919              -0.001180295               0.002389257               0.001208963               0.000000000               0.000000000               0.000000000               0.000000000              -0.001031690               0.005432019              -0.000949129              -0.001065884               0.002165949               0.001100066               0.000000000               0.000000000               0.000000000               0.000000000              -0.000890828               0.004904639              -0.000851135              -0.000947138               0.001950576               0.001003438               0.000000000               0.000000000               0.000000000               0.000000000              -0.000736811               0.004411330              -0.000746353              -0.000827718               0.001746335               0.000918616               0.000000000               0.000000000               0.000000000               0.000000000              -0.000575895               0.003956801              -0.000632433              -0.000710559               0.001555773               0.000845214               0.000000000               0.000000000               0.000000000               0.000000000              -0.000418718               0.003548349              -0.000503504              -0.000600561               0.001382958               0.000782397               0.000000000               0.000000000               0.000000000               0.000000000              -0.000265384               0.003202922              -0.000356540              -0.000499883               0.001234258               0.000734375               0.000000000               0.000000000               0.000000000               0.000000000              -0.000126609               0.002937177              -0.000187781              -0.000414624               0.001117257               0.000702633               0.000000000               0.000000000               0.000000000               0.000000000              -0.000078484               0.002799162              -0.000107182              -0.000379326               0.001059487               0.000680161               0.000000000               0.000000000               0.000000000               0.000000000               0.001872798               0.012725640               0.003735925              -0.000888407               0.004537972               0.003649566               0.000000000               0.000000000               0.000000000               0.000000000               0.000033864               0.011118726               0.001684722              -0.001377139               0.004165251               0.002788112               0.000000000               0.000000000               0.000000000               0.000000000              -0.001266876               0.010281062              -0.000214105              -0.001760207               0.004013722               0.002253515               0.000000000               0.000000000               0.000000000               0.000000000              -0.001813673               0.009426296              -0.000812181              -0.001858410               0.003761537               0.001903127               0.000000000               0.000000000               0.000000000               0.000000000              -0.001987160               0.008629354              -0.000964478              -0.001823850               0.003484372               0.001660522               0.000000000               0.000000000               0.000000000               0.000000000              -0.001979126               0.007891614              -0.000961948              -0.001728620               0.003206718               0.001478098               0.000000000               0.000000000               0.000000000               0.000000000              -0.001865580               0.007211041              -0.000912012              -0.001600969               0.002937312               0.001336344               0.000000000               0.000000000               0.000000000               0.000000000              -0.001686760               0.006577738              -0.000848420              -0.001454749               0.002677474               0.001222725               0.000000000               0.000000000               0.000000000               0.000000000              -0.001475109               0.005992767              -0.000782301              -0.001302259               0.002431655               0.001129397               0.000000000               0.000000000               0.000000000               0.000000000              -0.001250193               0.005456872              -0.000707431              -0.001150929               0.002202582               0.001051653               0.000000000               0.000000000               0.000000000               0.000000000              -0.001022281               0.004964138              -0.000626583              -0.001003870               0.001989319               0.000985449               0.000000000               0.000000000               0.000000000               0.000000000              -0.000801161               0.004522686              -0.000541717              -0.000865769               0.001796136               0.000930367               0.000000000               0.000000000               0.000000000               0.000000000              -0.000591291               0.004135977              -0.000446945              -0.000738730               0.001624888               0.000886159               0.000000000               0.000000000               0.000000000               0.000000000              -0.000398997               0.003814151              -0.000343886              -0.000626391               0.001480168               0.000853777               0.000000000               0.000000000               0.000000000               0.000000000              -0.000230361               0.003573474              -0.000232773              -0.000533068               0.001368835               0.000835767               0.000000000               0.000000000               0.000000000               0.000000000              -0.000099743               0.003428350              -0.000116481              -0.000465946               0.001298087               0.000832141               0.000000000               0.000000000               0.000000000               0.000000000              -0.000047509               0.003384278              -0.000058951              -0.000440850               0.001275031               0.000834182               0.000000000               0.000000000               0.000000000               0.000000000               0.001123772               0.010102412               0.003278299              -0.000841388               0.003647899               0.002806511               0.000000000               0.000000000               0.000000000               0.000000000              -0.000861172               0.009602568               0.001599281              -0.001523258               0.003708576               0.002185318               0.000000000               0.000000000               0.000000000               0.000000000              -0.002360472               0.009642824               0.000056187              -0.002090525               0.003911084               0.001820559               0.000000000               0.000000000               0.000000000               0.000000000              -0.002761327               0.009090386              -0.000398025              -0.002171790               0.003754028               0.001582238               0.000000000               0.000000000               0.000000000               0.000000000              -0.002729817               0.008410858              -0.000516678              -0.002075033               0.003495269               0.001420236               0.000000000               0.000000000               0.000000000               0.000000000              -0.002521525               0.007725040              -0.000528479              -0.001911197               0.003212053               0.001300856               0.000000000               0.000000000               0.000000000               0.000000000              -0.002236648               0.007067873              -0.000509212              -0.001722223               0.002930008               0.001207785               0.000000000               0.000000000               0.000000000               0.000000000              -0.001912287               0.006453342              -0.000480898              -0.001523772               0.002659016               0.001135245               0.000000000               0.000000000               0.000000000               0.000000000              -0.001577960               0.005891950              -0.000454386              -0.001328225               0.002406705               0.001078480               0.000000000               0.000000000               0.000000000               0.000000000              -0.001256349               0.005389504              -0.000416789              -0.001144816               0.002178089               0.001033273               0.000000000               0.000000000               0.000000000               0.000000000              -0.000955035               0.004946981              -0.000367694              -0.000976508               0.001974480               0.000997972               0.000000000               0.000000000               0.000000000               0.000000000              -0.000680652               0.004571182              -0.000311572              -0.000826640               0.001799259               0.000972619               0.000000000               0.000000000               0.000000000               0.000000000              -0.000441749               0.004265939              -0.000243065              -0.000698896               0.001654931               0.000956034               0.000000000               0.000000000               0.000000000               0.000000000              -0.000245062               0.004040253              -0.000167978              -0.000596928               0.001545714               0.000948785               0.000000000               0.000000000               0.000000000               0.000000000              -0.000102614               0.003898711              -0.000093405              -0.000525818               0.001474830               0.000949012               0.000000000               0.000000000               0.000000000               0.000000000              -0.000025123               0.003845940              -0.000033952              -0.000490162               0.001445355               0.000955192               0.000000000               0.000000000               0.000000000               0.000000000               0.000003496               0.003857783              -0.000006420              -0.000480911               0.001446218               0.000965308               0.000000000               0.000000000               0.000000000               0.000000000               0.000061750               0.007687083               0.002562680              -0.000937729               0.002874911               0.001937182               0.000000000               0.000000000               0.000000000               0.000000000              -0.001840780               0.008220877               0.001470284              -0.001717898               0.003312897               0.001594999               0.000000000               0.000000000               0.000000000               0.000000000              -0.003301007               0.008970693               0.000446104              -0.002359208               0.003776604               0.001417395               0.000000000               0.000000000               0.000000000               0.000000000              -0.003454076               0.008652253               0.000119468              -0.002376804               0.003676324               0.001299519               0.000000000               0.000000000               0.000000000               0.000000000              -0.003192035               0.008074159              -0.000005994              -0.002206278               0.003426785               0.001220508               0.000000000               0.000000000               0.000000000               0.000000000              -0.002795618               0.007439859              -0.000059496              -0.001978334               0.003139373               0.001161039               0.000000000               0.000000000               0.000000000               0.000000000              -0.002355827               0.006820069              -0.000087153              -0.001735939               0.002851980               0.001116041               0.000000000               0.000000000               0.000000000               0.000000000              -0.001901897               0.006241968              -0.000106079              -0.001493454               0.002578453               0.001085000               0.000000000               0.000000000               0.000000000               0.000000000              -0.001464713               0.005725073              -0.000127891              -0.001264898               0.002329971               0.001065073               0.000000000               0.000000000               0.000000000               0.000000000              -0.001065945               0.005273519              -0.000135917              -0.001058917               0.002110794               0.001051878               0.000000000               0.000000000               0.000000000               0.000000000              -0.000713096               0.004898738              -0.000124731              -0.000879751               0.001926147               0.001046396               0.000000000               0.000000000               0.000000000               0.000000000              -0.000416409               0.004603303              -0.000100306              -0.000731564               0.001778274               0.001046709               0.000000000               0.000000000               0.000000000               0.000000000              -0.000184594               0.004390796              -0.000061985              -0.000618071               0.001669607               0.001051537               0.000000000               0.000000000               0.000000000               0.000000000              -0.000023309               0.004266459              -0.000019975              -0.000542047               0.001602821               0.001060774               0.000000000               0.000000000               0.000000000               0.000000000               0.000058104               0.004224199               0.000012663              -0.000506235               0.001576797               0.001070563               0.000000000               0.000000000               0.000000000               0.000000000               0.000059362               0.004250020               0.000022276              -0.000508990               0.001586323               0.001077332               0.000000000               0.000000000               0.000000000               0.000000000               0.000045081               0.004294807               0.000024724              -0.000519944               0.001604903               0.001084958               0.000000000               0.000000000               0.000000000               0.000000000              -0.001184560               0.005658832               0.001707554              -0.001151562               0.002270112               0.001118550               0.000000000               0.000000000               0.000000000               0.000000000              -0.002799184               0.006983973               0.001337473              -0.001922686               0.002968863               0.001046177               0.000000000               0.000000000               0.000000000               0.000000000              -0.004044502               0.008282066               0.000912180              -0.002551940               0.003611308               0.001059367               0.000000000               0.000000000               0.000000000               0.000000000              -0.003934477               0.008206113               0.000665316              -0.002501187               0.003569073               0.001067886               0.000000000               0.000000000               0.000000000               0.000000000              -0.003476024               0.007753859               0.000508062              -0.002272736               0.003342173               0.001069437               0.000000000               0.000000000               0.000000000               0.000000000              -0.002928853               0.007200627               0.000399283              -0.001998393               0.003066316               0.001067923               0.000000000               0.000000000               0.000000000               0.000000000              -0.002371945               0.006639468               0.000316905              -0.001719409               0.002786270               0.001066861               0.000000000               0.000000000               0.000000000               0.000000000              -0.001819521               0.006119082               0.000246637              -0.001447202               0.002522074               0.001074872               0.000000000               0.000000000               0.000000000               0.000000000              -0.001300346               0.005661266               0.000178885              -0.001195285               0.002285498               0.001090213               0.000000000               0.000000000               0.000000000               0.000000000              -0.000843930               0.005265967               0.000123389              -0.000974717               0.002080211               0.001105493               0.000000000               0.000000000               0.000000000               0.000000000              -0.000457662               0.004947302               0.000087517              -0.000790034               0.001912429               0.001122395               0.000000000               0.000000000               0.000000000               0.000000000              -0.000150526               0.004708600               0.000069373              -0.000645021               0.001784525               0.001139504               0.000000000               0.000000000               0.000000000               0.000000000               0.000074797               0.004558747               0.000062162              -0.000541793               0.001700165               0.001158372               0.000000000               0.000000000               0.000000000               0.000000000               0.000211286               0.004502131               0.000055139              -0.000483533               0.001661873               0.001178340               0.000000000               0.000000000               0.000000000               0.000000000               0.000253687               0.004533256               0.000042560              -0.000471523               0.001668245               0.001196722               0.000000000               0.000000000               0.000000000               0.000000000               0.000219047               0.004631187               0.000023534              -0.000496755               0.001709298               0.001212544               0.000000000               0.000000000               0.000000000               0.000000000               0.000175007               0.004700626               0.000012295              -0.000521949               0.001740843               0.001218893               0.000000000               0.000000000               0.000000000               0.000000000              -0.002624242               0.003784795               0.000817428              -0.001457187               0.001747314               0.000290127               0.000000000               0.000000000               0.000000000               0.000000000              -0.003612681               0.005544341               0.001192251              -0.002047793               0.002530693               0.000482899               0.000000000               0.000000000               0.000000000               0.000000000              -0.004504849               0.007231403               0.001393971              -0.002593237               0.003274856               0.000681618               0.000000000               0.000000000               0.000000000               0.000000000              -0.004250238               0.007514071               0.001236396              -0.002533092               0.003349029               0.000815937               0.000000000               0.000000000               0.000000000               0.000000000              -0.003713305               0.007320371               0.001048463              -0.002307530               0.003209276               0.000901746               0.000000000               0.000000000               0.000000000               0.000000000              -0.003111695               0.006962507               0.000885098              -0.002037194               0.002999877               0.000962683               0.000000000               0.000000000               0.000000000               0.000000000              -0.002516382               0.006551846               0.000750174              -0.001762620               0.002771467               0.001008847               0.000000000               0.000000000               0.000000000               0.000000000              -0.001937766               0.006145737               0.000634999              -0.001494876               0.002546850               0.001051975               0.000000000               0.000000000               0.000000000               0.000000000              -0.001384963               0.005776497               0.000527790              -0.001241420               0.002339287               0.001097866               0.000000000               0.000000000               0.000000000               0.000000000              -0.000888719               0.005458174               0.000425218              -0.001015539               0.002157886               0.001142347               0.000000000               0.000000000               0.000000000               0.000000000              -0.000462350               0.005192670               0.000335732              -0.000822463               0.002005027               0.001182564               0.000000000               0.000000000               0.000000000               0.000000000              -0.000111608               0.004983499               0.000264689              -0.000664789               0.001882746               0.001217957               0.000000000               0.000000000               0.000000000               0.000000000               0.000160185               0.004837508               0.000203088              -0.000544618               0.001794026               0.001249408               0.000000000               0.000000000               0.000000000               0.000000000               0.000348214               0.004767185               0.000138612              -0.000465317               0.001744151               0.001278834               0.000000000               0.000000000               0.000000000               0.000000000               0.000449105               0.004775715               0.000076174              -0.000428549               0.001734739               0.001306190               0.000000000               0.000000000               0.000000000               0.000000000               0.000473541               0.004860158               0.000029010              -0.000429941               0.001763350               0.001333409               0.000000000               0.000000000               0.000000000               0.000000000               0.000448376               0.004912317               0.000004300              -0.000445898               0.001786055               0.001340158               0.000000000               0.000000000               0.000000000               0.000000000              -0.004445214               0.002091738              -0.000040616              -0.001928419               0.001340043              -0.000588376               0.000000000               0.000000000               0.000000000               0.000000000              -0.004531827               0.004084482               0.000989686              -0.002209991               0.002098143              -0.000111848               0.000000000               0.000000000               0.000000000               0.000000000              -0.004882877               0.005966496               0.001780536              -0.002576885               0.002847773               0.000270888               0.000000000               0.000000000               0.000000000               0.000000000              -0.004494077               0.006591112               0.001775165              -0.002509162               0.003033402               0.000524240               0.000000000               0.000000000               0.000000000               0.000000000              -0.003913651               0.006699575               0.001593616              -0.002305061               0.003001522               0.000696462               0.000000000               0.000000000               0.000000000               0.000000000              -0.003292606               0.006577126               0.001395666              -0.002056863               0.002877974               0.000821111               0.000000000               0.000000000               0.000000000               0.000000000              -0.002678828               0.006353199               0.001219141              -0.001798706               0.002717280               0.000918574               0.000000000               0.000000000               0.000000000               0.000000000              -0.002085684               0.006092180               0.001066357              -0.001543650               0.002545256               0.001001606               0.000000000               0.000000000               0.000000000               0.000000000              -0.001514463               0.005830321               0.000924077              -0.001296711               0.002375658               0.001078947               0.000000000               0.000000000               0.000000000               0.000000000              -0.000982941               0.005583655               0.000783388              -0.001066557               0.002216719               0.001150161               0.000000000               0.000000000               0.000000000               0.000000000              -0.000506670               0.005368599               0.000651232              -0.000861074               0.002076540               0.001215466               0.000000000               0.000000000               0.000000000               0.000000000              -0.000096819               0.005190489               0.000530268              -0.000685117               0.001958518               0.001273401               0.000000000               0.000000000               0.000000000               0.000000000               0.000239093               0.005052442               0.000413815              -0.000541894               0.001864762               0.001322868               0.000000000               0.000000000               0.000000000               0.000000000               0.000500388               0.004959803               0.000295318              -0.000432329               0.001797361               0.001365032               0.000000000               0.000000000               0.000000000               0.000000000               0.000686665               0.004921221               0.000180775              -0.000357652               0.001759608               0.001401956               0.000000000               0.000000000               0.000000000               0.000000000               0.000788499               0.004940976               0.000079368              -0.000321934               0.001754287               0.001432353               0.000000000               0.000000000               0.000000000               0.000000000               0.000804789               0.004957273               0.000030138              -0.000317862               0.001758362               0.001440500               0.000000000               0.000000000               0.000000000               0.000000000              -0.006518321               0.000720510              -0.000782196              -0.002534432               0.001084973              -0.001449459               0.000000000               0.000000000               0.000000000               0.000000000              -0.005589063               0.002696727               0.000722496              -0.002432986               0.001709892              -0.000723093               0.000000000               0.000000000               0.000000000               0.000000000              -0.005199394               0.004506826               0.001972784              -0.002513121               0.002339966              -0.000173155               0.000000000               0.000000000               0.000000000               0.000000000              -0.004589378               0.005368080               0.002151506              -0.002392021               0.002586682               0.000194660               0.000000000               0.000000000               0.000000000               0.000000000              -0.003942582               0.005749136               0.002025422              -0.002197105               0.002648727               0.000451622               0.000000000               0.000000000               0.000000000               0.000000000              -0.003307985               0.005868374               0.001828942              -0.001974037               0.002614117               0.000640080               0.000000000               0.000000000               0.000000000               0.000000000              -0.002689714               0.005849805               0.001635717              -0.001739865               0.002529870               0.000790005               0.000000000               0.000000000               0.000000000               0.000000000              -0.002094069               0.005765047               0.001458130              -0.001505903               0.002423631               0.000917727               0.000000000               0.000000000               0.000000000               0.000000000              -0.001520239               0.005637317               0.001294026              -0.001274752               0.002304004               0.001029252               0.000000000               0.000000000               0.000000000               0.000000000              -0.000965701               0.005489729               0.001136187              -0.001048352               0.002179342               0.001130990               0.000000000               0.000000000               0.000000000               0.000000000              -0.000449001               0.005351305               0.000981137              -0.000837287               0.002062846               0.001225559               0.000000000               0.000000000               0.000000000               0.000000000               0.000010098               0.005231319               0.000825635              -0.000650127               0.001960464               0.001310338               0.000000000               0.000000000               0.000000000               0.000000000               0.000403587               0.005133310               0.000668340              -0.000490317               0.001874525               0.001384208               0.000000000               0.000000000               0.000000000               0.000000000               0.000732280               0.005053530               0.000507921              -0.000357085               0.001803521               0.001446436               0.000000000               0.000000000               0.000000000               0.000000000               0.000989093               0.005003079               0.000339317              -0.000254474               0.001752501               0.001498027               0.000000000               0.000000000               0.000000000               0.000000000               0.001153907               0.004988306               0.000165724              -0.000190823               0.001726360               0.001535537               0.000000000               0.000000000               0.000000000               0.000000000               0.001207660               0.004988992               0.000081113              -0.000170751               0.001719898               0.001549147               0.000000000               0.000000000               0.000000000               0.000000000              -0.008694569              -0.000258193              -0.001285685              -0.003228187               0.000989991              -0.002238196               0.000000000               0.000000000               0.000000000               0.000000000              -0.006715318               0.001462173               0.000436674              -0.002701012               0.001387719              -0.001313294               0.000000000               0.000000000               0.000000000               0.000000000              -0.005477892               0.002984417               0.001940064              -0.002427257               0.001803879              -0.000623379               0.000000000               0.000000000               0.000000000               0.000000000              -0.004565464               0.003955169               0.002280444              -0.002206441               0.002053855              -0.000152585               0.000000000               0.000000000               0.000000000               0.000000000              -0.003812416               0.004543523               0.002237135              -0.001997592               0.002180355               0.000182763               0.000000000               0.000000000               0.000000000               0.000000000              -0.003149195               0.004883340               0.002076666              -0.001791362               0.002224884               0.000433522               0.000000000               0.000000000               0.000000000               0.000000000              -0.002537657               0.005069223               0.001892344              -0.001585271               0.002218147               0.000632876               0.000000000               0.000000000               0.000000000               0.000000000              -0.001953523               0.005160405               0.001713632              -0.001377619               0.002179323               0.000801705               0.000000000               0.000000000               0.000000000               0.000000000              -0.001384215               0.005188879               0.001548533              -0.001167688               0.002118838               0.000951150               0.000000000               0.000000000               0.000000000               0.000000000              -0.000823470               0.005179814               0.001388165              -0.000956276               0.002045346               0.001089069               0.000000000               0.000000000               0.000000000               0.000000000              -0.000287325               0.005148193               0.001224945              -0.000751270               0.001966470               0.001215200               0.000000000               0.000000000               0.000000000               0.000000000               0.000213913               0.005111121               0.001059490              -0.000558672               0.001889914               0.001331242               0.000000000               0.000000000               0.000000000               0.000000000               0.000673010               0.005075749               0.000893236              -0.000382089               0.001819263               0.001437173               0.000000000               0.000000000               0.000000000               0.000000000               0.001081725               0.005040305               0.000717437              -0.000224391               0.001754882               0.001530491               0.000000000               0.000000000               0.000000000               0.000000000               0.001426500               0.005010665               0.000511461              -0.000091396               0.001700670               0.001609274               0.000000000               0.000000000               0.000000000               0.000000000               0.001683353               0.004997233               0.000268203               0.000006603               0.001663527               0.001670130               0.000000000               0.000000000               0.000000000               0.000000000               0.001797512               0.005001979               0.000143113               0.000048819               0.001651037               0.001699856               0.000000000               0.000000000               0.000000000               0.000000000              -0.010764411              -0.000865452              -0.001454198              -0.003928470               0.001020999              -0.002907471               0.000000000               0.000000000               0.000000000               0.000000000              -0.007817287               0.000460882               0.000191236              -0.002989090               0.001149983              -0.001839107               0.000000000               0.000000000               0.000000000               0.000000000              -0.005722416               0.001565744               0.001680110              -0.002341621               0.001302446              -0.001039175               0.000000000               0.000000000               0.000000000               0.000000000              -0.004466031               0.002523513               0.002104400              -0.001990198               0.001504559              -0.000485638               0.000000000               0.000000000               0.000000000               0.000000000              -0.003575821               0.003237194               0.002138884              -0.001745579               0.001660912              -0.000084667               0.000000000               0.000000000               0.000000000               0.000000000              -0.002868463               0.003749350               0.002031578              -0.001544339               0.001764550               0.000220210               0.000000000               0.000000000               0.000000000               0.000000000              -0.002259097               0.004111678               0.001881517              -0.001361119               0.001824251               0.000463133               0.000000000               0.000000000               0.000000000               0.000000000              -0.001687619               0.004367976               0.001730225              -0.001178852               0.001848928               0.000670075               0.000000000               0.000000000               0.000000000               0.000000000              -0.001131095               0.004553871               0.001586689              -0.000993393               0.001849072               0.000855679               0.000000000               0.000000000               0.000000000               0.000000000              -0.000581844               0.004694818               0.001438365              -0.000805043               0.001833271               0.001028228               0.000000000               0.000000000               0.000000000               0.000000000              -0.000037459               0.004796593               0.001284942              -0.000613620               0.001803388               0.001189768               0.000000000               0.000000000               0.000000000               0.000000000               0.000500097               0.004864857               0.001134939              -0.000420570               0.001761793               0.001341223               0.000000000               0.000000000               0.000000000               0.000000000               0.001025331               0.004915080               0.000984631              -0.000229886               0.001714972               0.001485086               0.000000000               0.000000000               0.000000000               0.000000000               0.001524996               0.004948240               0.000820749              -0.000046657               0.001664949               0.001618292               0.000000000               0.000000000               0.000000000               0.000000000               0.001991144               0.004968019               0.000614676               0.000125675               0.001614098               0.001739773               0.000000000               0.000000000               0.000000000               0.000000000               0.002404787               0.004985694               0.000340125               0.000278581               0.001569021               0.001847602               0.000000000               0.000000000               0.000000000               0.000000000               0.002643806               0.005014002               0.000195012               0.000364673               0.001549760               0.001914433               0.000000000               0.000000000               0.000000000               0.000000000              -0.012481750              -0.001162346              -0.001256655              -0.004535360               0.001124330              -0.003411030               0.000000000               0.000000000               0.000000000               0.000000000              -0.008763976              -0.000252654               0.000031588              -0.003254907               0.001000744              -0.002254163               0.000000000               0.000000000               0.000000000               0.000000000              -0.005928097               0.000412232               0.001228889              -0.002274563               0.000895592              -0.001378971               0.000000000               0.000000000               0.000000000               0.000000000              -0.004343900               0.001281765               0.001618166              -0.001789181               0.001023641              -0.000765540               0.000000000               0.000000000               0.000000000               0.000000000              -0.003313815               0.002053595               0.001689964              -0.001499378               0.001184315              -0.000315062               0.000000000               0.000000000               0.000000000               0.000000000              -0.002553018               0.002674265               0.001633098              -0.001291662               0.001321966               0.000030304               0.000000000               0.000000000               0.000000000               0.000000000              -0.001930907               0.003162902               0.001534827              -0.001119451               0.001427440               0.000307989               0.000000000               0.000000000               0.000000000               0.000000000              -0.001368630               0.003556363               0.001431520              -0.000957780               0.001504702               0.000546922               0.000000000               0.000000000               0.000000000               0.000000000              -0.000831783               0.003882035               0.001325577              -0.000797172               0.001559722               0.000762551               0.000000000               0.000000000               0.000000000               0.000000000              -0.000301673               0.004149197               0.001212661              -0.000631776               0.001593644               0.000961868               0.000000000               0.000000000               0.000000000               0.000000000               0.000242830               0.004369501               0.001095360              -0.000455126               0.001608194               0.001153068               0.000000000               0.000000000               0.000000000               0.000000000               0.000804804               0.004551733               0.000978492              -0.000267165               0.001606284               0.001339119               0.000000000               0.000000000               0.000000000               0.000000000               0.001382287               0.004698320               0.000861252              -0.000068933               0.001589068               0.001520135               0.000000000               0.000000000               0.000000000               0.000000000               0.001975429               0.004812080               0.000733821               0.000139274               0.001557586               0.001696860               0.000000000               0.000000000               0.000000000               0.000000000               0.002582589               0.004900130               0.000566844               0.000355951               0.001514710               0.001870661               0.000000000               0.000000000               0.000000000               0.000000000               0.003200045               0.004961087               0.000322269               0.000579875               0.001460387               0.002040263               0.000000000               0.000000000               0.000000000               0.000000000               0.003623413               0.005024976               0.000192921               0.000730651               0.001431425               0.002162076               0.000000000               0.000000000               0.000000000               0.000000000              -0.013627046              -0.001263256              -0.000726546              -0.004952232               0.001229650              -0.003722582               0.000000000               0.000000000               0.000000000               0.000000000              -0.009412014              -0.000666268              -0.000021249              -0.003446219               0.000926644              -0.002519575               0.000000000               0.000000000               0.000000000               0.000000000              -0.006076752              -0.000335209               0.000645336              -0.002236879               0.000633885              -0.001602994               0.000000000               0.000000000               0.000000000               0.000000000              -0.004250844               0.000438552               0.000878997              -0.001648884               0.000695807              -0.000953077               0.000000000               0.000000000               0.000000000               0.000000000              -0.003114010               0.001219843               0.000934662              -0.001320232               0.000846685              -0.000473547               0.000000000               0.000000000               0.000000000               0.000000000              -0.002309770               0.001891821               0.000912172              -0.001102639               0.000998146              -0.000104493               0.000000000               0.000000000               0.000000000               0.000000000              -0.001669673               0.002457932               0.000865629              -0.000933367               0.001130424               0.000197058               0.000000000               0.000000000               0.000000000               0.000000000              -0.001113723               0.002942113               0.000814883              -0.000785409               0.001242497               0.000457088               0.000000000               0.000000000               0.000000000               0.000000000              -0.000593400               0.003361467               0.000758206              -0.000642707               0.001334713               0.000692006               0.000000000               0.000000000               0.000000000               0.000000000              -0.000074485               0.003717861               0.000699046              -0.000492664               0.001403496               0.000910832               0.000000000               0.000000000               0.000000000               0.000000000               0.000466020               0.004019032               0.000637632              -0.000327621               0.001448871               0.001121250               0.000000000               0.000000000               0.000000000               0.000000000               0.001041990               0.004276593               0.000572687              -0.000143828               0.001473459               0.001329631               0.000000000               0.000000000               0.000000000               0.000000000               0.001658780               0.004493963               0.000508170               0.000060296               0.001477874               0.001538170               0.000000000               0.000000000               0.000000000               0.000000000               0.002322294               0.004676887               0.000437903               0.000286246               0.001463531               0.001749778               0.000000000               0.000000000               0.000000000               0.000000000               0.003041529               0.004826935               0.000340479               0.000537201               0.001429895               0.001967096               0.000000000               0.000000000               0.000000000               0.000000000               0.003836445               0.004929616               0.000194134               0.000822457               0.001369037               0.002191493               0.000000000               0.000000000               0.000000000               0.000000000               0.004429793               0.005027682               0.000118779               0.001032702               0.001331643               0.002364345               0.000000000               0.000000000               0.000000000               0.000000000               0.000000000               0.000000000               0.000000000               0.000000000               0.000000000               0.000000000               0.000000000               0.000000000               0.000000000               0.000000000               0.000000000               0.000000000               0.000000000               0.000000000               0.000000000               0.000000000               0.000000000               0.000000000               0.000000000               0.000000000               0.000000000               0.000000000               0.000000000               0.000000000               0.000000000               0.000000000               0.000000000               0.000000000               0.000000000               0.000000000               0.000000000               0.000000000               0.000000000               0.000000000               0.000000000               0.000000000               0.000000000               0.000000000               0.000000000               0.000000000               0.000000000               0.000000000               0.000000000               0.000000000               0.000000000               0.000000000               0.000000000               0.000000000               0.000000000               0.000000000               0.000000000               0.000000000               0.000000000               0.000000000               0.000000000               0.000000000               0.000000000               0.000000000               0.000000000               0.000000000               0.000000000               0.000000000               0.000000000               0.000000000               0.000000000               0.000000000               0.000000000               0.000000000               0.000000000               0.000000000               0.000000000               0.000000000               0.000000000               0.000000000               0.000000000               0.000000000               0.000000000               0.000000000               0.000000000               0.000000000               0.000000000               0.000000000               0.000000000               0.000000000               0.000000000               0.000000000               0.000000000               0.000000000               0.000000000               0.000000000               0.000000000               0.000000000               0.000000000               0.000000000               0.000000000               0.000000000               0.000000000               0.000000000               0.000000000               0.000000000               0.000000000               0.000000000               0.000000000               0.000000000               0.000000000               0.000000000               0.000000000               0.000000000               0.000000000               0.000000000               0.000000000               0.000000000               0.000000000               0.000000000               0.000000000               0.000000000               0.000000000               0.000000000               0.000000000               0.000000000               0.000000000               0.000000000               0.000000000               0.000000000               0.000000000               0.000000000               0.000000000               0.000000000               0.000000000               0.000000000               0.000000000               0.000000000               0.000000000               0.000000000               0.000000000               0.000000000               0.000000000               0.000000000               0.000000000               0.000000000               0.000000000               0.000000000               0.000000000               0.000000000               0.000000000               0.000000000               0.000000000               0.000000000               0.000000000               0.000000000               0.000000000               0.000000000               0.000000000               0.000000000               0.000000000               0.000000000               0.000000000               0.000000000               0.000000000               0.000000000               0.000000000               0.000000000               0.000000000               0.000000000               0.000000000               0.000000000               0.000000000               0.000000000               0.000000000               0.000000000 </DataArray>
</PointData>
</Piece>
</UnstructuredGrid> </VTKFile>
