<?xml version="1.0"?>
<VTKFile type="UnstructuredGrid" version="0.1">
<UnstructuredGrid>
<Piece NumberOfPoints="      1156" NumberOfCells="      1024">
<Points>
<DataArray type="Float64"                                    Name="coordinates"                                                      NumberOfComponents=" 3" format="ascii">
              0.133000000               0.000000000               0.000000000               0.155937500               0.000000000               0.000000000               0.178875000               0.000000000               0.000000000               0.201812500               0.000000000               0.000000000               0.224750000               0.000000000               0.000000000               0.247687500               0.000000000               0.000000000               0.270625000               0.000000000               0.000000000               0.293562500               0.000000000               0.000000000               0.316500000               0.000000000               0.000000000               0.339437500               0.000000000               0.000000000               0.362375000               0.000000000               0.000000000               0.385312500               0.000000000               0.000000000               0.408250000               0.000000000               0.000000000               0.431187500               0.000000000               0.000000000               0.454125000               0.000000000               0.000000000               0.477062500               0.000000000               0.000000000               0.500000000               0.000000000               0.000000000               0.132359569               0.013036280               0.000000000               0.155337096               0.016127762               0.000000000               0.178314623               0.019219245               0.000000000               0.201292150               0.022310727               0.000000000               0.224269676               0.025402210               0.000000000               0.247247203               0.028493692               0.000000000               0.270224730               0.031585175               0.000000000               0.293202257               0.034676657               0.000000000               0.316179784               0.037768140               0.000000000               0.339157311               0.040859622               0.000000000               0.362134838               0.043951105               0.000000000               0.385112365               0.047042587               0.000000000               0.408089892               0.050134070               0.000000000               0.431067419               0.053225552               0.000000000               0.454044946               0.056317035               0.000000000               0.477022473               0.059408517               0.000000000               0.500000000               0.062500000               0.000000000               0.130444442               0.025947013               0.000000000               0.153541665               0.032137825               0.000000000               0.176638887               0.038328636               0.000000000               0.199736109               0.044519448               0.000000000               0.222833332               0.050710260               0.000000000               0.245930554               0.056901071               0.000000000               0.269027776               0.063091883               0.000000000               0.292124999               0.069282695               0.000000000               0.315222221               0.075473506               0.000000000               0.338319444               0.081664318               0.000000000               0.361416666               0.087855130               0.000000000               0.384513888               0.094045942               0.000000000               0.407611111               0.100236753               0.000000000               0.430708333               0.106427565               0.000000000               0.453805555               0.112618377               0.000000000               0.476902778               0.118809188               0.000000000               0.500000000               0.125000000               0.000000000               0.127273065               0.038607862               0.000000000               0.150568498               0.047913621               0.000000000               0.173863932               0.057219379               0.000000000               0.197159365               0.066525138               0.000000000               0.220454798               0.075830897               0.000000000               0.243750232               0.085136655               0.000000000               0.267045665               0.094442414               0.000000000               0.290341099               0.103748172               0.000000000               0.313636532               0.113053931               0.000000000               0.336931966               0.122359690               0.000000000               0.360227399               0.131665448               0.000000000               0.383522833               0.140971207               0.000000000               0.406818266               0.150276966               0.000000000               0.430113700               0.159582724               0.000000000               0.453409133               0.168888483               0.000000000               0.476704567               0.178194241               0.000000000               0.500000000               0.187500000               0.000000000               0.122875978               0.050896897               0.000000000               0.146446229               0.063340840               0.000000000               0.170016481               0.075784784               0.000000000               0.193586732               0.088228728               0.000000000               0.217156983               0.100672672               0.000000000               0.240727235               0.113116616               0.000000000               0.264297486               0.125560560               0.000000000               0.287867738               0.138004504               0.000000000               0.311437989               0.150448448               0.000000000               0.335008240               0.162892392               0.000000000               0.358578492               0.175336336               0.000000000               0.382148743               0.187780280               0.000000000               0.405718994               0.200224224               0.000000000               0.429289246               0.212668168               0.000000000               0.452859497               0.225112112               0.000000000               0.476429749               0.237556056               0.000000000               0.500000000               0.250000000               0.000000000               0.117295528               0.062695766               0.000000000               0.141214558               0.078308531               0.000000000               0.165133587               0.093921295               0.000000000               0.189052617               0.109534060               0.000000000               0.212971646               0.125146824               0.000000000               0.236890676               0.140759589               0.000000000               0.260809705               0.156372354               0.000000000               0.284728735               0.171985118               0.000000000               0.308647764               0.187597883               0.000000000               0.332566794               0.203210648               0.000000000               0.356485823               0.218823412               0.000000000               0.380404853               0.234436177               0.000000000               0.404323882               0.250048941               0.000000000               0.428242912               0.265661706               0.000000000               0.452161941               0.281274471               0.000000000               0.476080971               0.296887235               0.000000000               0.500000000               0.312500000               0.000000000               0.110585458               0.073890841               0.000000000               0.134923867               0.092710163               0.000000000               0.159262276               0.111529486               0.000000000               0.183600685               0.130348808               0.000000000               0.207939094               0.149168131               0.000000000               0.232277503               0.167987453               0.000000000               0.256615912               0.186806776               0.000000000               0.280954320               0.205626098               0.000000000               0.305292729               0.224445420               0.000000000               0.329631138               0.243264743               0.000000000               0.353969547               0.262084065               0.000000000               0.378307956               0.280903388               0.000000000               0.402646365               0.299722710               0.000000000               0.426984773               0.318542033               0.000000000               0.451323182               0.337361355               0.000000000               0.475661591               0.356180678               0.000000000               0.500000000               0.375000000               0.000000000               0.102810390               0.084374307               0.000000000               0.127634741               0.106444663               0.000000000               0.152459092               0.128515018               0.000000000               0.177283442               0.150585374               0.000000000               0.202107793               0.172655730               0.000000000               0.226932143               0.194726086               0.000000000               0.251756494               0.216796442               0.000000000               0.276580845               0.238866798               0.000000000               0.301405195               0.260937153               0.000000000               0.326229546               0.283007509               0.000000000               0.351053896               0.305077865               0.000000000               0.375878247               0.327148221               0.000000000               0.400702598               0.349218577               0.000000000               0.425526948               0.371288933               0.000000000               0.450351299               0.393359288               0.000000000               0.475175649               0.415429644               0.000000000               0.500000000               0.437500000               0.000000000               0.094045202               0.094045202               0.000000000               0.119417377               0.119417377               0.000000000               0.144789552               0.144789552               0.000000000               0.170161727               0.170161727               0.000000000               0.195533901               0.195533901               0.000000000               0.220906076               0.220906076               0.000000000               0.246278251               0.246278251               0.000000000               0.271650426               0.271650426               0.000000000               0.297022601               0.297022601               0.000000000               0.322394776               0.322394776               0.000000000               0.347766951               0.347766951               0.000000000               0.373139126               0.373139126               0.000000000               0.398511300               0.398511300               0.000000000               0.423883475               0.423883475               0.000000000               0.449255650               0.449255650               0.000000000               0.474627825               0.474627825               0.000000000               0.500000000               0.500000000               0.000000000               0.084374307               0.102810390               0.000000000               0.106444663               0.127634741               0.000000000               0.128515018               0.152459092               0.000000000               0.150585374               0.177283442               0.000000000               0.172655730               0.202107793               0.000000000               0.194726086               0.226932143               0.000000000               0.216796442               0.251756494               0.000000000               0.238866798               0.276580845               0.000000000               0.260937153               0.301405195               0.000000000               0.283007509               0.326229546               0.000000000               0.305077865               0.351053896               0.000000000               0.327148221               0.375878247               0.000000000               0.349218577               0.400702598               0.000000000               0.371288933               0.425526948               0.000000000               0.393359288               0.450351299               0.000000000               0.415429644               0.475175649               0.000000000               0.437500000               0.500000000               0.000000000               0.073890841               0.110585458               0.000000000               0.092710163               0.134923867               0.000000000               0.111529486               0.159262276               0.000000000               0.130348808               0.183600685               0.000000000               0.149168131               0.207939094               0.000000000               0.167987453               0.232277503               0.000000000               0.186806776               0.256615912               0.000000000               0.205626098               0.280954320               0.000000000               0.224445420               0.305292729               0.000000000               0.243264743               0.329631138               0.000000000               0.262084065               0.353969547               0.000000000               0.280903388               0.378307956               0.000000000               0.299722710               0.402646365               0.000000000               0.318542033               0.426984773               0.000000000               0.337361355               0.451323182               0.000000000               0.356180678               0.475661591               0.000000000               0.375000000               0.500000000               0.000000000               0.062695766               0.117295528               0.000000000               0.078308531               0.141214558               0.000000000               0.093921295               0.165133587               0.000000000               0.109534060               0.189052617               0.000000000               0.125146824               0.212971646               0.000000000               0.140759589               0.236890676               0.000000000               0.156372354               0.260809705               0.000000000               0.171985118               0.284728735               0.000000000               0.187597883               0.308647764               0.000000000               0.203210648               0.332566794               0.000000000               0.218823412               0.356485823               0.000000000               0.234436177               0.380404853               0.000000000               0.250048941               0.404323882               0.000000000               0.265661706               0.428242912               0.000000000               0.281274471               0.452161941               0.000000000               0.296887235               0.476080971               0.000000000               0.312500000               0.500000000               0.000000000               0.050896897               0.122875978               0.000000000               0.063340840               0.146446229               0.000000000               0.075784784               0.170016481               0.000000000               0.088228728               0.193586732               0.000000000               0.100672672               0.217156983               0.000000000               0.113116616               0.240727235               0.000000000               0.125560560               0.264297486               0.000000000               0.138004504               0.287867738               0.000000000               0.150448448               0.311437989               0.000000000               0.162892392               0.335008240               0.000000000               0.175336336               0.358578492               0.000000000               0.187780280               0.382148743               0.000000000               0.200224224               0.405718994               0.000000000               0.212668168               0.429289246               0.000000000               0.225112112               0.452859497               0.000000000               0.237556056               0.476429749               0.000000000               0.250000000               0.500000000               0.000000000               0.038607862               0.127273065               0.000000000               0.047913621               0.150568498               0.000000000               0.057219379               0.173863932               0.000000000               0.066525138               0.197159365               0.000000000               0.075830897               0.220454798               0.000000000               0.085136655               0.243750232               0.000000000               0.094442414               0.267045665               0.000000000               0.103748172               0.290341099               0.000000000               0.113053931               0.313636532               0.000000000               0.122359690               0.336931966               0.000000000               0.131665448               0.360227399               0.000000000               0.140971207               0.383522833               0.000000000               0.150276966               0.406818266               0.000000000               0.159582724               0.430113700               0.000000000               0.168888483               0.453409133               0.000000000               0.178194241               0.476704567               0.000000000               0.187500000               0.500000000               0.000000000               0.025947013               0.130444442               0.000000000               0.032137825               0.153541665               0.000000000               0.038328636               0.176638887               0.000000000               0.044519448               0.199736109               0.000000000               0.050710260               0.222833332               0.000000000               0.056901071               0.245930554               0.000000000               0.063091883               0.269027776               0.000000000               0.069282695               0.292124999               0.000000000               0.075473506               0.315222221               0.000000000               0.081664318               0.338319444               0.000000000               0.087855130               0.361416666               0.000000000               0.094045942               0.384513888               0.000000000               0.100236753               0.407611111               0.000000000               0.106427565               0.430708333               0.000000000               0.112618377               0.453805555               0.000000000               0.118809188               0.476902778               0.000000000               0.125000000               0.500000000               0.000000000               0.013036280               0.132359569               0.000000000               0.016127762               0.155337096               0.000000000               0.019219245               0.178314623               0.000000000               0.022310727               0.201292150               0.000000000               0.025402210               0.224269676               0.000000000               0.028493692               0.247247203               0.000000000               0.031585175               0.270224730               0.000000000               0.034676657               0.293202257               0.000000000               0.037768140               0.316179784               0.000000000               0.040859622               0.339157311               0.000000000               0.043951105               0.362134838               0.000000000               0.047042587               0.385112365               0.000000000               0.050134070               0.408089892               0.000000000               0.053225552               0.431067419               0.000000000               0.056317035               0.454044946               0.000000000               0.059408517               0.477022473               0.000000000               0.062500000               0.500000000               0.000000000               0.000000000               0.133000000               0.000000000               0.000000000               0.155937500               0.000000000               0.000000000               0.178875000               0.000000000               0.000000000               0.201812500               0.000000000               0.000000000               0.224750000               0.000000000               0.000000000               0.247687500               0.000000000               0.000000000               0.270625000               0.000000000               0.000000000               0.293562500               0.000000000               0.000000000               0.316500000               0.000000000               0.000000000               0.339437500               0.000000000               0.000000000               0.362375000               0.000000000               0.000000000               0.385312500               0.000000000               0.000000000               0.408250000               0.000000000               0.000000000               0.431187500               0.000000000               0.000000000               0.454125000               0.000000000               0.000000000               0.477062500               0.000000000               0.000000000               0.500000000               0.000000000               0.133000000               0.000000000               0.000000000               0.155937500               0.000000000               0.000000000               0.178875000               0.000000000               0.000000000               0.201812500               0.000000000               0.000000000               0.224750000               0.000000000               0.000000000               0.247687500               0.000000000               0.000000000               0.270625000               0.000000000               0.000000000               0.293562500               0.000000000               0.000000000               0.316500000               0.000000000               0.000000000               0.339437500               0.000000000               0.000000000               0.362375000               0.000000000               0.000000000               0.385312500               0.000000000               0.000000000               0.408250000               0.000000000               0.000000000               0.431187500               0.000000000               0.000000000               0.454125000               0.000000000               0.000000000               0.477062500               0.000000000               0.000000000               0.500000000               0.000000000               0.000000000               0.132359569              -0.013036280               0.000000000               0.155337096              -0.016127762               0.000000000               0.178314623              -0.019219245               0.000000000               0.201292150              -0.022310727               0.000000000               0.224269676              -0.025402210               0.000000000               0.247247203              -0.028493692               0.000000000               0.270224730              -0.031585175               0.000000000               0.293202257              -0.034676657               0.000000000               0.316179784              -0.037768140               0.000000000               0.339157311              -0.040859622               0.000000000               0.362134838              -0.043951105               0.000000000               0.385112365              -0.047042587               0.000000000               0.408089892              -0.050134070               0.000000000               0.431067419              -0.053225552               0.000000000               0.454044946              -0.056317035               0.000000000               0.477022473              -0.059408517               0.000000000               0.500000000              -0.062500000               0.000000000               0.130444442              -0.025947013               0.000000000               0.153541665              -0.032137825               0.000000000               0.176638887              -0.038328636               0.000000000               0.199736109              -0.044519448               0.000000000               0.222833332              -0.050710260               0.000000000               0.245930554              -0.056901071               0.000000000               0.269027776              -0.063091883               0.000000000               0.292124999              -0.069282695               0.000000000               0.315222221              -0.075473506               0.000000000               0.338319444              -0.081664318               0.000000000               0.361416666              -0.087855130               0.000000000               0.384513888              -0.094045942               0.000000000               0.407611111              -0.100236753               0.000000000               0.430708333              -0.106427565               0.000000000               0.453805555              -0.112618377               0.000000000               0.476902778              -0.118809188               0.000000000               0.500000000              -0.125000000               0.000000000               0.127273065              -0.038607862               0.000000000               0.150568498              -0.047913621               0.000000000               0.173863932              -0.057219379               0.000000000               0.197159365              -0.066525138               0.000000000               0.220454798              -0.075830897               0.000000000               0.243750232              -0.085136655               0.000000000               0.267045665              -0.094442414               0.000000000               0.290341099              -0.103748172               0.000000000               0.313636532              -0.113053931               0.000000000               0.336931966              -0.122359690               0.000000000               0.360227399              -0.131665448               0.000000000               0.383522833              -0.140971207               0.000000000               0.406818266              -0.150276966               0.000000000               0.430113700              -0.159582724               0.000000000               0.453409133              -0.168888483               0.000000000               0.476704567              -0.178194241               0.000000000               0.500000000              -0.187500000               0.000000000               0.122875978              -0.050896897               0.000000000               0.146446229              -0.063340840               0.000000000               0.170016481              -0.075784784               0.000000000               0.193586732              -0.088228728               0.000000000               0.217156983              -0.100672672               0.000000000               0.240727235              -0.113116616               0.000000000               0.264297486              -0.125560560               0.000000000               0.287867738              -0.138004504               0.000000000               0.311437989              -0.150448448               0.000000000               0.335008240              -0.162892392               0.000000000               0.358578492              -0.175336336               0.000000000               0.382148743              -0.187780280               0.000000000               0.405718994              -0.200224224               0.000000000               0.429289246              -0.212668168               0.000000000               0.452859497              -0.225112112               0.000000000               0.476429749              -0.237556056               0.000000000               0.500000000              -0.250000000               0.000000000               0.117295528              -0.062695766               0.000000000               0.141214558              -0.078308531               0.000000000               0.165133587              -0.093921295               0.000000000               0.189052617              -0.109534060               0.000000000               0.212971646              -0.125146824               0.000000000               0.236890676              -0.140759589               0.000000000               0.260809705              -0.156372354               0.000000000               0.284728735              -0.171985118               0.000000000               0.308647764              -0.187597883               0.000000000               0.332566794              -0.203210648               0.000000000               0.356485823              -0.218823412               0.000000000               0.380404853              -0.234436177               0.000000000               0.404323882              -0.250048941               0.000000000               0.428242912              -0.265661706               0.000000000               0.452161941              -0.281274471               0.000000000               0.476080971              -0.296887235               0.000000000               0.500000000              -0.312500000               0.000000000               0.110585458              -0.073890841               0.000000000               0.134923867              -0.092710163               0.000000000               0.159262276              -0.111529486               0.000000000               0.183600685              -0.130348808               0.000000000               0.207939094              -0.149168131               0.000000000               0.232277503              -0.167987453               0.000000000               0.256615912              -0.186806776               0.000000000               0.280954320              -0.205626098               0.000000000               0.305292729              -0.224445420               0.000000000               0.329631138              -0.243264743               0.000000000               0.353969547              -0.262084065               0.000000000               0.378307956              -0.280903388               0.000000000               0.402646365              -0.299722710               0.000000000               0.426984773              -0.318542033               0.000000000               0.451323182              -0.337361355               0.000000000               0.475661591              -0.356180678               0.000000000               0.500000000              -0.375000000               0.000000000               0.102810390              -0.084374307               0.000000000               0.127634741              -0.106444663               0.000000000               0.152459092              -0.128515018               0.000000000               0.177283442              -0.150585374               0.000000000               0.202107793              -0.172655730               0.000000000               0.226932143              -0.194726086               0.000000000               0.251756494              -0.216796442               0.000000000               0.276580845              -0.238866798               0.000000000               0.301405195              -0.260937153               0.000000000               0.326229546              -0.283007509               0.000000000               0.351053896              -0.305077865               0.000000000               0.375878247              -0.327148221               0.000000000               0.400702598              -0.349218577               0.000000000               0.425526948              -0.371288933               0.000000000               0.450351299              -0.393359288               0.000000000               0.475175649              -0.415429644               0.000000000               0.500000000              -0.437500000               0.000000000               0.094045202              -0.094045202               0.000000000               0.119417377              -0.119417377               0.000000000               0.144789552              -0.144789552               0.000000000               0.170161727              -0.170161727               0.000000000               0.195533901              -0.195533901               0.000000000               0.220906076              -0.220906076               0.000000000               0.246278251              -0.246278251               0.000000000               0.271650426              -0.271650426               0.000000000               0.297022601              -0.297022601               0.000000000               0.322394776              -0.322394776               0.000000000               0.347766951              -0.347766951               0.000000000               0.373139126              -0.373139126               0.000000000               0.398511300              -0.398511300               0.000000000               0.423883475              -0.423883475               0.000000000               0.449255650              -0.449255650               0.000000000               0.474627825              -0.474627825               0.000000000               0.500000000              -0.500000000               0.000000000               0.084374307              -0.102810390               0.000000000               0.106444663              -0.127634741               0.000000000               0.128515018              -0.152459092               0.000000000               0.150585374              -0.177283442               0.000000000               0.172655730              -0.202107793               0.000000000               0.194726086              -0.226932143               0.000000000               0.216796442              -0.251756494               0.000000000               0.238866798              -0.276580845               0.000000000               0.260937153              -0.301405195               0.000000000               0.283007509              -0.326229546               0.000000000               0.305077865              -0.351053896               0.000000000               0.327148221              -0.375878247               0.000000000               0.349218577              -0.400702598               0.000000000               0.371288933              -0.425526948               0.000000000               0.393359288              -0.450351299               0.000000000               0.415429644              -0.475175649               0.000000000               0.437500000              -0.500000000               0.000000000               0.073890841              -0.110585458               0.000000000               0.092710163              -0.134923867               0.000000000               0.111529486              -0.159262276               0.000000000               0.130348808              -0.183600685               0.000000000               0.149168131              -0.207939094               0.000000000               0.167987453              -0.232277503               0.000000000               0.186806776              -0.256615912               0.000000000               0.205626098              -0.280954320               0.000000000               0.224445420              -0.305292729               0.000000000               0.243264743              -0.329631138               0.000000000               0.262084065              -0.353969547               0.000000000               0.280903388              -0.378307956               0.000000000               0.299722710              -0.402646365               0.000000000               0.318542033              -0.426984773               0.000000000               0.337361355              -0.451323182               0.000000000               0.356180678              -0.475661591               0.000000000               0.375000000              -0.500000000               0.000000000               0.062695766              -0.117295528               0.000000000               0.078308531              -0.141214558               0.000000000               0.093921295              -0.165133587               0.000000000               0.109534060              -0.189052617               0.000000000               0.125146824              -0.212971646               0.000000000               0.140759589              -0.236890676               0.000000000               0.156372354              -0.260809705               0.000000000               0.171985118              -0.284728735               0.000000000               0.187597883              -0.308647764               0.000000000               0.203210648              -0.332566794               0.000000000               0.218823412              -0.356485823               0.000000000               0.234436177              -0.380404853               0.000000000               0.250048941              -0.404323882               0.000000000               0.265661706              -0.428242912               0.000000000               0.281274471              -0.452161941               0.000000000               0.296887235              -0.476080971               0.000000000               0.312500000              -0.500000000               0.000000000               0.050896897              -0.122875978               0.000000000               0.063340840              -0.146446229               0.000000000               0.075784784              -0.170016481               0.000000000               0.088228728              -0.193586732               0.000000000               0.100672672              -0.217156983               0.000000000               0.113116616              -0.240727235               0.000000000               0.125560560              -0.264297486               0.000000000               0.138004504              -0.287867738               0.000000000               0.150448448              -0.311437989               0.000000000               0.162892392              -0.335008240               0.000000000               0.175336336              -0.358578492               0.000000000               0.187780280              -0.382148743               0.000000000               0.200224224              -0.405718994               0.000000000               0.212668168              -0.429289246               0.000000000               0.225112112              -0.452859497               0.000000000               0.237556056              -0.476429749               0.000000000               0.250000000              -0.500000000               0.000000000               0.038607862              -0.127273065               0.000000000               0.047913621              -0.150568498               0.000000000               0.057219379              -0.173863932               0.000000000               0.066525138              -0.197159365               0.000000000               0.075830897              -0.220454798               0.000000000               0.085136655              -0.243750232               0.000000000               0.094442414              -0.267045665               0.000000000               0.103748172              -0.290341099               0.000000000               0.113053931              -0.313636532               0.000000000               0.122359690              -0.336931966               0.000000000               0.131665448              -0.360227399               0.000000000               0.140971207              -0.383522833               0.000000000               0.150276966              -0.406818266               0.000000000               0.159582724              -0.430113700               0.000000000               0.168888483              -0.453409133               0.000000000               0.178194241              -0.476704567               0.000000000               0.187500000              -0.500000000               0.000000000               0.025947013              -0.130444442               0.000000000               0.032137825              -0.153541665               0.000000000               0.038328636              -0.176638887               0.000000000               0.044519448              -0.199736109               0.000000000               0.050710260              -0.222833332               0.000000000               0.056901071              -0.245930554               0.000000000               0.063091883              -0.269027776               0.000000000               0.069282695              -0.292124999               0.000000000               0.075473506              -0.315222221               0.000000000               0.081664318              -0.338319444               0.000000000               0.087855130              -0.361416666               0.000000000               0.094045942              -0.384513888               0.000000000               0.100236753              -0.407611111               0.000000000               0.106427565              -0.430708333               0.000000000               0.112618377              -0.453805555               0.000000000               0.118809188              -0.476902778               0.000000000               0.125000000              -0.500000000               0.000000000               0.013036280              -0.132359569               0.000000000               0.016127762              -0.155337096               0.000000000               0.019219245              -0.178314623               0.000000000               0.022310727              -0.201292150               0.000000000               0.025402210              -0.224269676               0.000000000               0.028493692              -0.247247203               0.000000000               0.031585175              -0.270224730               0.000000000               0.034676657              -0.293202257               0.000000000               0.037768140              -0.316179784               0.000000000               0.040859622              -0.339157311               0.000000000               0.043951105              -0.362134838               0.000000000               0.047042587              -0.385112365               0.000000000               0.050134070              -0.408089892               0.000000000               0.053225552              -0.431067419               0.000000000               0.056317035              -0.454044946               0.000000000               0.059408517              -0.477022473               0.000000000               0.062500000              -0.500000000               0.000000000               0.000000000              -0.133000000               0.000000000               0.000000000              -0.155937500               0.000000000               0.000000000              -0.178875000               0.000000000               0.000000000              -0.201812500               0.000000000               0.000000000              -0.224750000               0.000000000               0.000000000              -0.247687500               0.000000000               0.000000000              -0.270625000               0.000000000               0.000000000              -0.293562500               0.000000000               0.000000000              -0.316500000               0.000000000               0.000000000              -0.339437500               0.000000000               0.000000000              -0.362375000               0.000000000               0.000000000              -0.385312500               0.000000000               0.000000000              -0.408250000               0.000000000               0.000000000              -0.431187500               0.000000000               0.000000000              -0.454125000               0.000000000               0.000000000              -0.477062500               0.000000000               0.000000000              -0.500000000               0.000000000              -0.133000000               0.000000000               0.000000000              -0.155937500               0.000000000               0.000000000              -0.178875000               0.000000000               0.000000000              -0.201812500               0.000000000               0.000000000              -0.224750000               0.000000000               0.000000000              -0.247687500               0.000000000               0.000000000              -0.270625000               0.000000000               0.000000000              -0.293562500               0.000000000               0.000000000              -0.316500000               0.000000000               0.000000000              -0.339437500               0.000000000               0.000000000              -0.362375000               0.000000000               0.000000000              -0.385312500               0.000000000               0.000000000              -0.408250000               0.000000000               0.000000000              -0.431187500               0.000000000               0.000000000              -0.454125000               0.000000000               0.000000000              -0.477062500               0.000000000               0.000000000              -0.500000000               0.000000000               0.000000000              -0.132359569              -0.013036280               0.000000000              -0.155337096              -0.016127762               0.000000000              -0.178314623              -0.019219245               0.000000000              -0.201292150              -0.022310727               0.000000000              -0.224269676              -0.025402210               0.000000000              -0.247247203              -0.028493692               0.000000000              -0.270224730              -0.031585175               0.000000000              -0.293202257              -0.034676657               0.000000000              -0.316179784              -0.037768140               0.000000000              -0.339157311              -0.040859622               0.000000000              -0.362134838              -0.043951105               0.000000000              -0.385112365              -0.047042587               0.000000000              -0.408089892              -0.050134070               0.000000000              -0.431067419              -0.053225552               0.000000000              -0.454044946              -0.056317035               0.000000000              -0.477022473              -0.059408517               0.000000000              -0.500000000              -0.062500000               0.000000000              -0.130444442              -0.025947013               0.000000000              -0.153541665              -0.032137825               0.000000000              -0.176638887              -0.038328636               0.000000000              -0.199736109              -0.044519448               0.000000000              -0.222833332              -0.050710260               0.000000000              -0.245930554              -0.056901071               0.000000000              -0.269027776              -0.063091883               0.000000000              -0.292124999              -0.069282695               0.000000000              -0.315222221              -0.075473506               0.000000000              -0.338319444              -0.081664318               0.000000000              -0.361416666              -0.087855130               0.000000000              -0.384513888              -0.094045942               0.000000000              -0.407611111              -0.100236753               0.000000000              -0.430708333              -0.106427565               0.000000000              -0.453805555              -0.112618377               0.000000000              -0.476902778              -0.118809188               0.000000000              -0.500000000              -0.125000000               0.000000000              -0.127273065              -0.038607862               0.000000000              -0.150568498              -0.047913621               0.000000000              -0.173863932              -0.057219379               0.000000000              -0.197159365              -0.066525138               0.000000000              -0.220454798              -0.075830897               0.000000000              -0.243750232              -0.085136655               0.000000000              -0.267045665              -0.094442414               0.000000000              -0.290341099              -0.103748172               0.000000000              -0.313636532              -0.113053931               0.000000000              -0.336931966              -0.122359690               0.000000000              -0.360227399              -0.131665448               0.000000000              -0.383522833              -0.140971207               0.000000000              -0.406818266              -0.150276966               0.000000000              -0.430113700              -0.159582724               0.000000000              -0.453409133              -0.168888483               0.000000000              -0.476704567              -0.178194241               0.000000000              -0.500000000              -0.187500000               0.000000000              -0.122875978              -0.050896897               0.000000000              -0.146446229              -0.063340840               0.000000000              -0.170016481              -0.075784784               0.000000000              -0.193586732              -0.088228728               0.000000000              -0.217156983              -0.100672672               0.000000000              -0.240727235              -0.113116616               0.000000000              -0.264297486              -0.125560560               0.000000000              -0.287867738              -0.138004504               0.000000000              -0.311437989              -0.150448448               0.000000000              -0.335008240              -0.162892392               0.000000000              -0.358578492              -0.175336336               0.000000000              -0.382148743              -0.187780280               0.000000000              -0.405718994              -0.200224224               0.000000000              -0.429289246              -0.212668168               0.000000000              -0.452859497              -0.225112112               0.000000000              -0.476429749              -0.237556056               0.000000000              -0.500000000              -0.250000000               0.000000000              -0.117295528              -0.062695766               0.000000000              -0.141214558              -0.078308531               0.000000000              -0.165133587              -0.093921295               0.000000000              -0.189052617              -0.109534060               0.000000000              -0.212971646              -0.125146824               0.000000000              -0.236890676              -0.140759589               0.000000000              -0.260809705              -0.156372354               0.000000000              -0.284728735              -0.171985118               0.000000000              -0.308647764              -0.187597883               0.000000000              -0.332566794              -0.203210648               0.000000000              -0.356485823              -0.218823412               0.000000000              -0.380404853              -0.234436177               0.000000000              -0.404323882              -0.250048941               0.000000000              -0.428242912              -0.265661706               0.000000000              -0.452161941              -0.281274471               0.000000000              -0.476080971              -0.296887235               0.000000000              -0.500000000              -0.312500000               0.000000000              -0.110585458              -0.073890841               0.000000000              -0.134923867              -0.092710163               0.000000000              -0.159262276              -0.111529486               0.000000000              -0.183600685              -0.130348808               0.000000000              -0.207939094              -0.149168131               0.000000000              -0.232277503              -0.167987453               0.000000000              -0.256615912              -0.186806776               0.000000000              -0.280954320              -0.205626098               0.000000000              -0.305292729              -0.224445420               0.000000000              -0.329631138              -0.243264743               0.000000000              -0.353969547              -0.262084065               0.000000000              -0.378307956              -0.280903388               0.000000000              -0.402646365              -0.299722710               0.000000000              -0.426984773              -0.318542033               0.000000000              -0.451323182              -0.337361355               0.000000000              -0.475661591              -0.356180678               0.000000000              -0.500000000              -0.375000000               0.000000000              -0.102810390              -0.084374307               0.000000000              -0.127634741              -0.106444663               0.000000000              -0.152459092              -0.128515018               0.000000000              -0.177283442              -0.150585374               0.000000000              -0.202107793              -0.172655730               0.000000000              -0.226932143              -0.194726086               0.000000000              -0.251756494              -0.216796442               0.000000000              -0.276580845              -0.238866798               0.000000000              -0.301405195              -0.260937153               0.000000000              -0.326229546              -0.283007509               0.000000000              -0.351053896              -0.305077865               0.000000000              -0.375878247              -0.327148221               0.000000000              -0.400702598              -0.349218577               0.000000000              -0.425526948              -0.371288933               0.000000000              -0.450351299              -0.393359288               0.000000000              -0.475175649              -0.415429644               0.000000000              -0.500000000              -0.437500000               0.000000000              -0.094045202              -0.094045202               0.000000000              -0.119417377              -0.119417377               0.000000000              -0.144789552              -0.144789552               0.000000000              -0.170161727              -0.170161727               0.000000000              -0.195533901              -0.195533901               0.000000000              -0.220906076              -0.220906076               0.000000000              -0.246278251              -0.246278251               0.000000000              -0.271650426              -0.271650426               0.000000000              -0.297022601              -0.297022601               0.000000000              -0.322394776              -0.322394776               0.000000000              -0.347766951              -0.347766951               0.000000000              -0.373139126              -0.373139126               0.000000000              -0.398511300              -0.398511300               0.000000000              -0.423883475              -0.423883475               0.000000000              -0.449255650              -0.449255650               0.000000000              -0.474627825              -0.474627825               0.000000000              -0.500000000              -0.500000000               0.000000000              -0.084374307              -0.102810390               0.000000000              -0.106444663              -0.127634741               0.000000000              -0.128515018              -0.152459092               0.000000000              -0.150585374              -0.177283442               0.000000000              -0.172655730              -0.202107793               0.000000000              -0.194726086              -0.226932143               0.000000000              -0.216796442              -0.251756494               0.000000000              -0.238866798              -0.276580845               0.000000000              -0.260937153              -0.301405195               0.000000000              -0.283007509              -0.326229546               0.000000000              -0.305077865              -0.351053896               0.000000000              -0.327148221              -0.375878247               0.000000000              -0.349218577              -0.400702598               0.000000000              -0.371288933              -0.425526948               0.000000000              -0.393359288              -0.450351299               0.000000000              -0.415429644              -0.475175649               0.000000000              -0.437500000              -0.500000000               0.000000000              -0.073890841              -0.110585458               0.000000000              -0.092710163              -0.134923867               0.000000000              -0.111529486              -0.159262276               0.000000000              -0.130348808              -0.183600685               0.000000000              -0.149168131              -0.207939094               0.000000000              -0.167987453              -0.232277503               0.000000000              -0.186806776              -0.256615912               0.000000000              -0.205626098              -0.280954320               0.000000000              -0.224445420              -0.305292729               0.000000000              -0.243264743              -0.329631138               0.000000000              -0.262084065              -0.353969547               0.000000000              -0.280903388              -0.378307956               0.000000000              -0.299722710              -0.402646365               0.000000000              -0.318542033              -0.426984773               0.000000000              -0.337361355              -0.451323182               0.000000000              -0.356180678              -0.475661591               0.000000000              -0.375000000              -0.500000000               0.000000000              -0.062695766              -0.117295528               0.000000000              -0.078308531              -0.141214558               0.000000000              -0.093921295              -0.165133587               0.000000000              -0.109534060              -0.189052617               0.000000000              -0.125146824              -0.212971646               0.000000000              -0.140759589              -0.236890676               0.000000000              -0.156372354              -0.260809705               0.000000000              -0.171985118              -0.284728735               0.000000000              -0.187597883              -0.308647764               0.000000000              -0.203210648              -0.332566794               0.000000000              -0.218823412              -0.356485823               0.000000000              -0.234436177              -0.380404853               0.000000000              -0.250048941              -0.404323882               0.000000000              -0.265661706              -0.428242912               0.000000000              -0.281274471              -0.452161941               0.000000000              -0.296887235              -0.476080971               0.000000000              -0.312500000              -0.500000000               0.000000000              -0.050896897              -0.122875978               0.000000000              -0.063340840              -0.146446229               0.000000000              -0.075784784              -0.170016481               0.000000000              -0.088228728              -0.193586732               0.000000000              -0.100672672              -0.217156983               0.000000000              -0.113116616              -0.240727235               0.000000000              -0.125560560              -0.264297486               0.000000000              -0.138004504              -0.287867738               0.000000000              -0.150448448              -0.311437989               0.000000000              -0.162892392              -0.335008240               0.000000000              -0.175336336              -0.358578492               0.000000000              -0.187780280              -0.382148743               0.000000000              -0.200224224              -0.405718994               0.000000000              -0.212668168              -0.429289246               0.000000000              -0.225112112              -0.452859497               0.000000000              -0.237556056              -0.476429749               0.000000000              -0.250000000              -0.500000000               0.000000000              -0.038607862              -0.127273065               0.000000000              -0.047913621              -0.150568498               0.000000000              -0.057219379              -0.173863932               0.000000000              -0.066525138              -0.197159365               0.000000000              -0.075830897              -0.220454798               0.000000000              -0.085136655              -0.243750232               0.000000000              -0.094442414              -0.267045665               0.000000000              -0.103748172              -0.290341099               0.000000000              -0.113053931              -0.313636532               0.000000000              -0.122359690              -0.336931966               0.000000000              -0.131665448              -0.360227399               0.000000000              -0.140971207              -0.383522833               0.000000000              -0.150276966              -0.406818266               0.000000000              -0.159582724              -0.430113700               0.000000000              -0.168888483              -0.453409133               0.000000000              -0.178194241              -0.476704567               0.000000000              -0.187500000              -0.500000000               0.000000000              -0.025947013              -0.130444442               0.000000000              -0.032137825              -0.153541665               0.000000000              -0.038328636              -0.176638887               0.000000000              -0.044519448              -0.199736109               0.000000000              -0.050710260              -0.222833332               0.000000000              -0.056901071              -0.245930554               0.000000000              -0.063091883              -0.269027776               0.000000000              -0.069282695              -0.292124999               0.000000000              -0.075473506              -0.315222221               0.000000000              -0.081664318              -0.338319444               0.000000000              -0.087855130              -0.361416666               0.000000000              -0.094045942              -0.384513888               0.000000000              -0.100236753              -0.407611111               0.000000000              -0.106427565              -0.430708333               0.000000000              -0.112618377              -0.453805555               0.000000000              -0.118809188              -0.476902778               0.000000000              -0.125000000              -0.500000000               0.000000000              -0.013036280              -0.132359569               0.000000000              -0.016127762              -0.155337096               0.000000000              -0.019219245              -0.178314623               0.000000000              -0.022310727              -0.201292150               0.000000000              -0.025402210              -0.224269676               0.000000000              -0.028493692              -0.247247203               0.000000000              -0.031585175              -0.270224730               0.000000000              -0.034676657              -0.293202257               0.000000000              -0.037768140              -0.316179784               0.000000000              -0.040859622              -0.339157311               0.000000000              -0.043951105              -0.362134838               0.000000000              -0.047042587              -0.385112365               0.000000000              -0.050134070              -0.408089892               0.000000000              -0.053225552              -0.431067419               0.000000000              -0.056317035              -0.454044946               0.000000000              -0.059408517              -0.477022473               0.000000000              -0.062500000              -0.500000000               0.000000000               0.000000000              -0.133000000               0.000000000               0.000000000              -0.155937500               0.000000000               0.000000000              -0.178875000               0.000000000               0.000000000              -0.201812500               0.000000000               0.000000000              -0.224750000               0.000000000               0.000000000              -0.247687500               0.000000000               0.000000000              -0.270625000               0.000000000               0.000000000              -0.293562500               0.000000000               0.000000000              -0.316500000               0.000000000               0.000000000              -0.339437500               0.000000000               0.000000000              -0.362375000               0.000000000               0.000000000              -0.385312500               0.000000000               0.000000000              -0.408250000               0.000000000               0.000000000              -0.431187500               0.000000000               0.000000000              -0.454125000               0.000000000               0.000000000              -0.477062500               0.000000000               0.000000000              -0.500000000               0.000000000              -0.133000000               0.000000000               0.000000000              -0.155937500               0.000000000               0.000000000              -0.178875000               0.000000000               0.000000000              -0.201812500               0.000000000               0.000000000              -0.224750000               0.000000000               0.000000000              -0.247687500               0.000000000               0.000000000              -0.270625000               0.000000000               0.000000000              -0.293562500               0.000000000               0.000000000              -0.316500000               0.000000000               0.000000000              -0.339437500               0.000000000               0.000000000              -0.362375000               0.000000000               0.000000000              -0.385312500               0.000000000               0.000000000              -0.408250000               0.000000000               0.000000000              -0.431187500               0.000000000               0.000000000              -0.454125000               0.000000000               0.000000000              -0.477062500               0.000000000               0.000000000              -0.500000000               0.000000000               0.000000000              -0.132359569               0.013036280               0.000000000              -0.155337096               0.016127762               0.000000000              -0.178314623               0.019219245               0.000000000              -0.201292150               0.022310727               0.000000000              -0.224269676               0.025402210               0.000000000              -0.247247203               0.028493692               0.000000000              -0.270224730               0.031585175               0.000000000              -0.293202257               0.034676657               0.000000000              -0.316179784               0.037768140               0.000000000              -0.339157311               0.040859622               0.000000000              -0.362134838               0.043951105               0.000000000              -0.385112365               0.047042587               0.000000000              -0.408089892               0.050134070               0.000000000              -0.431067419               0.053225552               0.000000000              -0.454044946               0.056317035               0.000000000              -0.477022473               0.059408517               0.000000000              -0.500000000               0.062500000               0.000000000              -0.130444442               0.025947013               0.000000000              -0.153541665               0.032137825               0.000000000              -0.176638887               0.038328636               0.000000000              -0.199736109               0.044519448               0.000000000              -0.222833332               0.050710260               0.000000000              -0.245930554               0.056901071               0.000000000              -0.269027776               0.063091883               0.000000000              -0.292124999               0.069282695               0.000000000              -0.315222221               0.075473506               0.000000000              -0.338319444               0.081664318               0.000000000              -0.361416666               0.087855130               0.000000000              -0.384513888               0.094045942               0.000000000              -0.407611111               0.100236753               0.000000000              -0.430708333               0.106427565               0.000000000              -0.453805555               0.112618377               0.000000000              -0.476902778               0.118809188               0.000000000              -0.500000000               0.125000000               0.000000000              -0.127273065               0.038607862               0.000000000              -0.150568498               0.047913621               0.000000000              -0.173863932               0.057219379               0.000000000              -0.197159365               0.066525138               0.000000000              -0.220454798               0.075830897               0.000000000              -0.243750232               0.085136655               0.000000000              -0.267045665               0.094442414               0.000000000              -0.290341099               0.103748172               0.000000000              -0.313636532               0.113053931               0.000000000              -0.336931966               0.122359690               0.000000000              -0.360227399               0.131665448               0.000000000              -0.383522833               0.140971207               0.000000000              -0.406818266               0.150276966               0.000000000              -0.430113700               0.159582724               0.000000000              -0.453409133               0.168888483               0.000000000              -0.476704567               0.178194241               0.000000000              -0.500000000               0.187500000               0.000000000              -0.122875978               0.050896897               0.000000000              -0.146446229               0.063340840               0.000000000              -0.170016481               0.075784784               0.000000000              -0.193586732               0.088228728               0.000000000              -0.217156983               0.100672672               0.000000000              -0.240727235               0.113116616               0.000000000              -0.264297486               0.125560560               0.000000000              -0.287867738               0.138004504               0.000000000              -0.311437989               0.150448448               0.000000000              -0.335008240               0.162892392               0.000000000              -0.358578492               0.175336336               0.000000000              -0.382148743               0.187780280               0.000000000              -0.405718994               0.200224224               0.000000000              -0.429289246               0.212668168               0.000000000              -0.452859497               0.225112112               0.000000000              -0.476429749               0.237556056               0.000000000              -0.500000000               0.250000000               0.000000000              -0.117295528               0.062695766               0.000000000              -0.141214558               0.078308531               0.000000000              -0.165133587               0.093921295               0.000000000              -0.189052617               0.109534060               0.000000000              -0.212971646               0.125146824               0.000000000              -0.236890676               0.140759589               0.000000000              -0.260809705               0.156372354               0.000000000              -0.284728735               0.171985118               0.000000000              -0.308647764               0.187597883               0.000000000              -0.332566794               0.203210648               0.000000000              -0.356485823               0.218823412               0.000000000              -0.380404853               0.234436177               0.000000000              -0.404323882               0.250048941               0.000000000              -0.428242912               0.265661706               0.000000000              -0.452161941               0.281274471               0.000000000              -0.476080971               0.296887235               0.000000000              -0.500000000               0.312500000               0.000000000              -0.110585458               0.073890841               0.000000000              -0.134923867               0.092710163               0.000000000              -0.159262276               0.111529486               0.000000000              -0.183600685               0.130348808               0.000000000              -0.207939094               0.149168131               0.000000000              -0.232277503               0.167987453               0.000000000              -0.256615912               0.186806776               0.000000000              -0.280954320               0.205626098               0.000000000              -0.305292729               0.224445420               0.000000000              -0.329631138               0.243264743               0.000000000              -0.353969547               0.262084065               0.000000000              -0.378307956               0.280903388               0.000000000              -0.402646365               0.299722710               0.000000000              -0.426984773               0.318542033               0.000000000              -0.451323182               0.337361355               0.000000000              -0.475661591               0.356180678               0.000000000              -0.500000000               0.375000000               0.000000000              -0.102810390               0.084374307               0.000000000              -0.127634741               0.106444663               0.000000000              -0.152459092               0.128515018               0.000000000              -0.177283442               0.150585374               0.000000000              -0.202107793               0.172655730               0.000000000              -0.226932143               0.194726086               0.000000000              -0.251756494               0.216796442               0.000000000              -0.276580845               0.238866798               0.000000000              -0.301405195               0.260937153               0.000000000              -0.326229546               0.283007509               0.000000000              -0.351053896               0.305077865               0.000000000              -0.375878247               0.327148221               0.000000000              -0.400702598               0.349218577               0.000000000              -0.425526948               0.371288933               0.000000000              -0.450351299               0.393359288               0.000000000              -0.475175649               0.415429644               0.000000000              -0.500000000               0.437500000               0.000000000              -0.094045202               0.094045202               0.000000000              -0.119417377               0.119417377               0.000000000              -0.144789552               0.144789552               0.000000000              -0.170161727               0.170161727               0.000000000              -0.195533901               0.195533901               0.000000000              -0.220906076               0.220906076               0.000000000              -0.246278251               0.246278251               0.000000000              -0.271650426               0.271650426               0.000000000              -0.297022601               0.297022601               0.000000000              -0.322394776               0.322394776               0.000000000              -0.347766951               0.347766951               0.000000000              -0.373139126               0.373139126               0.000000000              -0.398511300               0.398511300               0.000000000              -0.423883475               0.423883475               0.000000000              -0.449255650               0.449255650               0.000000000              -0.474627825               0.474627825               0.000000000              -0.500000000               0.500000000               0.000000000              -0.084374307               0.102810390               0.000000000              -0.106444663               0.127634741               0.000000000              -0.128515018               0.152459092               0.000000000              -0.150585374               0.177283442               0.000000000              -0.172655730               0.202107793               0.000000000              -0.194726086               0.226932143               0.000000000              -0.216796442               0.251756494               0.000000000              -0.238866798               0.276580845               0.000000000              -0.260937153               0.301405195               0.000000000              -0.283007509               0.326229546               0.000000000              -0.305077865               0.351053896               0.000000000              -0.327148221               0.375878247               0.000000000              -0.349218577               0.400702598               0.000000000              -0.371288933               0.425526948               0.000000000              -0.393359288               0.450351299               0.000000000              -0.415429644               0.475175649               0.000000000              -0.437500000               0.500000000               0.000000000              -0.073890841               0.110585458               0.000000000              -0.092710163               0.134923867               0.000000000              -0.111529486               0.159262276               0.000000000              -0.130348808               0.183600685               0.000000000              -0.149168131               0.207939094               0.000000000              -0.167987453               0.232277503               0.000000000              -0.186806776               0.256615912               0.000000000              -0.205626098               0.280954320               0.000000000              -0.224445420               0.305292729               0.000000000              -0.243264743               0.329631138               0.000000000              -0.262084065               0.353969547               0.000000000              -0.280903388               0.378307956               0.000000000              -0.299722710               0.402646365               0.000000000              -0.318542033               0.426984773               0.000000000              -0.337361355               0.451323182               0.000000000              -0.356180678               0.475661591               0.000000000              -0.375000000               0.500000000               0.000000000              -0.062695766               0.117295528               0.000000000              -0.078308531               0.141214558               0.000000000              -0.093921295               0.165133587               0.000000000              -0.109534060               0.189052617               0.000000000              -0.125146824               0.212971646               0.000000000              -0.140759589               0.236890676               0.000000000              -0.156372354               0.260809705               0.000000000              -0.171985118               0.284728735               0.000000000              -0.187597883               0.308647764               0.000000000              -0.203210648               0.332566794               0.000000000              -0.218823412               0.356485823               0.000000000              -0.234436177               0.380404853               0.000000000              -0.250048941               0.404323882               0.000000000              -0.265661706               0.428242912               0.000000000              -0.281274471               0.452161941               0.000000000              -0.296887235               0.476080971               0.000000000              -0.312500000               0.500000000               0.000000000              -0.050896897               0.122875978               0.000000000              -0.063340840               0.146446229               0.000000000              -0.075784784               0.170016481               0.000000000              -0.088228728               0.193586732               0.000000000              -0.100672672               0.217156983               0.000000000              -0.113116616               0.240727235               0.000000000              -0.125560560               0.264297486               0.000000000              -0.138004504               0.287867738               0.000000000              -0.150448448               0.311437989               0.000000000              -0.162892392               0.335008240               0.000000000              -0.175336336               0.358578492               0.000000000              -0.187780280               0.382148743               0.000000000              -0.200224224               0.405718994               0.000000000              -0.212668168               0.429289246               0.000000000              -0.225112112               0.452859497               0.000000000              -0.237556056               0.476429749               0.000000000              -0.250000000               0.500000000               0.000000000              -0.038607862               0.127273065               0.000000000              -0.047913621               0.150568498               0.000000000              -0.057219379               0.173863932               0.000000000              -0.066525138               0.197159365               0.000000000              -0.075830897               0.220454798               0.000000000              -0.085136655               0.243750232               0.000000000              -0.094442414               0.267045665               0.000000000              -0.103748172               0.290341099               0.000000000              -0.113053931               0.313636532               0.000000000              -0.122359690               0.336931966               0.000000000              -0.131665448               0.360227399               0.000000000              -0.140971207               0.383522833               0.000000000              -0.150276966               0.406818266               0.000000000              -0.159582724               0.430113700               0.000000000              -0.168888483               0.453409133               0.000000000              -0.178194241               0.476704567               0.000000000              -0.187500000               0.500000000               0.000000000              -0.025947013               0.130444442               0.000000000              -0.032137825               0.153541665               0.000000000              -0.038328636               0.176638887               0.000000000              -0.044519448               0.199736109               0.000000000              -0.050710260               0.222833332               0.000000000              -0.056901071               0.245930554               0.000000000              -0.063091883               0.269027776               0.000000000              -0.069282695               0.292124999               0.000000000              -0.075473506               0.315222221               0.000000000              -0.081664318               0.338319444               0.000000000              -0.087855130               0.361416666               0.000000000              -0.094045942               0.384513888               0.000000000              -0.100236753               0.407611111               0.000000000              -0.106427565               0.430708333               0.000000000              -0.112618377               0.453805555               0.000000000              -0.118809188               0.476902778               0.000000000              -0.125000000               0.500000000               0.000000000              -0.013036280               0.132359569               0.000000000              -0.016127762               0.155337096               0.000000000              -0.019219245               0.178314623               0.000000000              -0.022310727               0.201292150               0.000000000              -0.025402210               0.224269676               0.000000000              -0.028493692               0.247247203               0.000000000              -0.031585175               0.270224730               0.000000000              -0.034676657               0.293202257               0.000000000              -0.037768140               0.316179784               0.000000000              -0.040859622               0.339157311               0.000000000              -0.043951105               0.362134838               0.000000000              -0.047042587               0.385112365               0.000000000              -0.050134070               0.408089892               0.000000000              -0.053225552               0.431067419               0.000000000              -0.056317035               0.454044946               0.000000000              -0.059408517               0.477022473               0.000000000              -0.062500000               0.500000000               0.000000000               0.000000000               0.133000000               0.000000000               0.000000000               0.155937500               0.000000000               0.000000000               0.178875000               0.000000000               0.000000000               0.201812500               0.000000000               0.000000000               0.224750000               0.000000000               0.000000000               0.247687500               0.000000000               0.000000000               0.270625000               0.000000000               0.000000000               0.293562500               0.000000000               0.000000000               0.316500000               0.000000000               0.000000000               0.339437500               0.000000000               0.000000000               0.362375000               0.000000000               0.000000000               0.385312500               0.000000000               0.000000000               0.408250000               0.000000000               0.000000000               0.431187500               0.000000000               0.000000000               0.454125000               0.000000000               0.000000000               0.477062500               0.000000000               0.000000000               0.500000000               0.000000000 </DataArray>
</Points>
<Cells>
<DataArray type="Int32"                                    Name="connectivity"                                                      NumberOfComponents=" 1" format="ascii">
         0          1         18         17          1          2         19         18          2          3         20         19          3          4         21         20          4          5         22         21          5          6         23         22          6          7         24         23          7          8         25         24          8          9         26         25          9         10         27         26         10         11         28         27         11         12         29         28         12         13         30         29         13         14         31         30         14         15         32         31         15         16         33         32         17         18         35         34         18         19         36         35         19         20         37         36         20         21         38         37         21         22         39         38         22         23         40         39         23         24         41         40         24         25         42         41         25         26         43         42         26         27         44         43         27         28         45         44         28         29         46         45         29         30         47         46         30         31         48         47         31         32         49         48         32         33         50         49         34         35         52         51         35         36         53         52         36         37         54         53         37         38         55         54         38         39         56         55         39         40         57         56         40         41         58         57         41         42         59         58         42         43         60         59         43         44         61         60         44         45         62         61         45         46         63         62         46         47         64         63         47         48         65         64         48         49         66         65         49         50         67         66         51         52         69         68         52         53         70         69         53         54         71         70         54         55         72         71         55         56         73         72         56         57         74         73         57         58         75         74         58         59         76         75         59         60         77         76         60         61         78         77         61         62         79         78         62         63         80         79         63         64         81         80         64         65         82         81         65         66         83         82         66         67         84         83         68         69         86         85         69         70         87         86         70         71         88         87         71         72         89         88         72         73         90         89         73         74         91         90         74         75         92         91         75         76         93         92         76         77         94         93         77         78         95         94         78         79         96         95         79         80         97         96         80         81         98         97         81         82         99         98         82         83        100         99         83         84        101        100         85         86        103        102         86         87        104        103         87         88        105        104         88         89        106        105         89         90        107        106         90         91        108        107         91         92        109        108         92         93        110        109         93         94        111        110         94         95        112        111         95         96        113        112         96         97        114        113         97         98        115        114         98         99        116        115         99        100        117        116        100        101        118        117        102        103        120        119        103        104        121        120        104        105        122        121        105        106        123        122        106        107        124        123        107        108        125        124        108        109        126        125        109        110        127        126        110        111        128        127        111        112        129        128        112        113        130        129        113        114        131        130        114        115        132        131        115        116        133        132        116        117        134        133        117        118        135        134        119        120        137        136        120        121        138        137        121        122        139        138        122        123        140        139        123        124        141        140        124        125        142        141        125        126        143        142        126        127        144        143        127        128        145        144        128        129        146        145        129        130        147        146        130        131        148        147        131        132        149        148        132        133        150        149        133        134        151        150        134        135        152        151        136        137        154        153        137        138        155        154        138        139        156        155        139        140        157        156        140        141        158        157        141        142        159        158        142        143        160        159        143        144        161        160        144        145        162        161        145        146        163        162        146        147        164        163        147        148        165        164        148        149        166        165        149        150        167        166        150        151        168        167        151        152        169        168        153        154        171        170        154        155        172        171        155        156        173        172        156        157        174        173        157        158        175        174        158        159        176        175        159        160        177        176        160        161        178        177        161        162        179        178        162        163        180        179        163        164        181        180        164        165        182        181        165        166        183        182        166        167        184        183        167        168        185        184        168        169        186        185        170        171        188        187        171        172        189        188        172        173        190        189        173        174        191        190        174        175        192        191        175        176        193        192        176        177        194        193        177        178        195        194        178        179        196        195        179        180        197        196        180        181        198        197        181        182        199        198        182        183        200        199        183        184        201        200        184        185        202        201        185        186        203        202        187        188        205        204        188        189        206        205        189        190        207        206        190        191        208        207        191        192        209        208        192        193        210        209        193        194        211        210        194        195        212        211        195        196        213        212        196        197        214        213        197        198        215        214        198        199        216        215        199        200        217        216        200        201        218        217        201        202        219        218        202        203        220        219        204        205        222        221        205        206        223        222        206        207        224        223        207        208        225        224        208        209        226        225        209        210        227        226        210        211        228        227        211        212        229        228        212        213        230        229        213        214        231        230        214        215        232        231        215        216        233        232        216        217        234        233        217        218        235        234        218        219        236        235        219        220        237        236        221        222        239        238        222        223        240        239        223        224        241        240        224        225        242        241        225        226        243        242        226        227        244        243        227        228        245        244        228        229        246        245        229        230        247        246        230        231        248        247        231        232        249        248        232        233        250        249        233        234        251        250        234        235        252        251        235        236        253        252        236        237        254        253        238        239        256        255        239        240        257        256        240        241        258        257        241        242        259        258        242        243        260        259        243        244        261        260        244        245        262        261        245        246        263        262        246        247        264        263        247        248        265        264        248        249        266        265        249        250        267        266        250        251        268        267        251        252        269        268        252        253        270        269        253        254        271        270        255        256        273        272        256        257        274        273        257        258        275        274        258        259        276        275        259        260        277        276        260        261        278        277        261        262        279        278        262        263        280        279        263        264        281        280        264        265        282        281        265        266        283        282        266        267        284        283        267        268        285        284        268        269        286        285        269        270        287        286        270        271        288        287        306        307          1          0        307        308          2          1        308        309          3          2        309        310          4          3        310        311          5          4        311        312          6          5        312        313          7          6        313        314          8          7        314        315          9          8        315        316         10          9        316        317         11         10        317        318         12         11        318        319         13         12        319        320         14         13        320        321         15         14        321        322         16         15        323        324        307        306        324        325        308        307        325        326        309        308        326        327        310        309        327        328        311        310        328        329        312        311        329        330        313        312        330        331        314        313        331        332        315        314        332        333        316        315        333        334        317        316        334        335        318        317        335        336        319        318        336        337        320        319        337        338        321        320        338        339        322        321        340        341        324        323        341        342        325        324        342        343        326        325        343        344        327        326        344        345        328        327        345        346        329        328        346        347        330        329        347        348        331        330        348        349        332        331        349        350        333        332        350        351        334        333        351        352        335        334        352        353        336        335        353        354        337        336        354        355        338        337        355        356        339        338        357        358        341        340        358        359        342        341        359        360        343        342        360        361        344        343        361        362        345        344        362        363        346        345        363        364        347        346        364        365        348        347        365        366        349        348        366        367        350        349        367        368        351        350        368        369        352        351        369        370        353        352        370        371        354        353        371        372        355        354        372        373        356        355        374        375        358        357        375        376        359        358        376        377        360        359        377        378        361        360        378        379        362        361        379        380        363        362        380        381        364        363        381        382        365        364        382        383        366        365        383        384        367        366        384        385        368        367        385        386        369        368        386        387        370        369        387        388        371        370        388        389        372        371        389        390        373        372        391        392        375        374        392        393        376        375        393        394        377        376        394        395        378        377        395        396        379        378        396        397        380        379        397        398        381        380        398        399        382        381        399        400        383        382        400        401        384        383        401        402        385        384        402        403        386        385        403        404        387        386        404        405        388        387        405        406        389        388        406        407        390        389        408        409        392        391        409        410        393        392        410        411        394        393        411        412        395        394        412        413        396        395        413        414        397        396        414        415        398        397        415        416        399        398        416        417        400        399        417        418        401        400        418        419        402        401        419        420        403        402        420        421        404        403        421        422        405        404        422        423        406        405        423        424        407        406        425        426        409        408        426        427        410        409        427        428        411        410        428        429        412        411        429        430        413        412        430        431        414        413        431        432        415        414        432        433        416        415        433        434        417        416        434        435        418        417        435        436        419        418        436        437        420        419        437        438        421        420        438        439        422        421        439        440        423        422        440        441        424        423        442        443        426        425        443        444        427        426        444        445        428        427        445        446        429        428        446        447        430        429        447        448        431        430        448        449        432        431        449        450        433        432        450        451        434        433        451        452        435        434        452        453        436        435        453        454        437        436        454        455        438        437        455        456        439        438        456        457        440        439        457        458        441        440        459        460        443        442        460        461        444        443        461        462        445        444        462        463        446        445        463        464        447        446        464        465        448        447        465        466        449        448        466        467        450        449        467        468        451        450        468        469        452        451        469        470        453        452        470        471        454        453        471        472        455        454        472        473        456        455        473        474        457        456        474        475        458        457        476        477        460        459        477        478        461        460        478        479        462        461        479        480        463        462        480        481        464        463        481        482        465        464        482        483        466        465        483        484        467        466        484        485        468        467        485        486        469        468        486        487        470        469        487        488        471        470        488        489        472        471        489        490        473        472        490        491        474        473        491        492        475        474        493        494        477        476        494        495        478        477        495        496        479        478        496        497        480        479        497        498        481        480        498        499        482        481        499        500        483        482        500        501        484        483        501        502        485        484        502        503        486        485        503        504        487        486        504        505        488        487        505        506        489        488        506        507        490        489        507        508        491        490        508        509        492        491        510        511        494        493        511        512        495        494        512        513        496        495        513        514        497        496        514        515        498        497        515        516        499        498        516        517        500        499        517        518        501        500        518        519        502        501        519        520        503        502        520        521        504        503        521        522        505        504        522        523        506        505        523        524        507        506        524        525        508        507        525        526        509        508        527        528        511        510        528        529        512        511        529        530        513        512        530        531        514        513        531        532        515        514        532        533        516        515        533        534        517        516        534        535        518        517        535        536        519        518        536        537        520        519        537        538        521        520        538        539        522        521        539        540        523        522        540        541        524        523        541        542        525        524        542        543        526        525        544        545        528        527        545        546        529        528        546        547        530        529        547        548        531        530        548        549        532        531        549        550        533        532        550        551        534        533        551        552        535        534        552        553        536        535        553        554        537        536        554        555        538        537        555        556        539        538        556        557        540        539        557        558        541        540        558        559        542        541        559        560        543        542        561        562        545        544        562        563        546        545        563        564        547        546        564        565        548        547        565        566        549        548        566        567        550        549        567        568        551        550        568        569        552        551        569        570        553        552        570        571        554        553        571        572        555        554        572        573        556        555        573        574        557        556        574        575        558        557        575        576        559        558        576        577        560        559        578        579        596        595        579        580        597        596        580        581        598        597        581        582        599        598        582        583        600        599        583        584        601        600        584        585        602        601        585        586        603        602        586        587        604        603        587        588        605        604        588        589        606        605        589        590        607        606        590        591        608        607        591        592        609        608        592        593        610        609        593        594        611        610        595        596        613        612        596        597        614        613        597        598        615        614        598        599        616        615        599        600        617        616        600        601        618        617        601        602        619        618        602        603        620        619        603        604        621        620        604        605        622        621        605        606        623        622        606        607        624        623        607        608        625        624        608        609        626        625        609        610        627        626        610        611        628        627        612        613        630        629        613        614        631        630        614        615        632        631        615        616        633        632        616        617        634        633        617        618        635        634        618        619        636        635        619        620        637        636        620        621        638        637        621        622        639        638        622        623        640        639        623        624        641        640        624        625        642        641        625        626        643        642        626        627        644        643        627        628        645        644        629        630        647        646        630        631        648        647        631        632        649        648        632        633        650        649        633        634        651        650        634        635        652        651        635        636        653        652        636        637        654        653        637        638        655        654        638        639        656        655        639        640        657        656        640        641        658        657        641        642        659        658        642        643        660        659        643        644        661        660        644        645        662        661        646        647        664        663        647        648        665        664        648        649        666        665        649        650        667        666        650        651        668        667        651        652        669        668        652        653        670        669        653        654        671        670        654        655        672        671        655        656        673        672        656        657        674        673        657        658        675        674        658        659        676        675        659        660        677        676        660        661        678        677        661        662        679        678        663        664        681        680        664        665        682        681        665        666        683        682        666        667        684        683        667        668        685        684        668        669        686        685        669        670        687        686        670        671        688        687        671        672        689        688        672        673        690        689        673        674        691        690        674        675        692        691        675        676        693        692        676        677        694        693        677        678        695        694        678        679        696        695        680        681        698        697        681        682        699        698        682        683        700        699        683        684        701        700        684        685        702        701        685        686        703        702        686        687        704        703        687        688        705        704        688        689        706        705        689        690        707        706        690        691        708        707        691        692        709        708        692        693        710        709        693        694        711        710        694        695        712        711        695        696        713        712        697        698        715        714        698        699        716        715        699        700        717        716        700        701        718        717        701        702        719        718        702        703        720        719        703        704        721        720        704        705        722        721        705        706        723        722        706        707        724        723        707        708        725        724        708        709        726        725        709        710        727        726        710        711        728        727        711        712        729        728        712        713        730        729        714        715        732        731        715        716        733        732        716        717        734        733        717        718        735        734        718        719        736        735        719        720        737        736        720        721        738        737        721        722        739        738        722        723        740        739        723        724        741        740        724        725        742        741        725        726        743        742        726        727        744        743        727        728        745        744        728        729        746        745        729        730        747        746        731        732        749        748        732        733        750        749        733        734        751        750        734        735        752        751        735        736        753        752        736        737        754        753        737        738        755        754        738        739        756        755        739        740        757        756        740        741        758        757        741        742        759        758        742        743        760        759        743        744        761        760        744        745        762        761        745        746        763        762        746        747        764        763        748        749        766        765        749        750        767        766        750        751        768        767        751        752        769        768        752        753        770        769        753        754        771        770        754        755        772        771        755        756        773        772        756        757        774        773        757        758        775        774        758        759        776        775        759        760        777        776        760        761        778        777        761        762        779        778        762        763        780        779        763        764        781        780        765        766        783        782        766        767        784        783        767        768        785        784        768        769        786        785        769        770        787        786        770        771        788        787        771        772        789        788        772        773        790        789        773        774        791        790        774        775        792        791        775        776        793        792        776        777        794        793        777        778        795        794        778        779        796        795        779        780        797        796        780        781        798        797        782        783        800        799        783        784        801        800        784        785        802        801        785        786        803        802        786        787        804        803        787        788        805        804        788        789        806        805        789        790        807        806        790        791        808        807        791        792        809        808        792        793        810        809        793        794        811        810        794        795        812        811        795        796        813        812        796        797        814        813        797        798        815        814        799        800        817        816        800        801        818        817        801        802        819        818        802        803        820        819        803        804        821        820        804        805        822        821        805        806        823        822        806        807        824        823        807        808        825        824        808        809        826        825        809        810        827        826        810        811        828        827        811        812        829        828        812        813        830        829        813        814        831        830        814        815        832        831        816        817        834        833        817        818        835        834        818        819        836        835        819        820        837        836        820        821        838        837        821        822        839        838        822        823        840        839        823        824        841        840        824        825        842        841        825        826        843        842        826        827        844        843        827        828        845        844        828        829        846        845        829        830        847        846        830        831        848        847        831        832        849        848        833        834        562        561        834        835        563        562        835        836        564        563        836        837        565        564        837        838        566        565        838        839        567        566        839        840        568        567        840        841        569        568        841        842        570        569        842        843        571        570        843        844        572        571        844        845        573        572        845        846        574        573        846        847        575        574        847        848        576        575        848        849        577        576        884        885        579        578        885        886        580        579        886        887        581        580        887        888        582        581        888        889        583        582        889        890        584        583        890        891        585        584        891        892        586        585        892        893        587        586        893        894        588        587        894        895        589        588        895        896        590        589        896        897        591        590        897        898        592        591        898        899        593        592        899        900        594        593        901        902        885        884        902        903        886        885        903        904        887        886        904        905        888        887        905        906        889        888        906        907        890        889        907        908        891        890        908        909        892        891        909        910        893        892        910        911        894        893        911        912        895        894        912        913        896        895        913        914        897        896        914        915        898        897        915        916        899        898        916        917        900        899        918        919        902        901        919        920        903        902        920        921        904        903        921        922        905        904        922        923        906        905        923        924        907        906        924        925        908        907        925        926        909        908        926        927        910        909        927        928        911        910        928        929        912        911        929        930        913        912        930        931        914        913        931        932        915        914        932        933        916        915        933        934        917        916        935        936        919        918        936        937        920        919        937        938        921        920        938        939        922        921        939        940        923        922        940        941        924        923        941        942        925        924        942        943        926        925        943        944        927        926        944        945        928        927        945        946        929        928        946        947        930        929        947        948        931        930        948        949        932        931        949        950        933        932        950        951        934        933        952        953        936        935        953        954        937        936        954        955        938        937        955        956        939        938        956        957        940        939        957        958        941        940        958        959        942        941        959        960        943        942        960        961        944        943        961        962        945        944        962        963        946        945        963        964        947        946        964        965        948        947        965        966        949        948        966        967        950        949        967        968        951        950        969        970        953        952        970        971        954        953        971        972        955        954        972        973        956        955        973        974        957        956        974        975        958        957        975        976        959        958        976        977        960        959        977        978        961        960        978        979        962        961        979        980        963        962        980        981        964        963        981        982        965        964        982        983        966        965        983        984        967        966        984        985        968        967        986        987        970        969        987        988        971        970        988        989        972        971        989        990        973        972        990        991        974        973        991        992        975        974        992        993        976        975        993        994        977        976        994        995        978        977        995        996        979        978        996        997        980        979        997        998        981        980        998        999        982        981        999       1000        983        982       1000       1001        984        983       1001       1002        985        984       1003       1004        987        986       1004       1005        988        987       1005       1006        989        988       1006       1007        990        989       1007       1008        991        990       1008       1009        992        991       1009       1010        993        992       1010       1011        994        993       1011       1012        995        994       1012       1013        996        995       1013       1014        997        996       1014       1015        998        997       1015       1016        999        998       1016       1017       1000        999       1017       1018       1001       1000       1018       1019       1002       1001       1020       1021       1004       1003       1021       1022       1005       1004       1022       1023       1006       1005       1023       1024       1007       1006       1024       1025       1008       1007       1025       1026       1009       1008       1026       1027       1010       1009       1027       1028       1011       1010       1028       1029       1012       1011       1029       1030       1013       1012       1030       1031       1014       1013       1031       1032       1015       1014       1032       1033       1016       1015       1033       1034       1017       1016       1034       1035       1018       1017       1035       1036       1019       1018       1037       1038       1021       1020       1038       1039       1022       1021       1039       1040       1023       1022       1040       1041       1024       1023       1041       1042       1025       1024       1042       1043       1026       1025       1043       1044       1027       1026       1044       1045       1028       1027       1045       1046       1029       1028       1046       1047       1030       1029       1047       1048       1031       1030       1048       1049       1032       1031       1049       1050       1033       1032       1050       1051       1034       1033       1051       1052       1035       1034       1052       1053       1036       1035       1054       1055       1038       1037       1055       1056       1039       1038       1056       1057       1040       1039       1057       1058       1041       1040       1058       1059       1042       1041       1059       1060       1043       1042       1060       1061       1044       1043       1061       1062       1045       1044       1062       1063       1046       1045       1063       1064       1047       1046       1064       1065       1048       1047       1065       1066       1049       1048       1066       1067       1050       1049       1067       1068       1051       1050       1068       1069       1052       1051       1069       1070       1053       1052       1071       1072       1055       1054       1072       1073       1056       1055       1073       1074       1057       1056       1074       1075       1058       1057       1075       1076       1059       1058       1076       1077       1060       1059       1077       1078       1061       1060       1078       1079       1062       1061       1079       1080       1063       1062       1080       1081       1064       1063       1081       1082       1065       1064       1082       1083       1066       1065       1083       1084       1067       1066       1084       1085       1068       1067       1085       1086       1069       1068       1086       1087       1070       1069       1088       1089       1072       1071       1089       1090       1073       1072       1090       1091       1074       1073       1091       1092       1075       1074       1092       1093       1076       1075       1093       1094       1077       1076       1094       1095       1078       1077       1095       1096       1079       1078       1096       1097       1080       1079       1097       1098       1081       1080       1098       1099       1082       1081       1099       1100       1083       1082       1100       1101       1084       1083       1101       1102       1085       1084       1102       1103       1086       1085       1103       1104       1087       1086       1105       1106       1089       1088       1106       1107       1090       1089       1107       1108       1091       1090       1108       1109       1092       1091       1109       1110       1093       1092       1110       1111       1094       1093       1111       1112       1095       1094       1112       1113       1096       1095       1113       1114       1097       1096       1114       1115       1098       1097       1115       1116       1099       1098       1116       1117       1100       1099       1117       1118       1101       1100       1118       1119       1102       1101       1119       1120       1103       1102       1120       1121       1104       1103       1122       1123       1106       1105       1123       1124       1107       1106       1124       1125       1108       1107       1125       1126       1109       1108       1126       1127       1110       1109       1127       1128       1111       1110       1128       1129       1112       1111       1129       1130       1113       1112       1130       1131       1114       1113       1131       1132       1115       1114       1132       1133       1116       1115       1133       1134       1117       1116       1134       1135       1118       1117       1135       1136       1119       1118       1136       1137       1120       1119       1137       1138       1121       1120        272        273       1123       1122        273        274       1124       1123        274        275       1125       1124        275        276       1126       1125        276        277       1127       1126        277        278       1128       1127        278        279       1129       1128        279        280       1130       1129        280        281       1131       1130        281        282       1132       1131        282        283       1133       1132        283        284       1134       1133        284        285       1135       1134        285        286       1136       1135        286        287       1137       1136        287        288       1138       1137 </DataArray>
<DataArray type="Int32"                                    Name="offsets"                                                      NumberOfComponents=" 1" format="ascii">
         4          8         12         16         20         24         28         32         36         40         44         48         52         56         60         64         68         72         76         80         84         88         92         96        100        104        108        112        116        120        124        128        132        136        140        144        148        152        156        160        164        168        172        176        180        184        188        192        196        200        204        208        212        216        220        224        228        232        236        240        244        248        252        256        260        264        268        272        276        280        284        288        292        296        300        304        308        312        316        320        324        328        332        336        340        344        348        352        356        360        364        368        372        376        380        384        388        392        396        400        404        408        412        416        420        424        428        432        436        440        444        448        452        456        460        464        468        472        476        480        484        488        492        496        500        504        508        512        516        520        524        528        532        536        540        544        548        552        556        560        564        568        572        576        580        584        588        592        596        600        604        608        612        616        620        624        628        632        636        640        644        648        652        656        660        664        668        672        676        680        684        688        692        696        700        704        708        712        716        720        724        728        732        736        740        744        748        752        756        760        764        768        772        776        780        784        788        792        796        800        804        808        812        816        820        824        828        832        836        840        844        848        852        856        860        864        868        872        876        880        884        888        892        896        900        904        908        912        916        920        924        928        932        936        940        944        948        952        956        960        964        968        972        976        980        984        988        992        996       1000       1004       1008       1012       1016       1020       1024       1028       1032       1036       1040       1044       1048       1052       1056       1060       1064       1068       1072       1076       1080       1084       1088       1092       1096       1100       1104       1108       1112       1116       1120       1124       1128       1132       1136       1140       1144       1148       1152       1156       1160       1164       1168       1172       1176       1180       1184       1188       1192       1196       1200       1204       1208       1212       1216       1220       1224       1228       1232       1236       1240       1244       1248       1252       1256       1260       1264       1268       1272       1276       1280       1284       1288       1292       1296       1300       1304       1308       1312       1316       1320       1324       1328       1332       1336       1340       1344       1348       1352       1356       1360       1364       1368       1372       1376       1380       1384       1388       1392       1396       1400       1404       1408       1412       1416       1420       1424       1428       1432       1436       1440       1444       1448       1452       1456       1460       1464       1468       1472       1476       1480       1484       1488       1492       1496       1500       1504       1508       1512       1516       1520       1524       1528       1532       1536       1540       1544       1548       1552       1556       1560       1564       1568       1572       1576       1580       1584       1588       1592       1596       1600       1604       1608       1612       1616       1620       1624       1628       1632       1636       1640       1644       1648       1652       1656       1660       1664       1668       1672       1676       1680       1684       1688       1692       1696       1700       1704       1708       1712       1716       1720       1724       1728       1732       1736       1740       1744       1748       1752       1756       1760       1764       1768       1772       1776       1780       1784       1788       1792       1796       1800       1804       1808       1812       1816       1820       1824       1828       1832       1836       1840       1844       1848       1852       1856       1860       1864       1868       1872       1876       1880       1884       1888       1892       1896       1900       1904       1908       1912       1916       1920       1924       1928       1932       1936       1940       1944       1948       1952       1956       1960       1964       1968       1972       1976       1980       1984       1988       1992       1996       2000       2004       2008       2012       2016       2020       2024       2028       2032       2036       2040       2044       2048       2052       2056       2060       2064       2068       2072       2076       2080       2084       2088       2092       2096       2100       2104       2108       2112       2116       2120       2124       2128       2132       2136       2140       2144       2148       2152       2156       2160       2164       2168       2172       2176       2180       2184       2188       2192       2196       2200       2204       2208       2212       2216       2220       2224       2228       2232       2236       2240       2244       2248       2252       2256       2260       2264       2268       2272       2276       2280       2284       2288       2292       2296       2300       2304       2308       2312       2316       2320       2324       2328       2332       2336       2340       2344       2348       2352       2356       2360       2364       2368       2372       2376       2380       2384       2388       2392       2396       2400       2404       2408       2412       2416       2420       2424       2428       2432       2436       2440       2444       2448       2452       2456       2460       2464       2468       2472       2476       2480       2484       2488       2492       2496       2500       2504       2508       2512       2516       2520       2524       2528       2532       2536       2540       2544       2548       2552       2556       2560       2564       2568       2572       2576       2580       2584       2588       2592       2596       2600       2604       2608       2612       2616       2620       2624       2628       2632       2636       2640       2644       2648       2652       2656       2660       2664       2668       2672       2676       2680       2684       2688       2692       2696       2700       2704       2708       2712       2716       2720       2724       2728       2732       2736       2740       2744       2748       2752       2756       2760       2764       2768       2772       2776       2780       2784       2788       2792       2796       2800       2804       2808       2812       2816       2820       2824       2828       2832       2836       2840       2844       2848       2852       2856       2860       2864       2868       2872       2876       2880       2884       2888       2892       2896       2900       2904       2908       2912       2916       2920       2924       2928       2932       2936       2940       2944       2948       2952       2956       2960       2964       2968       2972       2976       2980       2984       2988       2992       2996       3000       3004       3008       3012       3016       3020       3024       3028       3032       3036       3040       3044       3048       3052       3056       3060       3064       3068       3072       3076       3080       3084       3088       3092       3096       3100       3104       3108       3112       3116       3120       3124       3128       3132       3136       3140       3144       3148       3152       3156       3160       3164       3168       3172       3176       3180       3184       3188       3192       3196       3200       3204       3208       3212       3216       3220       3224       3228       3232       3236       3240       3244       3248       3252       3256       3260       3264       3268       3272       3276       3280       3284       3288       3292       3296       3300       3304       3308       3312       3316       3320       3324       3328       3332       3336       3340       3344       3348       3352       3356       3360       3364       3368       3372       3376       3380       3384       3388       3392       3396       3400       3404       3408       3412       3416       3420       3424       3428       3432       3436       3440       3444       3448       3452       3456       3460       3464       3468       3472       3476       3480       3484       3488       3492       3496       3500       3504       3508       3512       3516       3520       3524       3528       3532       3536       3540       3544       3548       3552       3556       3560       3564       3568       3572       3576       3580       3584       3588       3592       3596       3600       3604       3608       3612       3616       3620       3624       3628       3632       3636       3640       3644       3648       3652       3656       3660       3664       3668       3672       3676       3680       3684       3688       3692       3696       3700       3704       3708       3712       3716       3720       3724       3728       3732       3736       3740       3744       3748       3752       3756       3760       3764       3768       3772       3776       3780       3784       3788       3792       3796       3800       3804       3808       3812       3816       3820       3824       3828       3832       3836       3840       3844       3848       3852       3856       3860       3864       3868       3872       3876       3880       3884       3888       3892       3896       3900       3904       3908       3912       3916       3920       3924       3928       3932       3936       3940       3944       3948       3952       3956       3960       3964       3968       3972       3976       3980       3984       3988       3992       3996       4000       4004       4008       4012       4016       4020       4024       4028       4032       4036       4040       4044       4048       4052       4056       4060       4064       4068       4072       4076       4080       4084       4088       4092       4096 </DataArray>
<DataArray type="UInt8"                                    Name="types"                                                      NumberOfComponents=" 1" format="ascii">
         9          9          9          9          9          9          9          9          9          9          9          9          9          9          9          9          9          9          9          9          9          9          9          9          9          9          9          9          9          9          9          9          9          9          9          9          9          9          9          9          9          9          9          9          9          9          9          9          9          9          9          9          9          9          9          9          9          9          9          9          9          9          9          9          9          9          9          9          9          9          9          9          9          9          9          9          9          9          9          9          9          9          9          9          9          9          9          9          9          9          9          9          9          9          9          9          9          9          9          9          9          9          9          9          9          9          9          9          9          9          9          9          9          9          9          9          9          9          9          9          9          9          9          9          9          9          9          9          9          9          9          9          9          9          9          9          9          9          9          9          9          9          9          9          9          9          9          9          9          9          9          9          9          9          9          9          9          9          9          9          9          9          9          9          9          9          9          9          9          9          9          9          9          9          9          9          9          9          9          9          9          9          9          9          9          9          9          9          9          9          9          9          9          9          9          9          9          9          9          9          9          9          9          9          9          9          9          9          9          9          9          9          9          9          9          9          9          9          9          9          9          9          9          9          9          9          9          9          9          9          9          9          9          9          9          9          9          9          9          9          9          9          9          9          9          9          9          9          9          9          9          9          9          9          9          9          9          9          9          9          9          9          9          9          9          9          9          9          9          9          9          9          9          9          9          9          9          9          9          9          9          9          9          9          9          9          9          9          9          9          9          9          9          9          9          9          9          9          9          9          9          9          9          9          9          9          9          9          9          9          9          9          9          9          9          9          9          9          9          9          9          9          9          9          9          9          9          9          9          9          9          9          9          9          9          9          9          9          9          9          9          9          9          9          9          9          9          9          9          9          9          9          9          9          9          9          9          9          9          9          9          9          9          9          9          9          9          9          9          9          9          9          9          9          9          9          9          9          9          9          9          9          9          9          9          9          9          9          9          9          9          9          9          9          9          9          9          9          9          9          9          9          9          9          9          9          9          9          9          9          9          9          9          9          9          9          9          9          9          9          9          9          9          9          9          9          9          9          9          9          9          9          9          9          9          9          9          9          9          9          9          9          9          9          9          9          9          9          9          9          9          9          9          9          9          9          9          9          9          9          9          9          9          9          9          9          9          9          9          9          9          9          9          9          9          9          9          9          9          9          9          9          9          9          9          9          9          9          9          9          9          9          9          9          9          9          9          9          9          9          9          9          9          9          9          9          9          9          9          9          9          9          9          9          9          9          9          9          9          9          9          9          9          9          9          9          9          9          9          9          9          9          9          9          9          9          9          9          9          9          9          9          9          9          9          9          9          9          9          9          9          9          9          9          9          9          9          9          9          9          9          9          9          9          9          9          9          9          9          9          9          9          9          9          9          9          9          9          9          9          9          9          9          9          9          9          9          9          9          9          9          9          9          9          9          9          9          9          9          9          9          9          9          9          9          9          9          9          9          9          9          9          9          9          9          9          9          9          9          9          9          9          9          9          9          9          9          9          9          9          9          9          9          9          9          9          9          9          9          9          9          9          9          9          9          9          9          9          9          9          9          9          9          9          9          9          9          9          9          9          9          9          9          9          9          9          9          9          9          9          9          9          9          9          9          9          9          9          9          9          9          9          9          9          9          9          9          9          9          9          9          9          9          9          9          9          9          9          9          9          9          9          9          9          9          9          9          9          9          9          9          9          9          9          9          9          9          9          9          9          9          9          9          9          9          9          9          9          9          9          9          9          9          9          9          9          9          9          9          9          9          9          9          9          9          9          9          9          9          9          9          9          9          9          9          9          9          9          9          9          9          9          9          9          9          9          9          9          9          9          9          9          9          9          9          9          9          9          9          9          9          9          9          9          9          9          9          9          9          9          9          9          9          9          9          9          9          9          9          9          9          9          9          9          9          9          9          9          9          9          9          9          9          9          9          9          9          9          9          9          9          9          9          9          9          9          9          9          9          9          9          9          9          9          9          9          9          9          9          9          9          9          9          9          9          9          9          9          9          9          9          9          9          9          9          9          9          9          9          9          9          9          9          9          9          9          9          9          9          9          9          9          9          9          9          9          9          9          9          9          9          9          9          9          9          9          9          9          9          9          9          9          9          9          9          9          9          9          9          9          9          9          9          9          9          9          9          9          9          9          9          9          9          9          9          9          9          9          9          9          9          9          9          9          9          9          9          9          9          9          9          9          9          9          9          9          9          9          9          9          9          9          9          9          9          9          9          9          9          9          9          9          9          9          9          9          9          9          9          9          9          9          9          9          9          9          9          9          9          9          9          9          9          9          9          9          9          9          9          9          9          9          9          9          9          9          9          9          9          9          9          9          9          9          9          9          9          9          9          9          9          9          9          9          9          9          9          9          9          9          9          9          9          9          9          9          9          9          9          9          9          9          9          9 </DataArray>
</Cells>
<CellData>
<DataArray type="Int32"                                    Name="material"                                                      NumberOfComponents=" 1" format="ascii">
         1          1          1          1          1          1          1          1          1          1          1          1          1          1          1          1          1          1          1          1          1          1          1          1          1          1          1          1          1          1          1          1          1          1          1          1          1          1          1          1          1          1          1          1          1          1          1          1          1          1          1          1          1          1          1          1          1          1          1          1          1          1          1          1          1          1          1          1          1          1          1          1          1          1          1          1          1          1          1          1          1          1          1          1          1          1          1          1          1          1          1          1          1          1          1          1          1          1          1          1          1          1          1          1          1          1          1          1          1          1          1          1          1          1          1          1          1          1          1          1          1          1          1          1          1          1          1          1          1          1          1          1          1          1          1          1          1          1          1          1          1          1          1          1          1          1          1          1          1          1          1          1          1          1          1          1          1          1          1          1          1          1          1          1          1          1          1          1          1          1          1          1          1          1          1          1          1          1          1          1          1          1          1          1          1          1          1          1          1          1          1          1          1          1          1          1          1          1          1          1          1          1          1          1          1          1          1          1          1          1          1          1          1          1          1          1          1          1          1          1          1          1          1          1          1          1          1          1          1          1          1          1          1          1          1          1          1          1          1          1          1          1          1          1          1          1          1          1          1          1          1          1          1          1          1          1          1          1          1          1          1          1          1          1          1          1          1          1          1          1          1          1          1          1          1          1          1          1          1          1          1          1          1          1          1          1          1          1          1          1          1          1          1          1          1          1          1          1          1          1          1          1          1          1          1          1          1          1          1          1          1          1          1          1          1          1          1          1          1          1          1          1          1          1          1          1          1          1          1          1          1          1          1          1          1          1          1          1          1          1          1          1          1          1          1          1          1          1          1          1          1          1          1          1          1          1          1          1          1          1          1          1          1          1          1          1          1          1          1          1          1          1          1          1          1          1          1          1          1          1          1          1          1          1          1          1          1          1          1          1          1          1          1          1          1          1          1          1          1          1          1          1          1          1          1          1          1          1          1          1          1          1          1          1          1          1          1          1          1          1          1          1          1          1          1          1          1          1          1          1          1          1          1          1          1          1          1          1          1          1          1          1          1          1          1          1          1          1          1          1          1          1          1          1          1          1          1          1          1          1          1          1          1          1          1          1          1          1          1          1          1          1          1          1          1          1          1          1          1          1          1          1          1          1          1          1          1          1          1          1          1          1          1          1          1          1          1          1          1          1          1          1          1          1          1          1          1          1          1          1          1          1          1          1          1          1          1          1          1          1          1          1          1          1          1          1          1          1          1          1          1          1          1          1          1          1          1          1          1          1          1          1          1          1          1          1          1          1          1          1          1          1          1          1          1          1          1          1          1          1          1          1          1          1          1          1          1          1          1          1          1          1          1          1          1          1          1          1          1          1          1          1          1          1          1          1          1          1          1          1          1          1          1          1          1          1          1          1          1          1          1          1          1          1          1          1          1          1          1          1          1          1          1          1          1          1          1          1          1          1          1          1          1          1          1          1          1          1          1          1          1          1          1          1          1          1          1          1          1          1          1          1          1          1          1          1          1          1          1          1          1          1          1          1          1          1          1          1          1          1          1          1          1          1          1          1          1          1          1          1          1          1          1          1          1          1          1          1          1          1          1          1          1          1          1          1          1          1          1          1          1          1          1          1          1          1          1          1          1          1          1          1          1          1          1          1          1          1          1          1          1          1          1          1          1          1          1          1          1          1          1          1          1          1          1          1          1          1          1          1          1          1          1          1          1          1          1          1          1          1          1          1          1          1          1          1          1          1          1          1          1          1          1          1          1          1          1          1          1          1          1          1          1          1          1          1          1          1          1          1          1          1          1          1          1          1          1          1          1          1          1          1          1          1          1          1          1          1          1          1          1          1          1          1          1          1          1          1          1          1          1          1          1          1          1          1          1          1          1          1          1          1          1          1          1          1          1          1          1          1          1          1          1          1          1          1          1          1          1          1          1          1          1          1          1          1          1          1          1          1          1          1          1          1          1          1          1          1          1          1          1          1          1          1          1          1          1          1          1          1          1          1          1          1          1          1          1          1          1          1          1          1          1          1          1          1          1          1          1          1          1          1          1          1          1          1          1          1          1          1          1          1          1          1          1          1          1          1          1          1          1          1          1          1          1          1          1          1          1          1          1          1          1          1          1          1          1          1          1          1          1          1          1          1          1          1          1          1          1          1          1          1          1          1          1          1          1          1          1          1          1          1          1          1          1          1          1          1          1          1          1          1          1          1          1          1          1          1          1          1          1          1          1          1          1          1          1          1          1          1          1          1          1          1          1          1          1          1          1          1          1          1          1          1          1          1          1          1          1          1          1          1          1          1          1          1          1          1          1          1          1          1          1          1          1          1          1          1          1          1          1          1          1          1          1          1          1          1          1          1          1          1          1          1 </DataArray>
</CellData>
<PointData>
<DataArray type="Float64"                                    Name="u"                                                      NumberOfComponents=" 3" format="ascii">
              0.000009018              -0.000000000               0.999999999               0.000002765              -0.000000000               0.999999999              -0.000000093              -0.000000000               0.999999999              -0.000001457               0.000000000               0.999999999              -0.000002184              -0.000000000               0.999999999              -0.000002729              -0.000000000               0.999999999              -0.000003367              -0.000000000               0.999999999              -0.000004229               0.000000000               0.999999999              -0.000005383               0.000000000               0.999999999              -0.000006956              -0.000000000               0.999999999              -0.000008979              -0.000000000               0.999999999              -0.000011477              -0.000000000               0.999999999              -0.000014487              -0.000000000               0.999999999              -0.000017924              -0.000000000               0.999999999              -0.000021771              -0.000000000               0.999999999              -0.000026167              -0.000000000               0.999999999              -0.000031104               0.000000000               0.999999999               0.000008951               0.000015625               0.999999999               0.000002896               0.000014122               0.999999999               0.000000143               0.000013702               0.999999999              -0.000001203               0.000013963               0.999999999              -0.000001990               0.000014678               0.999999999              -0.000002659               0.000015734               0.999999999              -0.000003432               0.000017061               0.999999999              -0.000004446               0.000018659               0.999999999              -0.000005802               0.000020462               0.999999999              -0.000007550               0.000022574               0.999999999              -0.000009768               0.000024931               0.999999999              -0.000012491               0.000027494               0.999999999              -0.000015708               0.000030177               0.999999999              -0.000019370               0.000032854               0.999999999              -0.000023455               0.000035718               0.999999999              -0.000027998               0.000038841               0.999999999              -0.000033027               0.000042172               0.999999999               0.000008752               0.000031127               0.999999999               0.000003270               0.000028071               0.999999999               0.000000810               0.000027341               0.999999999              -0.000000520               0.000027951               0.999999999              -0.000001485               0.000029454               0.999999999              -0.000002468               0.000031586               0.999999999              -0.000003659               0.000034309               0.999999999              -0.000005140               0.000037436               0.999999999              -0.000006988               0.000041139               0.999999999              -0.000009320               0.000045262               0.999999999              -0.000012110               0.000050029               0.999999999              -0.000015391               0.000055097               0.999999999              -0.000019149               0.000060324               0.999999999              -0.000023275               0.000065558               0.999999999              -0.000027856               0.000071150               0.999999999              -0.000032892               0.000077164               0.999999999              -0.000038338               0.000083452               0.999999999               0.000008418               0.000046329               0.999999999               0.000003902               0.000041721               0.999999999               0.000001840               0.000040809               0.999999999               0.000000464               0.000041924               0.999999999              -0.000000815               0.000044327               0.999999999              -0.000002298               0.000047697               0.999999999              -0.000004116               0.000051781               0.999999999              -0.000006294               0.000056610               0.999999999              -0.000008963               0.000062076               0.999999999              -0.000012126               0.000068376               0.999999999              -0.000015804               0.000075355               0.999999999              -0.000019920               0.000082758               0.999999999              -0.000024387               0.000090270               0.999999999              -0.000029225               0.000097940               0.999999999              -0.000034484               0.000106147               0.999999999              -0.000040144               0.000114710               0.999999999              -0.000046160               0.000123546               0.999999999               0.000007966               0.000061047               0.999999999               0.000004757               0.000054988               0.999999999               0.000003080               0.000054059               0.999999999               0.000001593               0.000055873               0.999999999              -0.000000140               0.000059326               0.999999999              -0.000002301               0.000063993               0.999999999              -0.000004888               0.000069597               0.999999999              -0.000007971               0.000076081               0.999999999              -0.000011550               0.000083482               0.999999999              -0.000015728               0.000091892               0.999999999              -0.000020359               0.000101062               0.999999999              -0.000025317               0.000110596               0.999999999              -0.000030583               0.000120282               0.999999999              -0.000036142               0.000130283               0.999999999              -0.000042122               0.000140898               0.999999999              -0.000048454               0.000151812               0.999999999              -0.000055080               0.000163000               0.999999999               0.000007443               0.000075162               0.999999999               0.000005746               0.000067773               0.999999999               0.000004399               0.000067037               0.999999999               0.000002653               0.000069689               0.999999999               0.000000331               0.000074320               0.999999999              -0.000002552               0.000080433               0.999999999              -0.000006007               0.000087629               0.999999999              -0.000010007               0.000095951               0.999999999              -0.000014599               0.000105387               0.999999999              -0.000019779               0.000115939               0.999999999              -0.000025326               0.000127131               0.999999999              -0.000031108               0.000138715               0.999999999              -0.000037143               0.000150452               0.999999999              -0.000043518               0.000162773               0.999999999              -0.000050220               0.000175792               0.999999999              -0.000057281               0.000189186               0.999999999              -0.000064820               0.000203019               0.999999999               0.000006841               0.000088527               0.999999999               0.000006782               0.000079985               0.999999999               0.000005620               0.000079625               0.999999999               0.000003455               0.000083222               0.999999999               0.000000498               0.000089193               0.999999999              -0.000003168               0.000096824               0.999999999              -0.000007452               0.000105803               0.999999999              -0.000012351               0.000116102               0.999999999              -0.000017871               0.000127687               0.999999999              -0.000023930               0.000140384               0.999999999              -0.000030329               0.000153659               0.999999999              -0.000036931               0.000167313               0.999999999              -0.000043842               0.000181362               0.999999999              -0.000051092               0.000196179               0.999999999              -0.000058721               0.000211884               0.999999999              -0.000066843               0.000228176               0.999999999              -0.000075459               0.000245072               0.999999999               0.000006150               0.000100933               0.999999999               0.000007754               0.000091571               0.999999999               0.000006583               0.000091728               0.999999999               0.000003881               0.000096347               0.999999999               0.000000219               0.000103722               0.999999999              -0.000004171               0.000112984               0.999999999              -0.000009199               0.000123876               0.999999999              -0.000014922               0.000136317               0.999999999              -0.000021325               0.000150277               0.999999999              -0.000028191               0.000165205               0.999999999              -0.000035278               0.000180662               0.999999999              -0.000042641               0.000196728               0.999999999              -0.000050275               0.000213625               0.999999999              -0.000058289               0.000231616               0.999999999              -0.000066849               0.000250746               0.999999999              -0.000075965               0.000270590               0.999999999              -0.000085550               0.000291059               0.999999999               0.000005359               0.000112177               0.999999999               0.000008593               0.000102525               0.999999999               0.000007156               0.000103223               0.999999999               0.000003870               0.000108926               0.999999999              -0.000000462               0.000117706               0.999999999              -0.000005491               0.000128699               0.999999999              -0.000011229               0.000141730               0.999999999              -0.000017787               0.000156533               0.999999999              -0.000024983               0.000172835               0.999999999              -0.000032407               0.000190099               0.999999999              -0.000040017               0.000208278               0.999999999              -0.000047847               0.000227506               0.999999999              -0.000056010               0.000248145               0.999999999              -0.000064816               0.000270216               0.999999999              -0.000074241               0.000293312               0.999999999              -0.000084183               0.000317263               0.999999999              -0.000094464               0.000341882               0.999999999               0.000004359               0.000122642               0.999999999               0.000008936               0.000113727               0.999999999               0.000008135               0.000113443               0.999999999               0.000005266               0.000117942               0.999999999               0.000001469               0.000125480               0.999999999              -0.000002945               0.000135234               0.999999999              -0.000007860               0.000146900               0.999999999              -0.000013456               0.000160196               0.999999999              -0.000019696               0.000174978               0.999999999              -0.000026283               0.000190921               0.999999999              -0.000032921               0.000207890               0.999999999              -0.000039440               0.000225868               0.999999999              -0.000046027               0.000245121               0.999999999              -0.000053198               0.000265630               0.999999999              -0.000060962               0.000287401               0.999999999              -0.000069071               0.000310192               0.999999999              -0.000077569               0.000334050               0.999999999               0.000003424               0.000132054               0.999999999               0.000008788               0.000124337               0.999999999               0.000008647               0.000123629               0.999999999               0.000006330               0.000127187               0.999999999               0.000003069               0.000133607               0.999999999              -0.000000649               0.000142289               0.999999999              -0.000004812               0.000152682               0.999999999              -0.000009454               0.000164638               0.999999999              -0.000014721               0.000178052               0.999999999              -0.000020252               0.000192692               0.999999999              -0.000025923               0.000208443               0.999999999              -0.000031534               0.000225251               0.999999999              -0.000037070               0.000243094               0.999999999              -0.000042731               0.000262180               0.999999999              -0.000048819               0.000282480               0.999999999              -0.000055290               0.000303844               0.999999999              -0.000062209               0.000326224               0.999999999               0.000002590               0.000140253               0.999999999               0.000008192               0.000134163               0.999999999               0.000008598               0.000133412               0.999999999               0.000006857               0.000136328               0.999999999               0.000004236               0.000141949               0.999999999               0.000001175               0.000149645               0.999999999              -0.000002154               0.000159013               0.999999999              -0.000005917               0.000169847               0.999999999              -0.000010137               0.000182036               0.999999999              -0.000014617               0.000195532               0.999999999              -0.000019299               0.000210080               0.999999999              -0.000024180               0.000225667               0.999999999              -0.000028778               0.000242339               0.999999999              -0.000033177               0.000260162               0.999999999              -0.000037889               0.000279124               0.999999999              -0.000042923               0.000299150               0.999999999              -0.000048122               0.000320155               0.999999999               0.000001879               0.000147120               0.999999999               0.000007129               0.000142813               0.999999999               0.000007934               0.000142373               0.999999999               0.000006759               0.000144995               0.999999999               0.000004739               0.000150054               0.999999999               0.000002419               0.000156993               0.999999999              -0.000000163               0.000165517               0.999999999              -0.000003040               0.000175457               0.999999999              -0.000006280               0.000186647               0.999999999              -0.000009807               0.000199047               0.999999999              -0.000013617               0.000212564               0.999999999              -0.000017482               0.000227128               0.999999999              -0.000021193               0.000242795               0.999999999              -0.000024648               0.000259539               0.999999999              -0.000028144               0.000277431               0.999999999              -0.000031848               0.000296329               0.999999999              -0.000035454               0.000316203               0.999999999               0.000001299               0.000152628               0.999999999               0.000005702               0.000149997               0.999999999               0.000006639               0.000150032               0.999999999               0.000005945               0.000152636               0.999999999               0.000004523               0.000157355               0.999999999               0.000002869               0.000163759               0.999999999               0.000001014               0.000171669               0.999999999              -0.000001075               0.000180898               0.999999999              -0.000003469               0.000191327               0.999999999              -0.000006064               0.000202905               0.999999999              -0.000008837               0.000215575               0.999999999              -0.000011668               0.000229426               0.999999999              -0.000014454               0.000244391               0.999999999              -0.000017142               0.000260346               0.999999999              -0.000019654               0.000277336               0.999999999              -0.000022044               0.000295302               0.999999999              -0.000024209               0.000314294               0.999999999               0.000000791               0.000156619               0.999999999               0.000003961               0.000155360               0.999999999               0.000004796               0.000155934               0.999999999               0.000004434               0.000158663               0.999999999               0.000003563               0.000163198               0.999999999               0.000002489               0.000169330               0.999999999               0.000001315               0.000176796               0.999999999              -0.000000068               0.000185532               0.999999999              -0.000001613               0.000195508               0.999999999              -0.000003288               0.000206630               0.999999999              -0.000005042               0.000218807               0.999999999              -0.000006940               0.000232087               0.999999999              -0.000008808               0.000246498               0.999999999              -0.000010668               0.000262029               0.999999999              -0.000012345               0.000278483               0.999999999              -0.000013594               0.000295782               0.999999999              -0.000014419               0.000314112               0.999999999               0.000000356               0.000159016               0.999999999               0.000002022               0.000158702               0.999999999               0.000002534               0.000159676               0.999999999               0.000002373               0.000162524               0.999999999               0.000001966               0.000167033               0.999999999               0.000001432               0.000173016               0.999999999               0.000000874               0.000180247               0.999999999               0.000000159               0.000188724               0.999999999              -0.000000559               0.000198438               0.999999999              -0.000001299               0.000209307               0.999999999              -0.000002272               0.000221288               0.999999999              -0.000003218               0.000234344               0.999999999              -0.000004175               0.000248444               0.999999999              -0.000005059               0.000263612               0.999999999              -0.000005802               0.000279788               0.999999999              -0.000006368               0.000296956               0.999999999              -0.000006563               0.000315066               0.999999999               0.000000000               0.000159808               0.999999999              -0.000000000               0.000159854               0.999999999               0.000000000               0.000160978               0.999999999              -0.000000000               0.000163847               0.999999999               0.000000000               0.000168364               0.999999999              -0.000000000               0.000174290               0.999999999              -0.000000000               0.000181469               0.999999999               0.000000000               0.000189895               0.999999999               0.000000000               0.000199481               0.999999999               0.000000000               0.000210236               0.999999999               0.000000000               0.000222182               0.999999999               0.000000000               0.000235221               0.999999999               0.000000000               0.000249282               0.999999999               0.000000000               0.000264283               0.999999999              -0.000000000               0.000280326               0.999999999               0.000000000               0.000297584               0.999999999               0.000000000               0.000315751               0.999999999               0.000009018              -0.000000000               0.999999999               0.000002765              -0.000000000               0.999999999              -0.000000093              -0.000000000               0.999999999              -0.000001457               0.000000000               0.999999999              -0.000002184              -0.000000000               0.999999999              -0.000002729              -0.000000000               0.999999999              -0.000003367              -0.000000000               0.999999999              -0.000004229               0.000000000               0.999999999              -0.000005383               0.000000000               0.999999999              -0.000006956              -0.000000000               0.999999999              -0.000008979              -0.000000000               0.999999999              -0.000011477              -0.000000000               0.999999999              -0.000014487              -0.000000000               0.999999999              -0.000017924              -0.000000000               0.999999999              -0.000021771              -0.000000000               0.999999999              -0.000026167              -0.000000000               0.999999999              -0.000031104               0.000000000               0.999999999               0.000008951              -0.000015625               0.999999999               0.000002896              -0.000014122               0.999999999               0.000000143              -0.000013702               0.999999999              -0.000001203              -0.000013963               0.999999999              -0.000001990              -0.000014678               0.999999999              -0.000002659              -0.000015734               0.999999999              -0.000003432              -0.000017061               0.999999999              -0.000004446              -0.000018659               0.999999999              -0.000005802              -0.000020462               0.999999999              -0.000007550              -0.000022574               0.999999999              -0.000009768              -0.000024931               0.999999999              -0.000012491              -0.000027494               0.999999999              -0.000015708              -0.000030177               0.999999999              -0.000019370              -0.000032854               0.999999999              -0.000023455              -0.000035718               0.999999999              -0.000027998              -0.000038841               0.999999999              -0.000033027              -0.000042172               0.999999999               0.000008752              -0.000031127               0.999999999               0.000003270              -0.000028071               0.999999999               0.000000810              -0.000027341               0.999999999              -0.000000520              -0.000027951               0.999999999              -0.000001485              -0.000029454               0.999999999              -0.000002468              -0.000031586               0.999999999              -0.000003659              -0.000034309               0.999999999              -0.000005140              -0.000037436               0.999999999              -0.000006988              -0.000041139               0.999999999              -0.000009320              -0.000045262               0.999999999              -0.000012110              -0.000050029               0.999999999              -0.000015391              -0.000055097               0.999999999              -0.000019149              -0.000060324               0.999999999              -0.000023275              -0.000065558               0.999999999              -0.000027856              -0.000071150               0.999999999              -0.000032892              -0.000077164               0.999999999              -0.000038338              -0.000083452               0.999999999               0.000008418              -0.000046329               0.999999999               0.000003902              -0.000041721               0.999999999               0.000001840              -0.000040809               0.999999999               0.000000464              -0.000041924               0.999999999              -0.000000815              -0.000044327               0.999999999              -0.000002298              -0.000047697               0.999999999              -0.000004116              -0.000051781               0.999999999              -0.000006294              -0.000056610               0.999999999              -0.000008963              -0.000062076               0.999999999              -0.000012126              -0.000068376               0.999999999              -0.000015804              -0.000075355               0.999999999              -0.000019920              -0.000082758               0.999999999              -0.000024387              -0.000090270               0.999999999              -0.000029225              -0.000097940               0.999999999              -0.000034484              -0.000106147               0.999999999              -0.000040144              -0.000114710               0.999999999              -0.000046160              -0.000123546               0.999999999               0.000007966              -0.000061047               0.999999999               0.000004757              -0.000054988               0.999999999               0.000003080              -0.000054059               0.999999999               0.000001593              -0.000055873               0.999999999              -0.000000140              -0.000059326               0.999999999              -0.000002301              -0.000063993               0.999999999              -0.000004888              -0.000069597               0.999999999              -0.000007971              -0.000076081               0.999999999              -0.000011550              -0.000083482               0.999999999              -0.000015728              -0.000091892               0.999999999              -0.000020359              -0.000101062               0.999999999              -0.000025317              -0.000110596               0.999999999              -0.000030583              -0.000120282               0.999999999              -0.000036142              -0.000130283               0.999999999              -0.000042122              -0.000140898               0.999999999              -0.000048454              -0.000151812               0.999999999              -0.000055080              -0.000163000               0.999999999               0.000007443              -0.000075162               0.999999999               0.000005746              -0.000067773               0.999999999               0.000004399              -0.000067037               0.999999999               0.000002653              -0.000069689               0.999999999               0.000000331              -0.000074320               0.999999999              -0.000002552              -0.000080433               0.999999999              -0.000006007              -0.000087629               0.999999999              -0.000010007              -0.000095951               0.999999999              -0.000014599              -0.000105387               0.999999999              -0.000019779              -0.000115939               0.999999999              -0.000025326              -0.000127131               0.999999999              -0.000031108              -0.000138715               0.999999999              -0.000037143              -0.000150452               0.999999999              -0.000043518              -0.000162773               0.999999999              -0.000050220              -0.000175792               0.999999999              -0.000057281              -0.000189186               0.999999999              -0.000064820              -0.000203019               0.999999999               0.000006841              -0.000088527               0.999999999               0.000006782              -0.000079985               0.999999999               0.000005620              -0.000079625               0.999999999               0.000003455              -0.000083222               0.999999999               0.000000498              -0.000089193               0.999999999              -0.000003168              -0.000096824               0.999999999              -0.000007452              -0.000105803               0.999999999              -0.000012351              -0.000116102               0.999999999              -0.000017871              -0.000127687               0.999999999              -0.000023930              -0.000140384               0.999999999              -0.000030329              -0.000153659               0.999999999              -0.000036931              -0.000167313               0.999999999              -0.000043842              -0.000181362               0.999999999              -0.000051092              -0.000196179               0.999999999              -0.000058721              -0.000211884               0.999999999              -0.000066843              -0.000228176               0.999999999              -0.000075459              -0.000245072               0.999999999               0.000006150              -0.000100933               0.999999999               0.000007754              -0.000091571               0.999999999               0.000006583              -0.000091728               0.999999999               0.000003881              -0.000096347               0.999999999               0.000000219              -0.000103722               0.999999999              -0.000004171              -0.000112984               0.999999999              -0.000009199              -0.000123876               0.999999999              -0.000014922              -0.000136317               0.999999999              -0.000021325              -0.000150277               0.999999999              -0.000028191              -0.000165205               0.999999999              -0.000035278              -0.000180662               0.999999999              -0.000042641              -0.000196728               0.999999999              -0.000050275              -0.000213625               0.999999999              -0.000058289              -0.000231616               0.999999999              -0.000066849              -0.000250746               0.999999999              -0.000075965              -0.000270590               0.999999999              -0.000085550              -0.000291059               0.999999999               0.000005359              -0.000112177               0.999999999               0.000008593              -0.000102525               0.999999999               0.000007156              -0.000103223               0.999999999               0.000003870              -0.000108926               0.999999999              -0.000000462              -0.000117706               0.999999999              -0.000005491              -0.000128699               0.999999999              -0.000011229              -0.000141730               0.999999999              -0.000017787              -0.000156533               0.999999999              -0.000024983              -0.000172835               0.999999999              -0.000032407              -0.000190099               0.999999999              -0.000040017              -0.000208278               0.999999999              -0.000047847              -0.000227506               0.999999999              -0.000056010              -0.000248145               0.999999999              -0.000064816              -0.000270216               0.999999999              -0.000074241              -0.000293312               0.999999999              -0.000084183              -0.000317263               0.999999999              -0.000094464              -0.000341882               0.999999999               0.000004359              -0.000122642               0.999999999               0.000008936              -0.000113727               0.999999999               0.000008135              -0.000113443               0.999999999               0.000005266              -0.000117942               0.999999999               0.000001469              -0.000125480               0.999999999              -0.000002945              -0.000135234               0.999999999              -0.000007860              -0.000146900               0.999999999              -0.000013456              -0.000160196               0.999999999              -0.000019696              -0.000174978               0.999999999              -0.000026283              -0.000190921               0.999999999              -0.000032921              -0.000207890               0.999999999              -0.000039440              -0.000225868               0.999999999              -0.000046027              -0.000245121               0.999999999              -0.000053198              -0.000265630               0.999999999              -0.000060962              -0.000287401               0.999999999              -0.000069071              -0.000310192               0.999999999              -0.000077569              -0.000334050               0.999999999               0.000003424              -0.000132054               0.999999999               0.000008788              -0.000124337               0.999999999               0.000008647              -0.000123629               0.999999999               0.000006330              -0.000127187               0.999999999               0.000003069              -0.000133607               0.999999999              -0.000000649              -0.000142289               0.999999999              -0.000004812              -0.000152682               0.999999999              -0.000009454              -0.000164638               0.999999999              -0.000014721              -0.000178052               0.999999999              -0.000020252              -0.000192692               0.999999999              -0.000025923              -0.000208443               0.999999999              -0.000031534              -0.000225251               0.999999999              -0.000037070              -0.000243094               0.999999999              -0.000042731              -0.000262180               0.999999999              -0.000048819              -0.000282480               0.999999999              -0.000055290              -0.000303844               0.999999999              -0.000062209              -0.000326224               0.999999999               0.000002590              -0.000140253               0.999999999               0.000008192              -0.000134163               0.999999999               0.000008598              -0.000133412               0.999999999               0.000006857              -0.000136328               0.999999999               0.000004236              -0.000141949               0.999999999               0.000001175              -0.000149645               0.999999999              -0.000002154              -0.000159013               0.999999999              -0.000005917              -0.000169847               0.999999999              -0.000010137              -0.000182036               0.999999999              -0.000014617              -0.000195532               0.999999999              -0.000019299              -0.000210080               0.999999999              -0.000024180              -0.000225667               0.999999999              -0.000028778              -0.000242339               0.999999999              -0.000033177              -0.000260162               0.999999999              -0.000037889              -0.000279124               0.999999999              -0.000042923              -0.000299150               0.999999999              -0.000048122              -0.000320155               0.999999999               0.000001879              -0.000147120               0.999999999               0.000007129              -0.000142813               0.999999999               0.000007934              -0.000142373               0.999999999               0.000006759              -0.000144995               0.999999999               0.000004739              -0.000150054               0.999999999               0.000002419              -0.000156993               0.999999999              -0.000000163              -0.000165517               0.999999999              -0.000003040              -0.000175457               0.999999999              -0.000006280              -0.000186647               0.999999999              -0.000009807              -0.000199047               0.999999999              -0.000013617              -0.000212564               0.999999999              -0.000017482              -0.000227128               0.999999999              -0.000021193              -0.000242795               0.999999999              -0.000024648              -0.000259539               0.999999999              -0.000028144              -0.000277431               0.999999999              -0.000031848              -0.000296329               0.999999999              -0.000035454              -0.000316203               0.999999999               0.000001299              -0.000152628               0.999999999               0.000005702              -0.000149997               0.999999999               0.000006639              -0.000150032               0.999999999               0.000005945              -0.000152636               0.999999999               0.000004523              -0.000157355               0.999999999               0.000002869              -0.000163759               0.999999999               0.000001014              -0.000171669               0.999999999              -0.000001075              -0.000180898               0.999999999              -0.000003469              -0.000191327               0.999999999              -0.000006064              -0.000202905               0.999999999              -0.000008837              -0.000215575               0.999999999              -0.000011668              -0.000229426               0.999999999              -0.000014454              -0.000244391               0.999999999              -0.000017142              -0.000260346               0.999999999              -0.000019654              -0.000277336               0.999999999              -0.000022044              -0.000295302               0.999999999              -0.000024209              -0.000314294               0.999999999               0.000000791              -0.000156619               0.999999999               0.000003961              -0.000155360               0.999999999               0.000004796              -0.000155934               0.999999999               0.000004434              -0.000158663               0.999999999               0.000003563              -0.000163198               0.999999999               0.000002489              -0.000169330               0.999999999               0.000001315              -0.000176796               0.999999999              -0.000000068              -0.000185532               0.999999999              -0.000001613              -0.000195508               0.999999999              -0.000003288              -0.000206630               0.999999999              -0.000005042              -0.000218807               0.999999999              -0.000006940              -0.000232087               0.999999999              -0.000008808              -0.000246498               0.999999999              -0.000010668              -0.000262029               0.999999999              -0.000012345              -0.000278483               0.999999999              -0.000013594              -0.000295782               0.999999999              -0.000014419              -0.000314112               0.999999999               0.000000356              -0.000159016               0.999999999               0.000002022              -0.000158702               0.999999999               0.000002534              -0.000159676               0.999999999               0.000002373              -0.000162524               0.999999999               0.000001966              -0.000167033               0.999999999               0.000001432              -0.000173016               0.999999999               0.000000874              -0.000180247               0.999999999               0.000000159              -0.000188724               0.999999999              -0.000000559              -0.000198438               0.999999999              -0.000001299              -0.000209307               0.999999999              -0.000002272              -0.000221288               0.999999999              -0.000003218              -0.000234344               0.999999999              -0.000004175              -0.000248444               0.999999999              -0.000005059              -0.000263612               0.999999999              -0.000005802              -0.000279788               0.999999999              -0.000006368              -0.000296956               0.999999999              -0.000006563              -0.000315066               0.999999999               0.000000000              -0.000159808               0.999999999              -0.000000000              -0.000159854               0.999999999               0.000000000              -0.000160978               0.999999999               0.000000000              -0.000163847               0.999999999              -0.000000000              -0.000168364               0.999999999              -0.000000000              -0.000174290               0.999999999               0.000000000              -0.000181469               0.999999999              -0.000000000              -0.000189895               0.999999999              -0.000000000              -0.000199481               0.999999999               0.000000000              -0.000210236               0.999999999               0.000000000              -0.000222182               0.999999999              -0.000000000              -0.000235221               0.999999999              -0.000000000              -0.000249282               0.999999999               0.000000000              -0.000264283               0.999999999               0.000000000              -0.000280326               0.999999999              -0.000000000              -0.000297584               0.999999999              -0.000000000              -0.000315751               0.999999999              -0.000009018               0.000000000               0.999999999              -0.000002765               0.000000000               0.999999999               0.000000093               0.000000000               0.999999999               0.000001457              -0.000000000               0.999999999               0.000002184              -0.000000000               0.999999999               0.000002729               0.000000000               0.999999999               0.000003367               0.000000000               0.999999999               0.000004229               0.000000000               0.999999999               0.000005383               0.000000000               0.999999999               0.000006956               0.000000000               0.999999999               0.000008979               0.000000000               0.999999999               0.000011477               0.000000000               0.999999999               0.000014487               0.000000000               0.999999999               0.000017924               0.000000000               0.999999999               0.000021771               0.000000000               0.999999999               0.000026167              -0.000000000               0.999999999               0.000031104              -0.000000000               0.999999999              -0.000008951              -0.000015625               0.999999999              -0.000002896              -0.000014122               0.999999999              -0.000000143              -0.000013702               0.999999999               0.000001203              -0.000013963               0.999999999               0.000001990              -0.000014678               0.999999999               0.000002659              -0.000015734               0.999999999               0.000003432              -0.000017061               0.999999999               0.000004446              -0.000018659               0.999999999               0.000005802              -0.000020462               0.999999999               0.000007550              -0.000022574               0.999999999               0.000009768              -0.000024931               0.999999999               0.000012491              -0.000027494               0.999999999               0.000015708              -0.000030177               0.999999999               0.000019370              -0.000032854               0.999999999               0.000023455              -0.000035718               0.999999999               0.000027998              -0.000038841               0.999999999               0.000033027              -0.000042172               0.999999999              -0.000008752              -0.000031127               0.999999999              -0.000003270              -0.000028071               0.999999999              -0.000000810              -0.000027341               0.999999999               0.000000520              -0.000027951               0.999999999               0.000001485              -0.000029454               0.999999999               0.000002468              -0.000031586               0.999999999               0.000003659              -0.000034309               0.999999999               0.000005140              -0.000037436               0.999999999               0.000006988              -0.000041139               0.999999999               0.000009320              -0.000045262               0.999999999               0.000012110              -0.000050029               0.999999999               0.000015391              -0.000055097               0.999999999               0.000019149              -0.000060324               0.999999999               0.000023275              -0.000065558               0.999999999               0.000027856              -0.000071150               0.999999999               0.000032892              -0.000077164               0.999999999               0.000038338              -0.000083452               0.999999999              -0.000008418              -0.000046329               0.999999999              -0.000003902              -0.000041721               0.999999999              -0.000001840              -0.000040809               0.999999999              -0.000000464              -0.000041924               0.999999999               0.000000815              -0.000044327               0.999999999               0.000002298              -0.000047697               0.999999999               0.000004116              -0.000051781               0.999999999               0.000006294              -0.000056610               0.999999999               0.000008963              -0.000062076               0.999999999               0.000012126              -0.000068376               0.999999999               0.000015804              -0.000075355               0.999999999               0.000019920              -0.000082758               0.999999999               0.000024387              -0.000090270               0.999999999               0.000029225              -0.000097940               0.999999999               0.000034484              -0.000106147               0.999999999               0.000040144              -0.000114710               0.999999999               0.000046160              -0.000123546               0.999999999              -0.000007966              -0.000061047               0.999999999              -0.000004757              -0.000054988               0.999999999              -0.000003080              -0.000054059               0.999999999              -0.000001593              -0.000055873               0.999999999               0.000000140              -0.000059326               0.999999999               0.000002301              -0.000063993               0.999999999               0.000004888              -0.000069597               0.999999999               0.000007971              -0.000076081               0.999999999               0.000011550              -0.000083482               0.999999999               0.000015728              -0.000091892               0.999999999               0.000020359              -0.000101062               0.999999999               0.000025317              -0.000110596               0.999999999               0.000030583              -0.000120282               0.999999999               0.000036142              -0.000130283               0.999999999               0.000042122              -0.000140898               0.999999999               0.000048454              -0.000151812               0.999999999               0.000055080              -0.000163000               0.999999999              -0.000007443              -0.000075162               0.999999999              -0.000005746              -0.000067773               0.999999999              -0.000004399              -0.000067037               0.999999999              -0.000002653              -0.000069689               0.999999999              -0.000000331              -0.000074320               0.999999999               0.000002552              -0.000080433               0.999999999               0.000006007              -0.000087629               0.999999999               0.000010007              -0.000095951               0.999999999               0.000014599              -0.000105387               0.999999999               0.000019779              -0.000115939               0.999999999               0.000025326              -0.000127131               0.999999999               0.000031108              -0.000138715               0.999999999               0.000037143              -0.000150452               0.999999999               0.000043518              -0.000162773               0.999999999               0.000050220              -0.000175792               0.999999999               0.000057281              -0.000189186               0.999999999               0.000064820              -0.000203019               0.999999999              -0.000006841              -0.000088527               0.999999999              -0.000006782              -0.000079985               0.999999999              -0.000005620              -0.000079625               0.999999999              -0.000003455              -0.000083222               0.999999999              -0.000000498              -0.000089193               0.999999999               0.000003168              -0.000096824               0.999999999               0.000007452              -0.000105803               0.999999999               0.000012351              -0.000116102               0.999999999               0.000017871              -0.000127687               0.999999999               0.000023930              -0.000140384               0.999999999               0.000030329              -0.000153659               0.999999999               0.000036931              -0.000167313               0.999999999               0.000043842              -0.000181362               0.999999999               0.000051092              -0.000196179               0.999999999               0.000058721              -0.000211884               0.999999999               0.000066843              -0.000228176               0.999999999               0.000075459              -0.000245072               0.999999999              -0.000006150              -0.000100933               0.999999999              -0.000007754              -0.000091571               0.999999999              -0.000006583              -0.000091728               0.999999999              -0.000003881              -0.000096347               0.999999999              -0.000000219              -0.000103722               0.999999999               0.000004171              -0.000112984               0.999999999               0.000009199              -0.000123876               0.999999999               0.000014922              -0.000136317               0.999999999               0.000021325              -0.000150277               0.999999999               0.000028191              -0.000165205               0.999999999               0.000035278              -0.000180662               0.999999999               0.000042641              -0.000196728               0.999999999               0.000050275              -0.000213625               0.999999999               0.000058289              -0.000231616               0.999999999               0.000066849              -0.000250746               0.999999999               0.000075965              -0.000270590               0.999999999               0.000085550              -0.000291059               0.999999999              -0.000005359              -0.000112177               0.999999999              -0.000008593              -0.000102525               0.999999999              -0.000007156              -0.000103223               0.999999999              -0.000003870              -0.000108926               0.999999999               0.000000462              -0.000117706               0.999999999               0.000005491              -0.000128699               0.999999999               0.000011229              -0.000141730               0.999999999               0.000017787              -0.000156533               0.999999999               0.000024983              -0.000172835               0.999999999               0.000032407              -0.000190099               0.999999999               0.000040017              -0.000208278               0.999999999               0.000047847              -0.000227506               0.999999999               0.000056010              -0.000248145               0.999999999               0.000064816              -0.000270216               0.999999999               0.000074241              -0.000293312               0.999999999               0.000084183              -0.000317263               0.999999999               0.000094464              -0.000341882               0.999999999              -0.000004359              -0.000122642               0.999999999              -0.000008936              -0.000113727               0.999999999              -0.000008135              -0.000113443               0.999999999              -0.000005266              -0.000117942               0.999999999              -0.000001469              -0.000125480               0.999999999               0.000002945              -0.000135234               0.999999999               0.000007860              -0.000146900               0.999999999               0.000013456              -0.000160196               0.999999999               0.000019696              -0.000174978               0.999999999               0.000026283              -0.000190921               0.999999999               0.000032921              -0.000207890               0.999999999               0.000039440              -0.000225868               0.999999999               0.000046027              -0.000245121               0.999999999               0.000053198              -0.000265630               0.999999999               0.000060962              -0.000287401               0.999999999               0.000069071              -0.000310192               0.999999999               0.000077569              -0.000334050               0.999999999              -0.000003424              -0.000132054               0.999999999              -0.000008788              -0.000124337               0.999999999              -0.000008647              -0.000123629               0.999999999              -0.000006330              -0.000127187               0.999999999              -0.000003069              -0.000133607               0.999999999               0.000000649              -0.000142289               0.999999999               0.000004812              -0.000152682               0.999999999               0.000009454              -0.000164638               0.999999999               0.000014721              -0.000178052               0.999999999               0.000020252              -0.000192692               0.999999999               0.000025923              -0.000208443               0.999999999               0.000031534              -0.000225251               0.999999999               0.000037070              -0.000243094               0.999999999               0.000042731              -0.000262180               0.999999999               0.000048819              -0.000282480               0.999999999               0.000055290              -0.000303844               0.999999999               0.000062209              -0.000326224               0.999999999              -0.000002590              -0.000140253               0.999999999              -0.000008192              -0.000134163               0.999999999              -0.000008598              -0.000133412               0.999999999              -0.000006857              -0.000136328               0.999999999              -0.000004236              -0.000141949               0.999999999              -0.000001175              -0.000149645               0.999999999               0.000002154              -0.000159013               0.999999999               0.000005917              -0.000169847               0.999999999               0.000010137              -0.000182036               0.999999999               0.000014617              -0.000195532               0.999999999               0.000019299              -0.000210080               0.999999999               0.000024180              -0.000225667               0.999999999               0.000028778              -0.000242339               0.999999999               0.000033177              -0.000260162               0.999999999               0.000037889              -0.000279124               0.999999999               0.000042923              -0.000299150               0.999999999               0.000048122              -0.000320155               0.999999999              -0.000001879              -0.000147120               0.999999999              -0.000007129              -0.000142813               0.999999999              -0.000007934              -0.000142373               0.999999999              -0.000006759              -0.000144995               0.999999999              -0.000004739              -0.000150054               0.999999999              -0.000002419              -0.000156993               0.999999999               0.000000163              -0.000165517               0.999999999               0.000003040              -0.000175457               0.999999999               0.000006280              -0.000186647               0.999999999               0.000009807              -0.000199047               0.999999999               0.000013617              -0.000212564               0.999999999               0.000017482              -0.000227128               0.999999999               0.000021193              -0.000242795               0.999999999               0.000024648              -0.000259539               0.999999999               0.000028144              -0.000277431               0.999999999               0.000031848              -0.000296329               0.999999999               0.000035454              -0.000316203               0.999999999              -0.000001299              -0.000152628               0.999999999              -0.000005702              -0.000149997               0.999999999              -0.000006639              -0.000150032               0.999999999              -0.000005945              -0.000152636               0.999999999              -0.000004523              -0.000157355               0.999999999              -0.000002869              -0.000163759               0.999999999              -0.000001014              -0.000171669               0.999999999               0.000001075              -0.000180898               0.999999999               0.000003469              -0.000191327               0.999999999               0.000006064              -0.000202905               0.999999999               0.000008837              -0.000215575               0.999999999               0.000011668              -0.000229426               0.999999999               0.000014454              -0.000244391               0.999999999               0.000017142              -0.000260346               0.999999999               0.000019654              -0.000277336               0.999999999               0.000022044              -0.000295302               0.999999999               0.000024209              -0.000314294               0.999999999              -0.000000791              -0.000156619               0.999999999              -0.000003961              -0.000155360               0.999999999              -0.000004796              -0.000155934               0.999999999              -0.000004434              -0.000158663               0.999999999              -0.000003563              -0.000163198               0.999999999              -0.000002489              -0.000169330               0.999999999              -0.000001315              -0.000176796               0.999999999               0.000000068              -0.000185532               0.999999999               0.000001613              -0.000195508               0.999999999               0.000003288              -0.000206630               0.999999999               0.000005042              -0.000218807               0.999999999               0.000006940              -0.000232087               0.999999999               0.000008808              -0.000246498               0.999999999               0.000010668              -0.000262029               0.999999999               0.000012345              -0.000278483               0.999999999               0.000013594              -0.000295782               0.999999999               0.000014419              -0.000314112               0.999999999              -0.000000356              -0.000159016               0.999999999              -0.000002022              -0.000158702               0.999999999              -0.000002534              -0.000159676               0.999999999              -0.000002373              -0.000162524               0.999999999              -0.000001966              -0.000167033               0.999999999              -0.000001432              -0.000173016               0.999999999              -0.000000874              -0.000180247               0.999999999              -0.000000159              -0.000188724               0.999999999               0.000000559              -0.000198438               0.999999999               0.000001299              -0.000209307               0.999999999               0.000002272              -0.000221288               0.999999999               0.000003218              -0.000234344               0.999999999               0.000004175              -0.000248444               0.999999999               0.000005059              -0.000263612               0.999999999               0.000005802              -0.000279788               0.999999999               0.000006368              -0.000296956               0.999999999               0.000006563              -0.000315066               0.999999999               0.000000000              -0.000159808               0.999999999              -0.000000000              -0.000159854               0.999999999               0.000000000              -0.000160978               0.999999999               0.000000000              -0.000163847               0.999999999              -0.000000000              -0.000168364               0.999999999              -0.000000000              -0.000174290               0.999999999               0.000000000              -0.000181469               0.999999999              -0.000000000              -0.000189895               0.999999999              -0.000000000              -0.000199481               0.999999999               0.000000000              -0.000210236               0.999999999               0.000000000              -0.000222182               0.999999999              -0.000000000              -0.000235221               0.999999999              -0.000000000              -0.000249282               0.999999999               0.000000000              -0.000264283               0.999999999               0.000000000              -0.000280326               0.999999999              -0.000000000              -0.000297584               0.999999999              -0.000000000              -0.000315751               0.999999999              -0.000009018               0.000000000               0.999999999              -0.000002765               0.000000000               0.999999999               0.000000093               0.000000000               0.999999999               0.000001457              -0.000000000               0.999999999               0.000002184              -0.000000000               0.999999999               0.000002729               0.000000000               0.999999999               0.000003367               0.000000000               0.999999999               0.000004229               0.000000000               0.999999999               0.000005383               0.000000000               0.999999999               0.000006956               0.000000000               0.999999999               0.000008979               0.000000000               0.999999999               0.000011477               0.000000000               0.999999999               0.000014487               0.000000000               0.999999999               0.000017924               0.000000000               0.999999999               0.000021771               0.000000000               0.999999999               0.000026167              -0.000000000               0.999999999               0.000031104              -0.000000000               0.999999999              -0.000008951               0.000015625               0.999999999              -0.000002896               0.000014122               0.999999999              -0.000000143               0.000013702               0.999999999               0.000001203               0.000013963               0.999999999               0.000001990               0.000014678               0.999999999               0.000002659               0.000015734               0.999999999               0.000003432               0.000017061               0.999999999               0.000004446               0.000018659               0.999999999               0.000005802               0.000020462               0.999999999               0.000007550               0.000022574               0.999999999               0.000009768               0.000024931               0.999999999               0.000012491               0.000027494               0.999999999               0.000015708               0.000030177               0.999999999               0.000019370               0.000032854               0.999999999               0.000023455               0.000035718               0.999999999               0.000027998               0.000038841               0.999999999               0.000033027               0.000042172               0.999999999              -0.000008752               0.000031127               0.999999999              -0.000003270               0.000028071               0.999999999              -0.000000810               0.000027341               0.999999999               0.000000520               0.000027951               0.999999999               0.000001485               0.000029454               0.999999999               0.000002468               0.000031586               0.999999999               0.000003659               0.000034309               0.999999999               0.000005140               0.000037436               0.999999999               0.000006988               0.000041139               0.999999999               0.000009320               0.000045262               0.999999999               0.000012110               0.000050029               0.999999999               0.000015391               0.000055097               0.999999999               0.000019149               0.000060324               0.999999999               0.000023275               0.000065558               0.999999999               0.000027856               0.000071150               0.999999999               0.000032892               0.000077164               0.999999999               0.000038338               0.000083452               0.999999999              -0.000008418               0.000046329               0.999999999              -0.000003902               0.000041721               0.999999999              -0.000001840               0.000040809               0.999999999              -0.000000464               0.000041924               0.999999999               0.000000815               0.000044327               0.999999999               0.000002298               0.000047697               0.999999999               0.000004116               0.000051781               0.999999999               0.000006294               0.000056610               0.999999999               0.000008963               0.000062076               0.999999999               0.000012126               0.000068376               0.999999999               0.000015804               0.000075355               0.999999999               0.000019920               0.000082758               0.999999999               0.000024387               0.000090270               0.999999999               0.000029225               0.000097940               0.999999999               0.000034484               0.000106147               0.999999999               0.000040144               0.000114710               0.999999999               0.000046160               0.000123546               0.999999999              -0.000007966               0.000061047               0.999999999              -0.000004757               0.000054988               0.999999999              -0.000003080               0.000054059               0.999999999              -0.000001593               0.000055873               0.999999999               0.000000140               0.000059326               0.999999999               0.000002301               0.000063993               0.999999999               0.000004888               0.000069597               0.999999999               0.000007971               0.000076081               0.999999999               0.000011550               0.000083482               0.999999999               0.000015728               0.000091892               0.999999999               0.000020359               0.000101062               0.999999999               0.000025317               0.000110596               0.999999999               0.000030583               0.000120282               0.999999999               0.000036142               0.000130283               0.999999999               0.000042122               0.000140898               0.999999999               0.000048454               0.000151812               0.999999999               0.000055080               0.000163000               0.999999999              -0.000007443               0.000075162               0.999999999              -0.000005746               0.000067773               0.999999999              -0.000004399               0.000067037               0.999999999              -0.000002653               0.000069689               0.999999999              -0.000000331               0.000074320               0.999999999               0.000002552               0.000080433               0.999999999               0.000006007               0.000087629               0.999999999               0.000010007               0.000095951               0.999999999               0.000014599               0.000105387               0.999999999               0.000019779               0.000115939               0.999999999               0.000025326               0.000127131               0.999999999               0.000031108               0.000138715               0.999999999               0.000037143               0.000150452               0.999999999               0.000043518               0.000162773               0.999999999               0.000050220               0.000175792               0.999999999               0.000057281               0.000189186               0.999999999               0.000064820               0.000203019               0.999999999              -0.000006841               0.000088527               0.999999999              -0.000006782               0.000079985               0.999999999              -0.000005620               0.000079625               0.999999999              -0.000003455               0.000083222               0.999999999              -0.000000498               0.000089193               0.999999999               0.000003168               0.000096824               0.999999999               0.000007452               0.000105803               0.999999999               0.000012351               0.000116102               0.999999999               0.000017871               0.000127687               0.999999999               0.000023930               0.000140384               0.999999999               0.000030329               0.000153659               0.999999999               0.000036931               0.000167313               0.999999999               0.000043842               0.000181362               0.999999999               0.000051092               0.000196179               0.999999999               0.000058721               0.000211884               0.999999999               0.000066843               0.000228176               0.999999999               0.000075459               0.000245072               0.999999999              -0.000006150               0.000100933               0.999999999              -0.000007754               0.000091571               0.999999999              -0.000006583               0.000091728               0.999999999              -0.000003881               0.000096347               0.999999999              -0.000000219               0.000103722               0.999999999               0.000004171               0.000112984               0.999999999               0.000009199               0.000123876               0.999999999               0.000014922               0.000136317               0.999999999               0.000021325               0.000150277               0.999999999               0.000028191               0.000165205               0.999999999               0.000035278               0.000180662               0.999999999               0.000042641               0.000196728               0.999999999               0.000050275               0.000213625               0.999999999               0.000058289               0.000231616               0.999999999               0.000066849               0.000250746               0.999999999               0.000075965               0.000270590               0.999999999               0.000085550               0.000291059               0.999999999              -0.000005359               0.000112177               0.999999999              -0.000008593               0.000102525               0.999999999              -0.000007156               0.000103223               0.999999999              -0.000003870               0.000108926               0.999999999               0.000000462               0.000117706               0.999999999               0.000005491               0.000128699               0.999999999               0.000011229               0.000141730               0.999999999               0.000017787               0.000156533               0.999999999               0.000024983               0.000172835               0.999999999               0.000032407               0.000190099               0.999999999               0.000040017               0.000208278               0.999999999               0.000047847               0.000227506               0.999999999               0.000056010               0.000248145               0.999999999               0.000064816               0.000270216               0.999999999               0.000074241               0.000293312               0.999999999               0.000084183               0.000317263               0.999999999               0.000094464               0.000341882               0.999999999              -0.000004359               0.000122642               0.999999999              -0.000008936               0.000113727               0.999999999              -0.000008135               0.000113443               0.999999999              -0.000005266               0.000117942               0.999999999              -0.000001469               0.000125480               0.999999999               0.000002945               0.000135234               0.999999999               0.000007860               0.000146900               0.999999999               0.000013456               0.000160196               0.999999999               0.000019696               0.000174978               0.999999999               0.000026283               0.000190921               0.999999999               0.000032921               0.000207890               0.999999999               0.000039440               0.000225868               0.999999999               0.000046027               0.000245121               0.999999999               0.000053198               0.000265630               0.999999999               0.000060962               0.000287401               0.999999999               0.000069071               0.000310192               0.999999999               0.000077569               0.000334050               0.999999999              -0.000003424               0.000132054               0.999999999              -0.000008788               0.000124337               0.999999999              -0.000008647               0.000123629               0.999999999              -0.000006330               0.000127187               0.999999999              -0.000003069               0.000133607               0.999999999               0.000000649               0.000142289               0.999999999               0.000004812               0.000152682               0.999999999               0.000009454               0.000164638               0.999999999               0.000014721               0.000178052               0.999999999               0.000020252               0.000192692               0.999999999               0.000025923               0.000208443               0.999999999               0.000031534               0.000225251               0.999999999               0.000037070               0.000243094               0.999999999               0.000042731               0.000262180               0.999999999               0.000048819               0.000282480               0.999999999               0.000055290               0.000303844               0.999999999               0.000062209               0.000326224               0.999999999              -0.000002590               0.000140253               0.999999999              -0.000008192               0.000134163               0.999999999              -0.000008598               0.000133412               0.999999999              -0.000006857               0.000136328               0.999999999              -0.000004236               0.000141949               0.999999999              -0.000001175               0.000149645               0.999999999               0.000002154               0.000159013               0.999999999               0.000005917               0.000169847               0.999999999               0.000010137               0.000182036               0.999999999               0.000014617               0.000195532               0.999999999               0.000019299               0.000210080               0.999999999               0.000024180               0.000225667               0.999999999               0.000028778               0.000242339               0.999999999               0.000033177               0.000260162               0.999999999               0.000037889               0.000279124               0.999999999               0.000042923               0.000299150               0.999999999               0.000048122               0.000320155               0.999999999              -0.000001879               0.000147120               0.999999999              -0.000007129               0.000142813               0.999999999              -0.000007934               0.000142373               0.999999999              -0.000006759               0.000144995               0.999999999              -0.000004739               0.000150054               0.999999999              -0.000002419               0.000156993               0.999999999               0.000000163               0.000165517               0.999999999               0.000003040               0.000175457               0.999999999               0.000006280               0.000186647               0.999999999               0.000009807               0.000199047               0.999999999               0.000013617               0.000212564               0.999999999               0.000017482               0.000227128               0.999999999               0.000021193               0.000242795               0.999999999               0.000024648               0.000259539               0.999999999               0.000028144               0.000277431               0.999999999               0.000031848               0.000296329               0.999999999               0.000035454               0.000316203               0.999999999              -0.000001299               0.000152628               0.999999999              -0.000005702               0.000149997               0.999999999              -0.000006639               0.000150032               0.999999999              -0.000005945               0.000152636               0.999999999              -0.000004523               0.000157355               0.999999999              -0.000002869               0.000163759               0.999999999              -0.000001014               0.000171669               0.999999999               0.000001075               0.000180898               0.999999999               0.000003469               0.000191327               0.999999999               0.000006064               0.000202905               0.999999999               0.000008837               0.000215575               0.999999999               0.000011668               0.000229426               0.999999999               0.000014454               0.000244391               0.999999999               0.000017142               0.000260346               0.999999999               0.000019654               0.000277336               0.999999999               0.000022044               0.000295302               0.999999999               0.000024209               0.000314294               0.999999999              -0.000000791               0.000156619               0.999999999              -0.000003961               0.000155360               0.999999999              -0.000004796               0.000155934               0.999999999              -0.000004434               0.000158663               0.999999999              -0.000003563               0.000163198               0.999999999              -0.000002489               0.000169330               0.999999999              -0.000001315               0.000176796               0.999999999               0.000000068               0.000185532               0.999999999               0.000001613               0.000195508               0.999999999               0.000003288               0.000206630               0.999999999               0.000005042               0.000218807               0.999999999               0.000006940               0.000232087               0.999999999               0.000008808               0.000246498               0.999999999               0.000010668               0.000262029               0.999999999               0.000012345               0.000278483               0.999999999               0.000013594               0.000295782               0.999999999               0.000014419               0.000314112               0.999999999              -0.000000356               0.000159016               0.999999999              -0.000002022               0.000158702               0.999999999              -0.000002534               0.000159676               0.999999999              -0.000002373               0.000162524               0.999999999              -0.000001966               0.000167033               0.999999999              -0.000001432               0.000173016               0.999999999              -0.000000874               0.000180247               0.999999999              -0.000000159               0.000188724               0.999999999               0.000000559               0.000198438               0.999999999               0.000001299               0.000209307               0.999999999               0.000002272               0.000221288               0.999999999               0.000003218               0.000234344               0.999999999               0.000004175               0.000248444               0.999999999               0.000005059               0.000263612               0.999999999               0.000005802               0.000279788               0.999999999               0.000006368               0.000296956               0.999999999               0.000006563               0.000315066               0.999999999               0.000000000               0.000159808               0.999999999              -0.000000000               0.000159854               0.999999999               0.000000000               0.000160978               0.999999999              -0.000000000               0.000163847               0.999999999               0.000000000               0.000168364               0.999999999              -0.000000000               0.000174290               0.999999999              -0.000000000               0.000181469               0.999999999               0.000000000               0.000189895               0.999999999               0.000000000               0.000199481               0.999999999               0.000000000               0.000210236               0.999999999               0.000000000               0.000222182               0.999999999               0.000000000               0.000235221               0.999999999               0.000000000               0.000249282               0.999999999               0.000000000               0.000264283               0.999999999              -0.000000000               0.000280326               0.999999999               0.000000000               0.000297584               0.999999999               0.000000000               0.000315751               0.999999999 </DataArray>
<DataArray type="Float64"                                    Name="defo"                                                      NumberOfComponents=" 3" format="ascii">
              0.000009018              -0.000000000               0.999999999               0.000002765              -0.000000000               0.999999999              -0.000000093              -0.000000000               0.999999999              -0.000001457               0.000000000               0.999999999              -0.000002184              -0.000000000               0.999999999              -0.000002729              -0.000000000               0.999999999              -0.000003367              -0.000000000               0.999999999              -0.000004229               0.000000000               0.999999999              -0.000005383               0.000000000               0.999999999              -0.000006956              -0.000000000               0.999999999              -0.000008979              -0.000000000               0.999999999              -0.000011477              -0.000000000               0.999999999              -0.000014487              -0.000000000               0.999999999              -0.000017924              -0.000000000               0.999999999              -0.000021771              -0.000000000               0.999999999              -0.000026167              -0.000000000               0.999999999              -0.000031104               0.000000000               0.999999999               0.000008951               0.000015625               0.999999999               0.000002896               0.000014122               0.999999999               0.000000143               0.000013702               0.999999999              -0.000001203               0.000013963               0.999999999              -0.000001990               0.000014678               0.999999999              -0.000002659               0.000015734               0.999999999              -0.000003432               0.000017061               0.999999999              -0.000004446               0.000018659               0.999999999              -0.000005802               0.000020462               0.999999999              -0.000007550               0.000022574               0.999999999              -0.000009768               0.000024931               0.999999999              -0.000012491               0.000027494               0.999999999              -0.000015708               0.000030177               0.999999999              -0.000019370               0.000032854               0.999999999              -0.000023455               0.000035718               0.999999999              -0.000027998               0.000038841               0.999999999              -0.000033027               0.000042172               0.999999999               0.000008752               0.000031127               0.999999999               0.000003270               0.000028071               0.999999999               0.000000810               0.000027341               0.999999999              -0.000000520               0.000027951               0.999999999              -0.000001485               0.000029454               0.999999999              -0.000002468               0.000031586               0.999999999              -0.000003659               0.000034309               0.999999999              -0.000005140               0.000037436               0.999999999              -0.000006988               0.000041139               0.999999999              -0.000009320               0.000045262               0.999999999              -0.000012110               0.000050029               0.999999999              -0.000015391               0.000055097               0.999999999              -0.000019149               0.000060324               0.999999999              -0.000023275               0.000065558               0.999999999              -0.000027856               0.000071150               0.999999999              -0.000032892               0.000077164               0.999999999              -0.000038338               0.000083452               0.999999999               0.000008418               0.000046329               0.999999999               0.000003902               0.000041721               0.999999999               0.000001840               0.000040809               0.999999999               0.000000464               0.000041924               0.999999999              -0.000000815               0.000044327               0.999999999              -0.000002298               0.000047697               0.999999999              -0.000004116               0.000051781               0.999999999              -0.000006294               0.000056610               0.999999999              -0.000008963               0.000062076               0.999999999              -0.000012126               0.000068376               0.999999999              -0.000015804               0.000075355               0.999999999              -0.000019920               0.000082758               0.999999999              -0.000024387               0.000090270               0.999999999              -0.000029225               0.000097940               0.999999999              -0.000034484               0.000106147               0.999999999              -0.000040144               0.000114710               0.999999999              -0.000046160               0.000123546               0.999999999               0.000007966               0.000061047               0.999999999               0.000004757               0.000054988               0.999999999               0.000003080               0.000054059               0.999999999               0.000001593               0.000055873               0.999999999              -0.000000140               0.000059326               0.999999999              -0.000002301               0.000063993               0.999999999              -0.000004888               0.000069597               0.999999999              -0.000007971               0.000076081               0.999999999              -0.000011550               0.000083482               0.999999999              -0.000015728               0.000091892               0.999999999              -0.000020359               0.000101062               0.999999999              -0.000025317               0.000110596               0.999999999              -0.000030583               0.000120282               0.999999999              -0.000036142               0.000130283               0.999999999              -0.000042122               0.000140898               0.999999999              -0.000048454               0.000151812               0.999999999              -0.000055080               0.000163000               0.999999999               0.000007443               0.000075162               0.999999999               0.000005746               0.000067773               0.999999999               0.000004399               0.000067037               0.999999999               0.000002653               0.000069689               0.999999999               0.000000331               0.000074320               0.999999999              -0.000002552               0.000080433               0.999999999              -0.000006007               0.000087629               0.999999999              -0.000010007               0.000095951               0.999999999              -0.000014599               0.000105387               0.999999999              -0.000019779               0.000115939               0.999999999              -0.000025326               0.000127131               0.999999999              -0.000031108               0.000138715               0.999999999              -0.000037143               0.000150452               0.999999999              -0.000043518               0.000162773               0.999999999              -0.000050220               0.000175792               0.999999999              -0.000057281               0.000189186               0.999999999              -0.000064820               0.000203019               0.999999999               0.000006841               0.000088527               0.999999999               0.000006782               0.000079985               0.999999999               0.000005620               0.000079625               0.999999999               0.000003455               0.000083222               0.999999999               0.000000498               0.000089193               0.999999999              -0.000003168               0.000096824               0.999999999              -0.000007452               0.000105803               0.999999999              -0.000012351               0.000116102               0.999999999              -0.000017871               0.000127687               0.999999999              -0.000023930               0.000140384               0.999999999              -0.000030329               0.000153659               0.999999999              -0.000036931               0.000167313               0.999999999              -0.000043842               0.000181362               0.999999999              -0.000051092               0.000196179               0.999999999              -0.000058721               0.000211884               0.999999999              -0.000066843               0.000228176               0.999999999              -0.000075459               0.000245072               0.999999999               0.000006150               0.000100933               0.999999999               0.000007754               0.000091571               0.999999999               0.000006583               0.000091728               0.999999999               0.000003881               0.000096347               0.999999999               0.000000219               0.000103722               0.999999999              -0.000004171               0.000112984               0.999999999              -0.000009199               0.000123876               0.999999999              -0.000014922               0.000136317               0.999999999              -0.000021325               0.000150277               0.999999999              -0.000028191               0.000165205               0.999999999              -0.000035278               0.000180662               0.999999999              -0.000042641               0.000196728               0.999999999              -0.000050275               0.000213625               0.999999999              -0.000058289               0.000231616               0.999999999              -0.000066849               0.000250746               0.999999999              -0.000075965               0.000270590               0.999999999              -0.000085550               0.000291059               0.999999999               0.000005359               0.000112177               0.999999999               0.000008593               0.000102525               0.999999999               0.000007156               0.000103223               0.999999999               0.000003870               0.000108926               0.999999999              -0.000000462               0.000117706               0.999999999              -0.000005491               0.000128699               0.999999999              -0.000011229               0.000141730               0.999999999              -0.000017787               0.000156533               0.999999999              -0.000024983               0.000172835               0.999999999              -0.000032407               0.000190099               0.999999999              -0.000040017               0.000208278               0.999999999              -0.000047847               0.000227506               0.999999999              -0.000056010               0.000248145               0.999999999              -0.000064816               0.000270216               0.999999999              -0.000074241               0.000293312               0.999999999              -0.000084183               0.000317263               0.999999999              -0.000094464               0.000341882               0.999999999               0.000004359               0.000122642               0.999999999               0.000008936               0.000113727               0.999999999               0.000008135               0.000113443               0.999999999               0.000005266               0.000117942               0.999999999               0.000001469               0.000125480               0.999999999              -0.000002945               0.000135234               0.999999999              -0.000007860               0.000146900               0.999999999              -0.000013456               0.000160196               0.999999999              -0.000019696               0.000174978               0.999999999              -0.000026283               0.000190921               0.999999999              -0.000032921               0.000207890               0.999999999              -0.000039440               0.000225868               0.999999999              -0.000046027               0.000245121               0.999999999              -0.000053198               0.000265630               0.999999999              -0.000060962               0.000287401               0.999999999              -0.000069071               0.000310192               0.999999999              -0.000077569               0.000334050               0.999999999               0.000003424               0.000132054               0.999999999               0.000008788               0.000124337               0.999999999               0.000008647               0.000123629               0.999999999               0.000006330               0.000127187               0.999999999               0.000003069               0.000133607               0.999999999              -0.000000649               0.000142289               0.999999999              -0.000004812               0.000152682               0.999999999              -0.000009454               0.000164638               0.999999999              -0.000014721               0.000178052               0.999999999              -0.000020252               0.000192692               0.999999999              -0.000025923               0.000208443               0.999999999              -0.000031534               0.000225251               0.999999999              -0.000037070               0.000243094               0.999999999              -0.000042731               0.000262180               0.999999999              -0.000048819               0.000282480               0.999999999              -0.000055290               0.000303844               0.999999999              -0.000062209               0.000326224               0.999999999               0.000002590               0.000140253               0.999999999               0.000008192               0.000134163               0.999999999               0.000008598               0.000133412               0.999999999               0.000006857               0.000136328               0.999999999               0.000004236               0.000141949               0.999999999               0.000001175               0.000149645               0.999999999              -0.000002154               0.000159013               0.999999999              -0.000005917               0.000169847               0.999999999              -0.000010137               0.000182036               0.999999999              -0.000014617               0.000195532               0.999999999              -0.000019299               0.000210080               0.999999999              -0.000024180               0.000225667               0.999999999              -0.000028778               0.000242339               0.999999999              -0.000033177               0.000260162               0.999999999              -0.000037889               0.000279124               0.999999999              -0.000042923               0.000299150               0.999999999              -0.000048122               0.000320155               0.999999999               0.000001879               0.000147120               0.999999999               0.000007129               0.000142813               0.999999999               0.000007934               0.000142373               0.999999999               0.000006759               0.000144995               0.999999999               0.000004739               0.000150054               0.999999999               0.000002419               0.000156993               0.999999999              -0.000000163               0.000165517               0.999999999              -0.000003040               0.000175457               0.999999999              -0.000006280               0.000186647               0.999999999              -0.000009807               0.000199047               0.999999999              -0.000013617               0.000212564               0.999999999              -0.000017482               0.000227128               0.999999999              -0.000021193               0.000242795               0.999999999              -0.000024648               0.000259539               0.999999999              -0.000028144               0.000277431               0.999999999              -0.000031848               0.000296329               0.999999999              -0.000035454               0.000316203               0.999999999               0.000001299               0.000152628               0.999999999               0.000005702               0.000149997               0.999999999               0.000006639               0.000150032               0.999999999               0.000005945               0.000152636               0.999999999               0.000004523               0.000157355               0.999999999               0.000002869               0.000163759               0.999999999               0.000001014               0.000171669               0.999999999              -0.000001075               0.000180898               0.999999999              -0.000003469               0.000191327               0.999999999              -0.000006064               0.000202905               0.999999999              -0.000008837               0.000215575               0.999999999              -0.000011668               0.000229426               0.999999999              -0.000014454               0.000244391               0.999999999              -0.000017142               0.000260346               0.999999999              -0.000019654               0.000277336               0.999999999              -0.000022044               0.000295302               0.999999999              -0.000024209               0.000314294               0.999999999               0.000000791               0.000156619               0.999999999               0.000003961               0.000155360               0.999999999               0.000004796               0.000155934               0.999999999               0.000004434               0.000158663               0.999999999               0.000003563               0.000163198               0.999999999               0.000002489               0.000169330               0.999999999               0.000001315               0.000176796               0.999999999              -0.000000068               0.000185532               0.999999999              -0.000001613               0.000195508               0.999999999              -0.000003288               0.000206630               0.999999999              -0.000005042               0.000218807               0.999999999              -0.000006940               0.000232087               0.999999999              -0.000008808               0.000246498               0.999999999              -0.000010668               0.000262029               0.999999999              -0.000012345               0.000278483               0.999999999              -0.000013594               0.000295782               0.999999999              -0.000014419               0.000314112               0.999999999               0.000000356               0.000159016               0.999999999               0.000002022               0.000158702               0.999999999               0.000002534               0.000159676               0.999999999               0.000002373               0.000162524               0.999999999               0.000001966               0.000167033               0.999999999               0.000001432               0.000173016               0.999999999               0.000000874               0.000180247               0.999999999               0.000000159               0.000188724               0.999999999              -0.000000559               0.000198438               0.999999999              -0.000001299               0.000209307               0.999999999              -0.000002272               0.000221288               0.999999999              -0.000003218               0.000234344               0.999999999              -0.000004175               0.000248444               0.999999999              -0.000005059               0.000263612               0.999999999              -0.000005802               0.000279788               0.999999999              -0.000006368               0.000296956               0.999999999              -0.000006563               0.000315066               0.999999999               0.000000000               0.000159808               0.999999999              -0.000000000               0.000159854               0.999999999               0.000000000               0.000160978               0.999999999              -0.000000000               0.000163847               0.999999999               0.000000000               0.000168364               0.999999999              -0.000000000               0.000174290               0.999999999              -0.000000000               0.000181469               0.999999999               0.000000000               0.000189895               0.999999999               0.000000000               0.000199481               0.999999999               0.000000000               0.000210236               0.999999999               0.000000000               0.000222182               0.999999999               0.000000000               0.000235221               0.999999999               0.000000000               0.000249282               0.999999999               0.000000000               0.000264283               0.999999999              -0.000000000               0.000280326               0.999999999               0.000000000               0.000297584               0.999999999               0.000000000               0.000315751               0.999999999               0.000009018              -0.000000000               0.999999999               0.000002765              -0.000000000               0.999999999              -0.000000093              -0.000000000               0.999999999              -0.000001457               0.000000000               0.999999999              -0.000002184              -0.000000000               0.999999999              -0.000002729              -0.000000000               0.999999999              -0.000003367              -0.000000000               0.999999999              -0.000004229               0.000000000               0.999999999              -0.000005383               0.000000000               0.999999999              -0.000006956              -0.000000000               0.999999999              -0.000008979              -0.000000000               0.999999999              -0.000011477              -0.000000000               0.999999999              -0.000014487              -0.000000000               0.999999999              -0.000017924              -0.000000000               0.999999999              -0.000021771              -0.000000000               0.999999999              -0.000026167              -0.000000000               0.999999999              -0.000031104               0.000000000               0.999999999               0.000008951              -0.000015625               0.999999999               0.000002896              -0.000014122               0.999999999               0.000000143              -0.000013702               0.999999999              -0.000001203              -0.000013963               0.999999999              -0.000001990              -0.000014678               0.999999999              -0.000002659              -0.000015734               0.999999999              -0.000003432              -0.000017061               0.999999999              -0.000004446              -0.000018659               0.999999999              -0.000005802              -0.000020462               0.999999999              -0.000007550              -0.000022574               0.999999999              -0.000009768              -0.000024931               0.999999999              -0.000012491              -0.000027494               0.999999999              -0.000015708              -0.000030177               0.999999999              -0.000019370              -0.000032854               0.999999999              -0.000023455              -0.000035718               0.999999999              -0.000027998              -0.000038841               0.999999999              -0.000033027              -0.000042172               0.999999999               0.000008752              -0.000031127               0.999999999               0.000003270              -0.000028071               0.999999999               0.000000810              -0.000027341               0.999999999              -0.000000520              -0.000027951               0.999999999              -0.000001485              -0.000029454               0.999999999              -0.000002468              -0.000031586               0.999999999              -0.000003659              -0.000034309               0.999999999              -0.000005140              -0.000037436               0.999999999              -0.000006988              -0.000041139               0.999999999              -0.000009320              -0.000045262               0.999999999              -0.000012110              -0.000050029               0.999999999              -0.000015391              -0.000055097               0.999999999              -0.000019149              -0.000060324               0.999999999              -0.000023275              -0.000065558               0.999999999              -0.000027856              -0.000071150               0.999999999              -0.000032892              -0.000077164               0.999999999              -0.000038338              -0.000083452               0.999999999               0.000008418              -0.000046329               0.999999999               0.000003902              -0.000041721               0.999999999               0.000001840              -0.000040809               0.999999999               0.000000464              -0.000041924               0.999999999              -0.000000815              -0.000044327               0.999999999              -0.000002298              -0.000047697               0.999999999              -0.000004116              -0.000051781               0.999999999              -0.000006294              -0.000056610               0.999999999              -0.000008963              -0.000062076               0.999999999              -0.000012126              -0.000068376               0.999999999              -0.000015804              -0.000075355               0.999999999              -0.000019920              -0.000082758               0.999999999              -0.000024387              -0.000090270               0.999999999              -0.000029225              -0.000097940               0.999999999              -0.000034484              -0.000106147               0.999999999              -0.000040144              -0.000114710               0.999999999              -0.000046160              -0.000123546               0.999999999               0.000007966              -0.000061047               0.999999999               0.000004757              -0.000054988               0.999999999               0.000003080              -0.000054059               0.999999999               0.000001593              -0.000055873               0.999999999              -0.000000140              -0.000059326               0.999999999              -0.000002301              -0.000063993               0.999999999              -0.000004888              -0.000069597               0.999999999              -0.000007971              -0.000076081               0.999999999              -0.000011550              -0.000083482               0.999999999              -0.000015728              -0.000091892               0.999999999              -0.000020359              -0.000101062               0.999999999              -0.000025317              -0.000110596               0.999999999              -0.000030583              -0.000120282               0.999999999              -0.000036142              -0.000130283               0.999999999              -0.000042122              -0.000140898               0.999999999              -0.000048454              -0.000151812               0.999999999              -0.000055080              -0.000163000               0.999999999               0.000007443              -0.000075162               0.999999999               0.000005746              -0.000067773               0.999999999               0.000004399              -0.000067037               0.999999999               0.000002653              -0.000069689               0.999999999               0.000000331              -0.000074320               0.999999999              -0.000002552              -0.000080433               0.999999999              -0.000006007              -0.000087629               0.999999999              -0.000010007              -0.000095951               0.999999999              -0.000014599              -0.000105387               0.999999999              -0.000019779              -0.000115939               0.999999999              -0.000025326              -0.000127131               0.999999999              -0.000031108              -0.000138715               0.999999999              -0.000037143              -0.000150452               0.999999999              -0.000043518              -0.000162773               0.999999999              -0.000050220              -0.000175792               0.999999999              -0.000057281              -0.000189186               0.999999999              -0.000064820              -0.000203019               0.999999999               0.000006841              -0.000088527               0.999999999               0.000006782              -0.000079985               0.999999999               0.000005620              -0.000079625               0.999999999               0.000003455              -0.000083222               0.999999999               0.000000498              -0.000089193               0.999999999              -0.000003168              -0.000096824               0.999999999              -0.000007452              -0.000105803               0.999999999              -0.000012351              -0.000116102               0.999999999              -0.000017871              -0.000127687               0.999999999              -0.000023930              -0.000140384               0.999999999              -0.000030329              -0.000153659               0.999999999              -0.000036931              -0.000167313               0.999999999              -0.000043842              -0.000181362               0.999999999              -0.000051092              -0.000196179               0.999999999              -0.000058721              -0.000211884               0.999999999              -0.000066843              -0.000228176               0.999999999              -0.000075459              -0.000245072               0.999999999               0.000006150              -0.000100933               0.999999999               0.000007754              -0.000091571               0.999999999               0.000006583              -0.000091728               0.999999999               0.000003881              -0.000096347               0.999999999               0.000000219              -0.000103722               0.999999999              -0.000004171              -0.000112984               0.999999999              -0.000009199              -0.000123876               0.999999999              -0.000014922              -0.000136317               0.999999999              -0.000021325              -0.000150277               0.999999999              -0.000028191              -0.000165205               0.999999999              -0.000035278              -0.000180662               0.999999999              -0.000042641              -0.000196728               0.999999999              -0.000050275              -0.000213625               0.999999999              -0.000058289              -0.000231616               0.999999999              -0.000066849              -0.000250746               0.999999999              -0.000075965              -0.000270590               0.999999999              -0.000085550              -0.000291059               0.999999999               0.000005359              -0.000112177               0.999999999               0.000008593              -0.000102525               0.999999999               0.000007156              -0.000103223               0.999999999               0.000003870              -0.000108926               0.999999999              -0.000000462              -0.000117706               0.999999999              -0.000005491              -0.000128699               0.999999999              -0.000011229              -0.000141730               0.999999999              -0.000017787              -0.000156533               0.999999999              -0.000024983              -0.000172835               0.999999999              -0.000032407              -0.000190099               0.999999999              -0.000040017              -0.000208278               0.999999999              -0.000047847              -0.000227506               0.999999999              -0.000056010              -0.000248145               0.999999999              -0.000064816              -0.000270216               0.999999999              -0.000074241              -0.000293312               0.999999999              -0.000084183              -0.000317263               0.999999999              -0.000094464              -0.000341882               0.999999999               0.000004359              -0.000122642               0.999999999               0.000008936              -0.000113727               0.999999999               0.000008135              -0.000113443               0.999999999               0.000005266              -0.000117942               0.999999999               0.000001469              -0.000125480               0.999999999              -0.000002945              -0.000135234               0.999999999              -0.000007860              -0.000146900               0.999999999              -0.000013456              -0.000160196               0.999999999              -0.000019696              -0.000174978               0.999999999              -0.000026283              -0.000190921               0.999999999              -0.000032921              -0.000207890               0.999999999              -0.000039440              -0.000225868               0.999999999              -0.000046027              -0.000245121               0.999999999              -0.000053198              -0.000265630               0.999999999              -0.000060962              -0.000287401               0.999999999              -0.000069071              -0.000310192               0.999999999              -0.000077569              -0.000334050               0.999999999               0.000003424              -0.000132054               0.999999999               0.000008788              -0.000124337               0.999999999               0.000008647              -0.000123629               0.999999999               0.000006330              -0.000127187               0.999999999               0.000003069              -0.000133607               0.999999999              -0.000000649              -0.000142289               0.999999999              -0.000004812              -0.000152682               0.999999999              -0.000009454              -0.000164638               0.999999999              -0.000014721              -0.000178052               0.999999999              -0.000020252              -0.000192692               0.999999999              -0.000025923              -0.000208443               0.999999999              -0.000031534              -0.000225251               0.999999999              -0.000037070              -0.000243094               0.999999999              -0.000042731              -0.000262180               0.999999999              -0.000048819              -0.000282480               0.999999999              -0.000055290              -0.000303844               0.999999999              -0.000062209              -0.000326224               0.999999999               0.000002590              -0.000140253               0.999999999               0.000008192              -0.000134163               0.999999999               0.000008598              -0.000133412               0.999999999               0.000006857              -0.000136328               0.999999999               0.000004236              -0.000141949               0.999999999               0.000001175              -0.000149645               0.999999999              -0.000002154              -0.000159013               0.999999999              -0.000005917              -0.000169847               0.999999999              -0.000010137              -0.000182036               0.999999999              -0.000014617              -0.000195532               0.999999999              -0.000019299              -0.000210080               0.999999999              -0.000024180              -0.000225667               0.999999999              -0.000028778              -0.000242339               0.999999999              -0.000033177              -0.000260162               0.999999999              -0.000037889              -0.000279124               0.999999999              -0.000042923              -0.000299150               0.999999999              -0.000048122              -0.000320155               0.999999999               0.000001879              -0.000147120               0.999999999               0.000007129              -0.000142813               0.999999999               0.000007934              -0.000142373               0.999999999               0.000006759              -0.000144995               0.999999999               0.000004739              -0.000150054               0.999999999               0.000002419              -0.000156993               0.999999999              -0.000000163              -0.000165517               0.999999999              -0.000003040              -0.000175457               0.999999999              -0.000006280              -0.000186647               0.999999999              -0.000009807              -0.000199047               0.999999999              -0.000013617              -0.000212564               0.999999999              -0.000017482              -0.000227128               0.999999999              -0.000021193              -0.000242795               0.999999999              -0.000024648              -0.000259539               0.999999999              -0.000028144              -0.000277431               0.999999999              -0.000031848              -0.000296329               0.999999999              -0.000035454              -0.000316203               0.999999999               0.000001299              -0.000152628               0.999999999               0.000005702              -0.000149997               0.999999999               0.000006639              -0.000150032               0.999999999               0.000005945              -0.000152636               0.999999999               0.000004523              -0.000157355               0.999999999               0.000002869              -0.000163759               0.999999999               0.000001014              -0.000171669               0.999999999              -0.000001075              -0.000180898               0.999999999              -0.000003469              -0.000191327               0.999999999              -0.000006064              -0.000202905               0.999999999              -0.000008837              -0.000215575               0.999999999              -0.000011668              -0.000229426               0.999999999              -0.000014454              -0.000244391               0.999999999              -0.000017142              -0.000260346               0.999999999              -0.000019654              -0.000277336               0.999999999              -0.000022044              -0.000295302               0.999999999              -0.000024209              -0.000314294               0.999999999               0.000000791              -0.000156619               0.999999999               0.000003961              -0.000155360               0.999999999               0.000004796              -0.000155934               0.999999999               0.000004434              -0.000158663               0.999999999               0.000003563              -0.000163198               0.999999999               0.000002489              -0.000169330               0.999999999               0.000001315              -0.000176796               0.999999999              -0.000000068              -0.000185532               0.999999999              -0.000001613              -0.000195508               0.999999999              -0.000003288              -0.000206630               0.999999999              -0.000005042              -0.000218807               0.999999999              -0.000006940              -0.000232087               0.999999999              -0.000008808              -0.000246498               0.999999999              -0.000010668              -0.000262029               0.999999999              -0.000012345              -0.000278483               0.999999999              -0.000013594              -0.000295782               0.999999999              -0.000014419              -0.000314112               0.999999999               0.000000356              -0.000159016               0.999999999               0.000002022              -0.000158702               0.999999999               0.000002534              -0.000159676               0.999999999               0.000002373              -0.000162524               0.999999999               0.000001966              -0.000167033               0.999999999               0.000001432              -0.000173016               0.999999999               0.000000874              -0.000180247               0.999999999               0.000000159              -0.000188724               0.999999999              -0.000000559              -0.000198438               0.999999999              -0.000001299              -0.000209307               0.999999999              -0.000002272              -0.000221288               0.999999999              -0.000003218              -0.000234344               0.999999999              -0.000004175              -0.000248444               0.999999999              -0.000005059              -0.000263612               0.999999999              -0.000005802              -0.000279788               0.999999999              -0.000006368              -0.000296956               0.999999999              -0.000006563              -0.000315066               0.999999999               0.000000000              -0.000159808               0.999999999              -0.000000000              -0.000159854               0.999999999               0.000000000              -0.000160978               0.999999999               0.000000000              -0.000163847               0.999999999              -0.000000000              -0.000168364               0.999999999              -0.000000000              -0.000174290               0.999999999               0.000000000              -0.000181469               0.999999999              -0.000000000              -0.000189895               0.999999999              -0.000000000              -0.000199481               0.999999999               0.000000000              -0.000210236               0.999999999               0.000000000              -0.000222182               0.999999999              -0.000000000              -0.000235221               0.999999999              -0.000000000              -0.000249282               0.999999999               0.000000000              -0.000264283               0.999999999               0.000000000              -0.000280326               0.999999999              -0.000000000              -0.000297584               0.999999999              -0.000000000              -0.000315751               0.999999999              -0.000009018               0.000000000               0.999999999              -0.000002765               0.000000000               0.999999999               0.000000093               0.000000000               0.999999999               0.000001457              -0.000000000               0.999999999               0.000002184              -0.000000000               0.999999999               0.000002729               0.000000000               0.999999999               0.000003367               0.000000000               0.999999999               0.000004229               0.000000000               0.999999999               0.000005383               0.000000000               0.999999999               0.000006956               0.000000000               0.999999999               0.000008979               0.000000000               0.999999999               0.000011477               0.000000000               0.999999999               0.000014487               0.000000000               0.999999999               0.000017924               0.000000000               0.999999999               0.000021771               0.000000000               0.999999999               0.000026167              -0.000000000               0.999999999               0.000031104              -0.000000000               0.999999999              -0.000008951              -0.000015625               0.999999999              -0.000002896              -0.000014122               0.999999999              -0.000000143              -0.000013702               0.999999999               0.000001203              -0.000013963               0.999999999               0.000001990              -0.000014678               0.999999999               0.000002659              -0.000015734               0.999999999               0.000003432              -0.000017061               0.999999999               0.000004446              -0.000018659               0.999999999               0.000005802              -0.000020462               0.999999999               0.000007550              -0.000022574               0.999999999               0.000009768              -0.000024931               0.999999999               0.000012491              -0.000027494               0.999999999               0.000015708              -0.000030177               0.999999999               0.000019370              -0.000032854               0.999999999               0.000023455              -0.000035718               0.999999999               0.000027998              -0.000038841               0.999999999               0.000033027              -0.000042172               0.999999999              -0.000008752              -0.000031127               0.999999999              -0.000003270              -0.000028071               0.999999999              -0.000000810              -0.000027341               0.999999999               0.000000520              -0.000027951               0.999999999               0.000001485              -0.000029454               0.999999999               0.000002468              -0.000031586               0.999999999               0.000003659              -0.000034309               0.999999999               0.000005140              -0.000037436               0.999999999               0.000006988              -0.000041139               0.999999999               0.000009320              -0.000045262               0.999999999               0.000012110              -0.000050029               0.999999999               0.000015391              -0.000055097               0.999999999               0.000019149              -0.000060324               0.999999999               0.000023275              -0.000065558               0.999999999               0.000027856              -0.000071150               0.999999999               0.000032892              -0.000077164               0.999999999               0.000038338              -0.000083452               0.999999999              -0.000008418              -0.000046329               0.999999999              -0.000003902              -0.000041721               0.999999999              -0.000001840              -0.000040809               0.999999999              -0.000000464              -0.000041924               0.999999999               0.000000815              -0.000044327               0.999999999               0.000002298              -0.000047697               0.999999999               0.000004116              -0.000051781               0.999999999               0.000006294              -0.000056610               0.999999999               0.000008963              -0.000062076               0.999999999               0.000012126              -0.000068376               0.999999999               0.000015804              -0.000075355               0.999999999               0.000019920              -0.000082758               0.999999999               0.000024387              -0.000090270               0.999999999               0.000029225              -0.000097940               0.999999999               0.000034484              -0.000106147               0.999999999               0.000040144              -0.000114710               0.999999999               0.000046160              -0.000123546               0.999999999              -0.000007966              -0.000061047               0.999999999              -0.000004757              -0.000054988               0.999999999              -0.000003080              -0.000054059               0.999999999              -0.000001593              -0.000055873               0.999999999               0.000000140              -0.000059326               0.999999999               0.000002301              -0.000063993               0.999999999               0.000004888              -0.000069597               0.999999999               0.000007971              -0.000076081               0.999999999               0.000011550              -0.000083482               0.999999999               0.000015728              -0.000091892               0.999999999               0.000020359              -0.000101062               0.999999999               0.000025317              -0.000110596               0.999999999               0.000030583              -0.000120282               0.999999999               0.000036142              -0.000130283               0.999999999               0.000042122              -0.000140898               0.999999999               0.000048454              -0.000151812               0.999999999               0.000055080              -0.000163000               0.999999999              -0.000007443              -0.000075162               0.999999999              -0.000005746              -0.000067773               0.999999999              -0.000004399              -0.000067037               0.999999999              -0.000002653              -0.000069689               0.999999999              -0.000000331              -0.000074320               0.999999999               0.000002552              -0.000080433               0.999999999               0.000006007              -0.000087629               0.999999999               0.000010007              -0.000095951               0.999999999               0.000014599              -0.000105387               0.999999999               0.000019779              -0.000115939               0.999999999               0.000025326              -0.000127131               0.999999999               0.000031108              -0.000138715               0.999999999               0.000037143              -0.000150452               0.999999999               0.000043518              -0.000162773               0.999999999               0.000050220              -0.000175792               0.999999999               0.000057281              -0.000189186               0.999999999               0.000064820              -0.000203019               0.999999999              -0.000006841              -0.000088527               0.999999999              -0.000006782              -0.000079985               0.999999999              -0.000005620              -0.000079625               0.999999999              -0.000003455              -0.000083222               0.999999999              -0.000000498              -0.000089193               0.999999999               0.000003168              -0.000096824               0.999999999               0.000007452              -0.000105803               0.999999999               0.000012351              -0.000116102               0.999999999               0.000017871              -0.000127687               0.999999999               0.000023930              -0.000140384               0.999999999               0.000030329              -0.000153659               0.999999999               0.000036931              -0.000167313               0.999999999               0.000043842              -0.000181362               0.999999999               0.000051092              -0.000196179               0.999999999               0.000058721              -0.000211884               0.999999999               0.000066843              -0.000228176               0.999999999               0.000075459              -0.000245072               0.999999999              -0.000006150              -0.000100933               0.999999999              -0.000007754              -0.000091571               0.999999999              -0.000006583              -0.000091728               0.999999999              -0.000003881              -0.000096347               0.999999999              -0.000000219              -0.000103722               0.999999999               0.000004171              -0.000112984               0.999999999               0.000009199              -0.000123876               0.999999999               0.000014922              -0.000136317               0.999999999               0.000021325              -0.000150277               0.999999999               0.000028191              -0.000165205               0.999999999               0.000035278              -0.000180662               0.999999999               0.000042641              -0.000196728               0.999999999               0.000050275              -0.000213625               0.999999999               0.000058289              -0.000231616               0.999999999               0.000066849              -0.000250746               0.999999999               0.000075965              -0.000270590               0.999999999               0.000085550              -0.000291059               0.999999999              -0.000005359              -0.000112177               0.999999999              -0.000008593              -0.000102525               0.999999999              -0.000007156              -0.000103223               0.999999999              -0.000003870              -0.000108926               0.999999999               0.000000462              -0.000117706               0.999999999               0.000005491              -0.000128699               0.999999999               0.000011229              -0.000141730               0.999999999               0.000017787              -0.000156533               0.999999999               0.000024983              -0.000172835               0.999999999               0.000032407              -0.000190099               0.999999999               0.000040017              -0.000208278               0.999999999               0.000047847              -0.000227506               0.999999999               0.000056010              -0.000248145               0.999999999               0.000064816              -0.000270216               0.999999999               0.000074241              -0.000293312               0.999999999               0.000084183              -0.000317263               0.999999999               0.000094464              -0.000341882               0.999999999              -0.000004359              -0.000122642               0.999999999              -0.000008936              -0.000113727               0.999999999              -0.000008135              -0.000113443               0.999999999              -0.000005266              -0.000117942               0.999999999              -0.000001469              -0.000125480               0.999999999               0.000002945              -0.000135234               0.999999999               0.000007860              -0.000146900               0.999999999               0.000013456              -0.000160196               0.999999999               0.000019696              -0.000174978               0.999999999               0.000026283              -0.000190921               0.999999999               0.000032921              -0.000207890               0.999999999               0.000039440              -0.000225868               0.999999999               0.000046027              -0.000245121               0.999999999               0.000053198              -0.000265630               0.999999999               0.000060962              -0.000287401               0.999999999               0.000069071              -0.000310192               0.999999999               0.000077569              -0.000334050               0.999999999              -0.000003424              -0.000132054               0.999999999              -0.000008788              -0.000124337               0.999999999              -0.000008647              -0.000123629               0.999999999              -0.000006330              -0.000127187               0.999999999              -0.000003069              -0.000133607               0.999999999               0.000000649              -0.000142289               0.999999999               0.000004812              -0.000152682               0.999999999               0.000009454              -0.000164638               0.999999999               0.000014721              -0.000178052               0.999999999               0.000020252              -0.000192692               0.999999999               0.000025923              -0.000208443               0.999999999               0.000031534              -0.000225251               0.999999999               0.000037070              -0.000243094               0.999999999               0.000042731              -0.000262180               0.999999999               0.000048819              -0.000282480               0.999999999               0.000055290              -0.000303844               0.999999999               0.000062209              -0.000326224               0.999999999              -0.000002590              -0.000140253               0.999999999              -0.000008192              -0.000134163               0.999999999              -0.000008598              -0.000133412               0.999999999              -0.000006857              -0.000136328               0.999999999              -0.000004236              -0.000141949               0.999999999              -0.000001175              -0.000149645               0.999999999               0.000002154              -0.000159013               0.999999999               0.000005917              -0.000169847               0.999999999               0.000010137              -0.000182036               0.999999999               0.000014617              -0.000195532               0.999999999               0.000019299              -0.000210080               0.999999999               0.000024180              -0.000225667               0.999999999               0.000028778              -0.000242339               0.999999999               0.000033177              -0.000260162               0.999999999               0.000037889              -0.000279124               0.999999999               0.000042923              -0.000299150               0.999999999               0.000048122              -0.000320155               0.999999999              -0.000001879              -0.000147120               0.999999999              -0.000007129              -0.000142813               0.999999999              -0.000007934              -0.000142373               0.999999999              -0.000006759              -0.000144995               0.999999999              -0.000004739              -0.000150054               0.999999999              -0.000002419              -0.000156993               0.999999999               0.000000163              -0.000165517               0.999999999               0.000003040              -0.000175457               0.999999999               0.000006280              -0.000186647               0.999999999               0.000009807              -0.000199047               0.999999999               0.000013617              -0.000212564               0.999999999               0.000017482              -0.000227128               0.999999999               0.000021193              -0.000242795               0.999999999               0.000024648              -0.000259539               0.999999999               0.000028144              -0.000277431               0.999999999               0.000031848              -0.000296329               0.999999999               0.000035454              -0.000316203               0.999999999              -0.000001299              -0.000152628               0.999999999              -0.000005702              -0.000149997               0.999999999              -0.000006639              -0.000150032               0.999999999              -0.000005945              -0.000152636               0.999999999              -0.000004523              -0.000157355               0.999999999              -0.000002869              -0.000163759               0.999999999              -0.000001014              -0.000171669               0.999999999               0.000001075              -0.000180898               0.999999999               0.000003469              -0.000191327               0.999999999               0.000006064              -0.000202905               0.999999999               0.000008837              -0.000215575               0.999999999               0.000011668              -0.000229426               0.999999999               0.000014454              -0.000244391               0.999999999               0.000017142              -0.000260346               0.999999999               0.000019654              -0.000277336               0.999999999               0.000022044              -0.000295302               0.999999999               0.000024209              -0.000314294               0.999999999              -0.000000791              -0.000156619               0.999999999              -0.000003961              -0.000155360               0.999999999              -0.000004796              -0.000155934               0.999999999              -0.000004434              -0.000158663               0.999999999              -0.000003563              -0.000163198               0.999999999              -0.000002489              -0.000169330               0.999999999              -0.000001315              -0.000176796               0.999999999               0.000000068              -0.000185532               0.999999999               0.000001613              -0.000195508               0.999999999               0.000003288              -0.000206630               0.999999999               0.000005042              -0.000218807               0.999999999               0.000006940              -0.000232087               0.999999999               0.000008808              -0.000246498               0.999999999               0.000010668              -0.000262029               0.999999999               0.000012345              -0.000278483               0.999999999               0.000013594              -0.000295782               0.999999999               0.000014419              -0.000314112               0.999999999              -0.000000356              -0.000159016               0.999999999              -0.000002022              -0.000158702               0.999999999              -0.000002534              -0.000159676               0.999999999              -0.000002373              -0.000162524               0.999999999              -0.000001966              -0.000167033               0.999999999              -0.000001432              -0.000173016               0.999999999              -0.000000874              -0.000180247               0.999999999              -0.000000159              -0.000188724               0.999999999               0.000000559              -0.000198438               0.999999999               0.000001299              -0.000209307               0.999999999               0.000002272              -0.000221288               0.999999999               0.000003218              -0.000234344               0.999999999               0.000004175              -0.000248444               0.999999999               0.000005059              -0.000263612               0.999999999               0.000005802              -0.000279788               0.999999999               0.000006368              -0.000296956               0.999999999               0.000006563              -0.000315066               0.999999999               0.000000000              -0.000159808               0.999999999              -0.000000000              -0.000159854               0.999999999               0.000000000              -0.000160978               0.999999999               0.000000000              -0.000163847               0.999999999              -0.000000000              -0.000168364               0.999999999              -0.000000000              -0.000174290               0.999999999               0.000000000              -0.000181469               0.999999999              -0.000000000              -0.000189895               0.999999999              -0.000000000              -0.000199481               0.999999999               0.000000000              -0.000210236               0.999999999               0.000000000              -0.000222182               0.999999999              -0.000000000              -0.000235221               0.999999999              -0.000000000              -0.000249282               0.999999999               0.000000000              -0.000264283               0.999999999               0.000000000              -0.000280326               0.999999999              -0.000000000              -0.000297584               0.999999999              -0.000000000              -0.000315751               0.999999999              -0.000009018               0.000000000               0.999999999              -0.000002765               0.000000000               0.999999999               0.000000093               0.000000000               0.999999999               0.000001457              -0.000000000               0.999999999               0.000002184              -0.000000000               0.999999999               0.000002729               0.000000000               0.999999999               0.000003367               0.000000000               0.999999999               0.000004229               0.000000000               0.999999999               0.000005383               0.000000000               0.999999999               0.000006956               0.000000000               0.999999999               0.000008979               0.000000000               0.999999999               0.000011477               0.000000000               0.999999999               0.000014487               0.000000000               0.999999999               0.000017924               0.000000000               0.999999999               0.000021771               0.000000000               0.999999999               0.000026167              -0.000000000               0.999999999               0.000031104              -0.000000000               0.999999999              -0.000008951               0.000015625               0.999999999              -0.000002896               0.000014122               0.999999999              -0.000000143               0.000013702               0.999999999               0.000001203               0.000013963               0.999999999               0.000001990               0.000014678               0.999999999               0.000002659               0.000015734               0.999999999               0.000003432               0.000017061               0.999999999               0.000004446               0.000018659               0.999999999               0.000005802               0.000020462               0.999999999               0.000007550               0.000022574               0.999999999               0.000009768               0.000024931               0.999999999               0.000012491               0.000027494               0.999999999               0.000015708               0.000030177               0.999999999               0.000019370               0.000032854               0.999999999               0.000023455               0.000035718               0.999999999               0.000027998               0.000038841               0.999999999               0.000033027               0.000042172               0.999999999              -0.000008752               0.000031127               0.999999999              -0.000003270               0.000028071               0.999999999              -0.000000810               0.000027341               0.999999999               0.000000520               0.000027951               0.999999999               0.000001485               0.000029454               0.999999999               0.000002468               0.000031586               0.999999999               0.000003659               0.000034309               0.999999999               0.000005140               0.000037436               0.999999999               0.000006988               0.000041139               0.999999999               0.000009320               0.000045262               0.999999999               0.000012110               0.000050029               0.999999999               0.000015391               0.000055097               0.999999999               0.000019149               0.000060324               0.999999999               0.000023275               0.000065558               0.999999999               0.000027856               0.000071150               0.999999999               0.000032892               0.000077164               0.999999999               0.000038338               0.000083452               0.999999999              -0.000008418               0.000046329               0.999999999              -0.000003902               0.000041721               0.999999999              -0.000001840               0.000040809               0.999999999              -0.000000464               0.000041924               0.999999999               0.000000815               0.000044327               0.999999999               0.000002298               0.000047697               0.999999999               0.000004116               0.000051781               0.999999999               0.000006294               0.000056610               0.999999999               0.000008963               0.000062076               0.999999999               0.000012126               0.000068376               0.999999999               0.000015804               0.000075355               0.999999999               0.000019920               0.000082758               0.999999999               0.000024387               0.000090270               0.999999999               0.000029225               0.000097940               0.999999999               0.000034484               0.000106147               0.999999999               0.000040144               0.000114710               0.999999999               0.000046160               0.000123546               0.999999999              -0.000007966               0.000061047               0.999999999              -0.000004757               0.000054988               0.999999999              -0.000003080               0.000054059               0.999999999              -0.000001593               0.000055873               0.999999999               0.000000140               0.000059326               0.999999999               0.000002301               0.000063993               0.999999999               0.000004888               0.000069597               0.999999999               0.000007971               0.000076081               0.999999999               0.000011550               0.000083482               0.999999999               0.000015728               0.000091892               0.999999999               0.000020359               0.000101062               0.999999999               0.000025317               0.000110596               0.999999999               0.000030583               0.000120282               0.999999999               0.000036142               0.000130283               0.999999999               0.000042122               0.000140898               0.999999999               0.000048454               0.000151812               0.999999999               0.000055080               0.000163000               0.999999999              -0.000007443               0.000075162               0.999999999              -0.000005746               0.000067773               0.999999999              -0.000004399               0.000067037               0.999999999              -0.000002653               0.000069689               0.999999999              -0.000000331               0.000074320               0.999999999               0.000002552               0.000080433               0.999999999               0.000006007               0.000087629               0.999999999               0.000010007               0.000095951               0.999999999               0.000014599               0.000105387               0.999999999               0.000019779               0.000115939               0.999999999               0.000025326               0.000127131               0.999999999               0.000031108               0.000138715               0.999999999               0.000037143               0.000150452               0.999999999               0.000043518               0.000162773               0.999999999               0.000050220               0.000175792               0.999999999               0.000057281               0.000189186               0.999999999               0.000064820               0.000203019               0.999999999              -0.000006841               0.000088527               0.999999999              -0.000006782               0.000079985               0.999999999              -0.000005620               0.000079625               0.999999999              -0.000003455               0.000083222               0.999999999              -0.000000498               0.000089193               0.999999999               0.000003168               0.000096824               0.999999999               0.000007452               0.000105803               0.999999999               0.000012351               0.000116102               0.999999999               0.000017871               0.000127687               0.999999999               0.000023930               0.000140384               0.999999999               0.000030329               0.000153659               0.999999999               0.000036931               0.000167313               0.999999999               0.000043842               0.000181362               0.999999999               0.000051092               0.000196179               0.999999999               0.000058721               0.000211884               0.999999999               0.000066843               0.000228176               0.999999999               0.000075459               0.000245072               0.999999999              -0.000006150               0.000100933               0.999999999              -0.000007754               0.000091571               0.999999999              -0.000006583               0.000091728               0.999999999              -0.000003881               0.000096347               0.999999999              -0.000000219               0.000103722               0.999999999               0.000004171               0.000112984               0.999999999               0.000009199               0.000123876               0.999999999               0.000014922               0.000136317               0.999999999               0.000021325               0.000150277               0.999999999               0.000028191               0.000165205               0.999999999               0.000035278               0.000180662               0.999999999               0.000042641               0.000196728               0.999999999               0.000050275               0.000213625               0.999999999               0.000058289               0.000231616               0.999999999               0.000066849               0.000250746               0.999999999               0.000075965               0.000270590               0.999999999               0.000085550               0.000291059               0.999999999              -0.000005359               0.000112177               0.999999999              -0.000008593               0.000102525               0.999999999              -0.000007156               0.000103223               0.999999999              -0.000003870               0.000108926               0.999999999               0.000000462               0.000117706               0.999999999               0.000005491               0.000128699               0.999999999               0.000011229               0.000141730               0.999999999               0.000017787               0.000156533               0.999999999               0.000024983               0.000172835               0.999999999               0.000032407               0.000190099               0.999999999               0.000040017               0.000208278               0.999999999               0.000047847               0.000227506               0.999999999               0.000056010               0.000248145               0.999999999               0.000064816               0.000270216               0.999999999               0.000074241               0.000293312               0.999999999               0.000084183               0.000317263               0.999999999               0.000094464               0.000341882               0.999999999              -0.000004359               0.000122642               0.999999999              -0.000008936               0.000113727               0.999999999              -0.000008135               0.000113443               0.999999999              -0.000005266               0.000117942               0.999999999              -0.000001469               0.000125480               0.999999999               0.000002945               0.000135234               0.999999999               0.000007860               0.000146900               0.999999999               0.000013456               0.000160196               0.999999999               0.000019696               0.000174978               0.999999999               0.000026283               0.000190921               0.999999999               0.000032921               0.000207890               0.999999999               0.000039440               0.000225868               0.999999999               0.000046027               0.000245121               0.999999999               0.000053198               0.000265630               0.999999999               0.000060962               0.000287401               0.999999999               0.000069071               0.000310192               0.999999999               0.000077569               0.000334050               0.999999999              -0.000003424               0.000132054               0.999999999              -0.000008788               0.000124337               0.999999999              -0.000008647               0.000123629               0.999999999              -0.000006330               0.000127187               0.999999999              -0.000003069               0.000133607               0.999999999               0.000000649               0.000142289               0.999999999               0.000004812               0.000152682               0.999999999               0.000009454               0.000164638               0.999999999               0.000014721               0.000178052               0.999999999               0.000020252               0.000192692               0.999999999               0.000025923               0.000208443               0.999999999               0.000031534               0.000225251               0.999999999               0.000037070               0.000243094               0.999999999               0.000042731               0.000262180               0.999999999               0.000048819               0.000282480               0.999999999               0.000055290               0.000303844               0.999999999               0.000062209               0.000326224               0.999999999              -0.000002590               0.000140253               0.999999999              -0.000008192               0.000134163               0.999999999              -0.000008598               0.000133412               0.999999999              -0.000006857               0.000136328               0.999999999              -0.000004236               0.000141949               0.999999999              -0.000001175               0.000149645               0.999999999               0.000002154               0.000159013               0.999999999               0.000005917               0.000169847               0.999999999               0.000010137               0.000182036               0.999999999               0.000014617               0.000195532               0.999999999               0.000019299               0.000210080               0.999999999               0.000024180               0.000225667               0.999999999               0.000028778               0.000242339               0.999999999               0.000033177               0.000260162               0.999999999               0.000037889               0.000279124               0.999999999               0.000042923               0.000299150               0.999999999               0.000048122               0.000320155               0.999999999              -0.000001879               0.000147120               0.999999999              -0.000007129               0.000142813               0.999999999              -0.000007934               0.000142373               0.999999999              -0.000006759               0.000144995               0.999999999              -0.000004739               0.000150054               0.999999999              -0.000002419               0.000156993               0.999999999               0.000000163               0.000165517               0.999999999               0.000003040               0.000175457               0.999999999               0.000006280               0.000186647               0.999999999               0.000009807               0.000199047               0.999999999               0.000013617               0.000212564               0.999999999               0.000017482               0.000227128               0.999999999               0.000021193               0.000242795               0.999999999               0.000024648               0.000259539               0.999999999               0.000028144               0.000277431               0.999999999               0.000031848               0.000296329               0.999999999               0.000035454               0.000316203               0.999999999              -0.000001299               0.000152628               0.999999999              -0.000005702               0.000149997               0.999999999              -0.000006639               0.000150032               0.999999999              -0.000005945               0.000152636               0.999999999              -0.000004523               0.000157355               0.999999999              -0.000002869               0.000163759               0.999999999              -0.000001014               0.000171669               0.999999999               0.000001075               0.000180898               0.999999999               0.000003469               0.000191327               0.999999999               0.000006064               0.000202905               0.999999999               0.000008837               0.000215575               0.999999999               0.000011668               0.000229426               0.999999999               0.000014454               0.000244391               0.999999999               0.000017142               0.000260346               0.999999999               0.000019654               0.000277336               0.999999999               0.000022044               0.000295302               0.999999999               0.000024209               0.000314294               0.999999999              -0.000000791               0.000156619               0.999999999              -0.000003961               0.000155360               0.999999999              -0.000004796               0.000155934               0.999999999              -0.000004434               0.000158663               0.999999999              -0.000003563               0.000163198               0.999999999              -0.000002489               0.000169330               0.999999999              -0.000001315               0.000176796               0.999999999               0.000000068               0.000185532               0.999999999               0.000001613               0.000195508               0.999999999               0.000003288               0.000206630               0.999999999               0.000005042               0.000218807               0.999999999               0.000006940               0.000232087               0.999999999               0.000008808               0.000246498               0.999999999               0.000010668               0.000262029               0.999999999               0.000012345               0.000278483               0.999999999               0.000013594               0.000295782               0.999999999               0.000014419               0.000314112               0.999999999              -0.000000356               0.000159016               0.999999999              -0.000002022               0.000158702               0.999999999              -0.000002534               0.000159676               0.999999999              -0.000002373               0.000162524               0.999999999              -0.000001966               0.000167033               0.999999999              -0.000001432               0.000173016               0.999999999              -0.000000874               0.000180247               0.999999999              -0.000000159               0.000188724               0.999999999               0.000000559               0.000198438               0.999999999               0.000001299               0.000209307               0.999999999               0.000002272               0.000221288               0.999999999               0.000003218               0.000234344               0.999999999               0.000004175               0.000248444               0.999999999               0.000005059               0.000263612               0.999999999               0.000005802               0.000279788               0.999999999               0.000006368               0.000296956               0.999999999               0.000006563               0.000315066               0.999999999               0.000000000               0.000159808               0.999999999              -0.000000000               0.000159854               0.999999999               0.000000000               0.000160978               0.999999999              -0.000000000               0.000163847               0.999999999               0.000000000               0.000168364               0.999999999              -0.000000000               0.000174290               0.999999999              -0.000000000               0.000181469               0.999999999               0.000000000               0.000189895               0.999999999               0.000000000               0.000199481               0.999999999               0.000000000               0.000210236               0.999999999               0.000000000               0.000222182               0.999999999               0.000000000               0.000235221               0.999999999               0.000000000               0.000249282               0.999999999               0.000000000               0.000264283               0.999999999              -0.000000000               0.000280326               0.999999999               0.000000000               0.000297584               0.999999999               0.000000000               0.000315751               0.999999999 </DataArray>
<DataArray type="Float64"                                    Name="stress"                                                      NumberOfComponents="10" format="ascii">
              0.000264943               0.002947166               0.000000000              -0.000269042               0.001072059               0.000803018               0.000000000               0.000000000               0.000000000               0.000000000               0.000310006               0.002462924              -0.000000000              -0.000191613               0.000884837               0.000693224               0.000000000               0.000000000               0.000000000               0.000000000               0.000448555               0.002063806               0.000000000              -0.000089767               0.000717851               0.000628083               0.000000000               0.000000000               0.000000000               0.000000000               0.000491705               0.001840564               0.000000000              -0.000045681               0.000628742               0.000583061               0.000000000               0.000000000               0.000000000               0.000000000               0.000492212               0.001710266               0.000000000              -0.000029203               0.000579817               0.000550614               0.000000000               0.000000000               0.000000000               0.000000000               0.000470219               0.001633184               0.000000000              -0.000027816               0.000553661               0.000525845               0.000000000               0.000000000               0.000000000               0.000000000               0.000437083               0.001589815               0.000000000              -0.000034821               0.000541540               0.000506719               0.000000000               0.000000000               0.000000000               0.000000000               0.000399958               0.001570851               0.000000000              -0.000046372               0.000539069               0.000492697               0.000000000               0.000000000               0.000000000               0.000000000               0.000357588               0.001567668              -0.000000000              -0.000061863               0.000543172               0.000481309               0.000000000               0.000000000               0.000000000               0.000000000               0.000311744               0.001579997              -0.000000000              -0.000080596               0.000553526               0.000472930               0.000000000               0.000000000               0.000000000               0.000000000               0.000265205               0.001603290               0.000000000              -0.000100959               0.000568078               0.000467118               0.000000000               0.000000000               0.000000000               0.000000000               0.000217738               0.001632385               0.000000000              -0.000122396               0.000584922               0.000462525               0.000000000               0.000000000               0.000000000               0.000000000               0.000173950               0.001663185               0.000000000              -0.000142666               0.000601945               0.000459278               0.000000000               0.000000000               0.000000000               0.000000000               0.000134933               0.001692659              -0.000000000              -0.000160982               0.000617875               0.000456893               0.000000000               0.000000000               0.000000000               0.000000000               0.000091291               0.001723820              -0.000000000              -0.000181243               0.000635015               0.000453772               0.000000000               0.000000000               0.000000000               0.000000000               0.000042773               0.001759318              -0.000000000              -0.000203874               0.000654392               0.000450517               0.000000000               0.000000000               0.000000000               0.000000000               0.000022839               0.001788976              -0.000000000              -0.000215057               0.000668005               0.000452948               0.000000000               0.000000000               0.000000000               0.000000000               0.000282199               0.002902795              -0.000230154              -0.000257024               0.001053263               0.000796239               0.000000000               0.000000000               0.000000000               0.000000000               0.000316811               0.002430051              -0.000157402              -0.000184952               0.000871659               0.000686708               0.000000000               0.000000000               0.000000000               0.000000000               0.000444052               0.002047865              -0.000081038              -0.000089463               0.000712436               0.000622973               0.000000000               0.000000000               0.000000000               0.000000000               0.000480699               0.001834297              -0.000044524              -0.000049025               0.000627768               0.000578743               0.000000000               0.000000000               0.000000000               0.000000000               0.000477644               0.001708978              -0.000027360              -0.000034506               0.000581155               0.000546650               0.000000000               0.000000000               0.000000000               0.000000000               0.000455049               0.001634411              -0.000019404              -0.000033658               0.000556017               0.000522359               0.000000000               0.000000000               0.000000000               0.000000000               0.000423738               0.001593474              -0.000015487              -0.000040282               0.000544580               0.000504298               0.000000000               0.000000000               0.000000000               0.000000000               0.000386725               0.001573603              -0.000013227              -0.000051678               0.000541755               0.000490077               0.000000000               0.000000000               0.000000000               0.000000000               0.000346011               0.001571983              -0.000010911              -0.000066744               0.000546237               0.000479494               0.000000000               0.000000000               0.000000000               0.000000000               0.000302045               0.001583122              -0.000007887              -0.000084623               0.000555910               0.000471287               0.000000000               0.000000000               0.000000000               0.000000000               0.000256833               0.001606691              -0.000006605              -0.000104524               0.000570400               0.000465876               0.000000000               0.000000000               0.000000000               0.000000000               0.000210910               0.001634235              -0.000008183              -0.000125188               0.000586469               0.000461281               0.000000000               0.000000000               0.000000000               0.000000000               0.000168627               0.001661770              -0.000012726              -0.000144486               0.000602080               0.000457594               0.000000000               0.000000000               0.000000000               0.000000000               0.000129148               0.001687689              -0.000014370              -0.000162530               0.000616734               0.000454204               0.000000000               0.000000000               0.000000000               0.000000000               0.000087726               0.001716038              -0.000010447              -0.000181607               0.000632543               0.000450935               0.000000000               0.000000000               0.000000000               0.000000000               0.000043970               0.001747823              -0.000005713              -0.000201989               0.000649932               0.000447943               0.000000000               0.000000000               0.000000000               0.000000000               0.000025381               0.001773248              -0.000004167              -0.000212138               0.000661789               0.000449652               0.000000000               0.000000000               0.000000000               0.000000000               0.000329042               0.002771748              -0.000439538              -0.000223077               0.000998266               0.000775189               0.000000000               0.000000000               0.000000000               0.000000000               0.000334634               0.002336008              -0.000299681              -0.000166513               0.000834166               0.000667653               0.000000000               0.000000000               0.000000000               0.000000000               0.000428816               0.001999638              -0.000155534              -0.000089149               0.000696255               0.000607107               0.000000000               0.000000000               0.000000000               0.000000000               0.000448579               0.001813005              -0.000089231              -0.000058408               0.000623798               0.000565390               0.000000000               0.000000000               0.000000000               0.000000000               0.000438772               0.001703473              -0.000057970              -0.000048394               0.000583950               0.000535556               0.000000000               0.000000000               0.000000000               0.000000000               0.000414897               0.001638797              -0.000042527              -0.000049263               0.000562681               0.000513418               0.000000000               0.000000000               0.000000000               0.000000000               0.000385635               0.001601938              -0.000035020              -0.000055629               0.000552517               0.000496888               0.000000000               0.000000000               0.000000000               0.000000000               0.000352699               0.001585591              -0.000029499              -0.000065936               0.000550504               0.000484567               0.000000000               0.000000000               0.000000000               0.000000000               0.000313908               0.001583679              -0.000024176              -0.000080244               0.000554636               0.000474392               0.000000000               0.000000000               0.000000000               0.000000000               0.000273941               0.001595426              -0.000017829              -0.000096700               0.000564037               0.000467337               0.000000000               0.000000000               0.000000000               0.000000000               0.000234764               0.001615779              -0.000014308              -0.000113936               0.000576566               0.000462630               0.000000000               0.000000000               0.000000000               0.000000000               0.000194671               0.001636758              -0.000017884              -0.000131593               0.000589445               0.000457852               0.000000000               0.000000000               0.000000000               0.000000000               0.000158052               0.001655839              -0.000024550              -0.000147710               0.000601178               0.000453467               0.000000000               0.000000000               0.000000000               0.000000000               0.000121110               0.001675404              -0.000024844              -0.000164009               0.000613132               0.000449123               0.000000000               0.000000000               0.000000000               0.000000000               0.000080313               0.001696762              -0.000017014              -0.000181977               0.000626241               0.000444264               0.000000000               0.000000000               0.000000000               0.000000000               0.000040347               0.001717539              -0.000010073              -0.000199562               0.000639028               0.000439466               0.000000000               0.000000000               0.000000000               0.000000000               0.000023501               0.001733447              -0.000008291              -0.000207868               0.000647099               0.000439232               0.000000000               0.000000000               0.000000000               0.000000000               0.000397037               0.002566962              -0.000608190              -0.000171981               0.000912972               0.000740991               0.000000000               0.000000000               0.000000000               0.000000000               0.000358700               0.002194548              -0.000415564              -0.000139806               0.000778111               0.000638305               0.000000000               0.000000000               0.000000000               0.000000000               0.000403432               0.001926901              -0.000219951              -0.000089575               0.000672152               0.000582577               0.000000000               0.000000000               0.000000000               0.000000000               0.000401361               0.001779939              -0.000132898              -0.000071982               0.000617301               0.000545319               0.000000000               0.000000000               0.000000000               0.000000000               0.000384267               0.001693779              -0.000091525              -0.000067622               0.000587128               0.000519506               0.000000000               0.000000000               0.000000000               0.000000000               0.000360199               0.001643148              -0.000071420              -0.000070319               0.000571150               0.000500831               0.000000000               0.000000000               0.000000000               0.000000000               0.000333980               0.001614203              -0.000059430              -0.000076533               0.000563573               0.000487040               0.000000000               0.000000000               0.000000000               0.000000000               0.000304239               0.001602582              -0.000050369              -0.000086233               0.000562933               0.000476700               0.000000000               0.000000000               0.000000000               0.000000000               0.000268802               0.001602683              -0.000039930              -0.000099534               0.000567400               0.000467866               0.000000000               0.000000000               0.000000000               0.000000000               0.000234332               0.001615565              -0.000029251              -0.000114071               0.000576540               0.000462469               0.000000000               0.000000000               0.000000000               0.000000000               0.000201956               0.001629751              -0.000024553              -0.000127985               0.000585907               0.000457922               0.000000000               0.000000000               0.000000000               0.000000000               0.000172420               0.001641921              -0.000027770              -0.000140582               0.000594162               0.000453580               0.000000000               0.000000000               0.000000000               0.000000000               0.000143132               0.001652497              -0.000032601              -0.000152887               0.000601789               0.000448902               0.000000000               0.000000000               0.000000000               0.000000000               0.000109042               0.001665453              -0.000027649              -0.000167291               0.000610909               0.000443618               0.000000000               0.000000000               0.000000000               0.000000000               0.000071452               0.001679177              -0.000017664              -0.000183102               0.000620754               0.000437652               0.000000000               0.000000000               0.000000000               0.000000000               0.000035367               0.001689401              -0.000010889              -0.000197912               0.000629099               0.000431187               0.000000000               0.000000000               0.000000000               0.000000000               0.000019811               0.001697378              -0.000008650              -0.000204743               0.000634034               0.000429292               0.000000000               0.000000000               0.000000000               0.000000000               0.000472278               0.002312976              -0.000724009              -0.000112018               0.000808324               0.000696305               0.000000000               0.000000000               0.000000000               0.000000000               0.000382723               0.002022018              -0.000499953              -0.000109231               0.000710410               0.000601178               0.000000000               0.000000000               0.000000000               0.000000000               0.000372504               0.001840853              -0.000273538              -0.000090417               0.000643751               0.000553333               0.000000000               0.000000000               0.000000000               0.000000000               0.000349747               0.001739163              -0.000175134              -0.000086240               0.000608462               0.000522222               0.000000000               0.000000000               0.000000000               0.000000000               0.000325210               0.001678527              -0.000128212              -0.000087862               0.000588791               0.000500929               0.000000000               0.000000000               0.000000000               0.000000000               0.000301618               0.001643985              -0.000103314              -0.000092391               0.000578787               0.000486395               0.000000000               0.000000000               0.000000000               0.000000000               0.000278261               0.001626453              -0.000087190              -0.000098959               0.000575132               0.000476173               0.000000000               0.000000000               0.000000000               0.000000000               0.000252635               0.001622698              -0.000072599              -0.000108099               0.000576927               0.000468828               0.000000000               0.000000000               0.000000000               0.000000000               0.000222022               0.001630026              -0.000056104              -0.000120495               0.000583501               0.000463007               0.000000000               0.000000000               0.000000000               0.000000000               0.000192670               0.001641453              -0.000041518              -0.000132930               0.000591456               0.000458525               0.000000000               0.000000000               0.000000000               0.000000000               0.000170490               0.001650041              -0.000034795              -0.000142321               0.000597448               0.000455127               0.000000000               0.000000000               0.000000000               0.000000000               0.000149503               0.001654568              -0.000035586              -0.000150757               0.000601770               0.000451013               0.000000000               0.000000000               0.000000000               0.000000000               0.000126062               0.001658943              -0.000034936              -0.000160094               0.000606340               0.000446246               0.000000000               0.000000000               0.000000000               0.000000000               0.000096524               0.001667977              -0.000024268              -0.000172300               0.000613420               0.000441120               0.000000000               0.000000000               0.000000000               0.000000000               0.000062476               0.001677264              -0.000012995              -0.000186229               0.000621159               0.000434930               0.000000000               0.000000000               0.000000000               0.000000000               0.000031293               0.001686276              -0.000007261              -0.000199049               0.000628436               0.000429387               0.000000000               0.000000000               0.000000000               0.000000000               0.000019375               0.001695457              -0.000006118              -0.000204666               0.000633369               0.000428703               0.000000000               0.000000000               0.000000000               0.000000000               0.000538016               0.002031055              -0.000786627              -0.000052127               0.000694387               0.000642260               0.000000000               0.000000000               0.000000000               0.000000000               0.000401304               0.001831811              -0.000552522              -0.000078488               0.000636760               0.000558272               0.000000000               0.000000000               0.000000000               0.000000000               0.000339456               0.001745209              -0.000316588              -0.000090855               0.000612015               0.000521160               0.000000000               0.000000000               0.000000000               0.000000000               0.000301408               0.001689333              -0.000215237              -0.000098138               0.000595818               0.000497680               0.000000000               0.000000000               0.000000000               0.000000000               0.000274455               0.001657148              -0.000164541              -0.000104223               0.000587118               0.000482895               0.000000000               0.000000000               0.000000000               0.000000000               0.000251627               0.001640491              -0.000134893              -0.000110701               0.000583725               0.000473024               0.000000000               0.000000000               0.000000000               0.000000000               0.000230069               0.001637187              -0.000113180              -0.000118372               0.000585181               0.000466809               0.000000000               0.000000000               0.000000000               0.000000000               0.000206679               0.001645656              -0.000091885              -0.000128202               0.000591281               0.000463078               0.000000000               0.000000000               0.000000000               0.000000000               0.000178950               0.001659157              -0.000070150              -0.000140288               0.000599810               0.000459522               0.000000000               0.000000000               0.000000000               0.000000000               0.000155346               0.001670158              -0.000053459              -0.000150515               0.000606885               0.000456371               0.000000000               0.000000000               0.000000000               0.000000000               0.000141799               0.001675267              -0.000045419              -0.000156233               0.000610495               0.000454261               0.000000000               0.000000000               0.000000000               0.000000000               0.000128496               0.001677930              -0.000043533              -0.000161555               0.000613156               0.000451601               0.000000000               0.000000000               0.000000000               0.000000000               0.000109349               0.001683887              -0.000037716              -0.000169480               0.000617783               0.000448304               0.000000000               0.000000000               0.000000000               0.000000000               0.000087024               0.001697112              -0.000022412              -0.000179504               0.000625533               0.000446029               0.000000000               0.000000000               0.000000000               0.000000000               0.000061669               0.001713352              -0.000011033              -0.000191043               0.000634793               0.000443750               0.000000000               0.000000000               0.000000000               0.000000000               0.000031904               0.001731303              -0.000006400              -0.000204448               0.000645245               0.000440796               0.000000000               0.000000000               0.000000000               0.000000000               0.000020328               0.001747743              -0.000006727              -0.000210844               0.000652856               0.000442012               0.000000000               0.000000000               0.000000000               0.000000000               0.000585605               0.001737591              -0.000800199               0.000002402               0.000578390               0.000580792               0.000000000               0.000000000               0.000000000               0.000000000               0.000413214               0.001637909              -0.000577068              -0.000049784               0.000562559               0.000512775               0.000000000               0.000000000               0.000000000               0.000000000               0.000310187               0.001646130              -0.000351022              -0.000089446               0.000578520               0.000489074               0.000000000               0.000000000               0.000000000               0.000000000               0.000265594               0.001634938              -0.000251038              -0.000104769               0.000579897               0.000475128               0.000000000               0.000000000               0.000000000               0.000000000               0.000240091               0.001629974              -0.000197238              -0.000113713               0.000581224               0.000467511               0.000000000               0.000000000               0.000000000               0.000000000               0.000218342               0.001631166              -0.000161851              -0.000122017               0.000584389               0.000462372               0.000000000               0.000000000               0.000000000               0.000000000               0.000196743               0.001643825              -0.000133030              -0.000131699               0.000591836               0.000460137               0.000000000               0.000000000               0.000000000               0.000000000               0.000173019               0.001664700              -0.000105877              -0.000143205               0.000602630               0.000459424               0.000000000               0.000000000               0.000000000               0.000000000               0.000149325               0.001687583              -0.000081630              -0.000154951               0.000614172               0.000459222               0.000000000               0.000000000               0.000000000               0.000000000               0.000130268               0.001700565              -0.000064671              -0.000163720               0.000621423               0.000457703               0.000000000               0.000000000               0.000000000               0.000000000               0.000119178               0.001707819              -0.000055392              -0.000168785               0.000625529               0.000456744               0.000000000               0.000000000               0.000000000               0.000000000               0.000108722               0.001719209              -0.000049239              -0.000174130               0.000631107               0.000456977               0.000000000               0.000000000               0.000000000               0.000000000               0.000094094               0.001742385              -0.000038600              -0.000182512               0.000641627               0.000459114               0.000000000               0.000000000               0.000000000               0.000000000               0.000076117               0.001774057              -0.000021003              -0.000193213               0.000655751               0.000462538               0.000000000               0.000000000               0.000000000               0.000000000               0.000053560               0.001808998              -0.000010249              -0.000206039               0.000671673               0.000465634               0.000000000               0.000000000               0.000000000               0.000000000               0.000027423               0.001844613              -0.000006884              -0.000220292               0.000688296               0.000468003               0.000000000               0.000000000               0.000000000               0.000000000               0.000019201               0.001871034              -0.000008195              -0.000226678               0.000699231               0.000472553               0.000000000               0.000000000               0.000000000               0.000000000               0.000612382               0.001452724              -0.000769846               0.000048052               0.000468219               0.000516270               0.000000000               0.000000000               0.000000000               0.000000000               0.000419243               0.001454774              -0.000578592              -0.000024631               0.000493130               0.000468499               0.000000000               0.000000000               0.000000000               0.000000000               0.000290300               0.001549275              -0.000378170              -0.000084797               0.000544685               0.000459888               0.000000000               0.000000000               0.000000000               0.000000000               0.000245342               0.001578031              -0.000280988              -0.000105251               0.000561089               0.000455838               0.000000000               0.000000000               0.000000000               0.000000000               0.000222907               0.001595796              -0.000222209              -0.000115884               0.000570555               0.000454670               0.000000000               0.000000000               0.000000000               0.000000000               0.000202885               0.001616319              -0.000179639              -0.000125958               0.000580754               0.000454796               0.000000000               0.000000000               0.000000000               0.000000000               0.000180549               0.001647313              -0.000145141              -0.000138208               0.000595168               0.000456960               0.000000000               0.000000000               0.000000000               0.000000000               0.000155932               0.001681918              -0.000114363              -0.000151765               0.000611222               0.000459457               0.000000000               0.000000000               0.000000000               0.000000000               0.000135506               0.001711032              -0.000089034              -0.000163064               0.000624693               0.000461629               0.000000000               0.000000000               0.000000000               0.000000000               0.000121336               0.001730078              -0.000071707              -0.000170758               0.000633606               0.000462848               0.000000000               0.000000000               0.000000000               0.000000000               0.000110898               0.001753357              -0.000059251              -0.000177582               0.000643641               0.000466058               0.000000000               0.000000000               0.000000000               0.000000000               0.000100867               0.001791468              -0.000045901              -0.000186108               0.000659186               0.000473078               0.000000000               0.000000000               0.000000000               0.000000000               0.000088724               0.001847089              -0.000029845              -0.000197614               0.000681562               0.000483948               0.000000000               0.000000000               0.000000000               0.000000000               0.000069945               0.001908298              -0.000013795              -0.000212307               0.000706862               0.000494555               0.000000000               0.000000000               0.000000000               0.000000000               0.000045440               0.001964214              -0.000005352              -0.000228486               0.000730893               0.000502407               0.000000000               0.000000000               0.000000000               0.000000000               0.000022641               0.002017444              -0.000004029              -0.000243689               0.000753704               0.000510015               0.000000000               0.000000000               0.000000000               0.000000000               0.000016997               0.002053586              -0.000006960              -0.000250324               0.000767963               0.000517639               0.000000000               0.000000000               0.000000000               0.000000000               0.000624302               0.001201670              -0.000709819               0.000083903               0.000372584               0.000456488               0.000000000               0.000000000               0.000000000               0.000000000               0.000426669               0.001290179              -0.000567747              -0.000001272               0.000430479               0.000429207               0.000000000               0.000000000               0.000000000               0.000000000               0.000284968               0.001459151              -0.000405615              -0.000075531               0.000511556               0.000436025               0.000000000               0.000000000               0.000000000               0.000000000               0.000243788               0.001524143              -0.000310612              -0.000099097               0.000541075               0.000441978               0.000000000               0.000000000               0.000000000               0.000000000               0.000222935               0.001563063              -0.000245466              -0.000111782               0.000558276               0.000446494               0.000000000               0.000000000               0.000000000               0.000000000               0.000205455               0.001604538              -0.000196038              -0.000123522               0.000576015               0.000452493               0.000000000               0.000000000               0.000000000               0.000000000               0.000182450               0.001651665              -0.000157459              -0.000138039               0.000596562               0.000458523               0.000000000               0.000000000               0.000000000               0.000000000               0.000157680               0.001695251              -0.000126131              -0.000152776               0.000616003               0.000463227               0.000000000               0.000000000               0.000000000               0.000000000               0.000140868               0.001728071              -0.000098687              -0.000163183               0.000630412               0.000467229               0.000000000               0.000000000               0.000000000               0.000000000               0.000132467               0.001758924              -0.000075895              -0.000170190               0.000643032               0.000472842               0.000000000               0.000000000               0.000000000               0.000000000               0.000126075               0.001805334              -0.000055737              -0.000178388               0.000661235               0.000482847               0.000000000               0.000000000               0.000000000               0.000000000               0.000116188               0.001873945              -0.000033970              -0.000190672               0.000688199               0.000497527               0.000000000               0.000000000               0.000000000               0.000000000               0.000100531               0.001958959              -0.000015773              -0.000207170               0.000722037               0.000514866               0.000000000               0.000000000               0.000000000               0.000000000               0.000080412               0.002038819              -0.000005792              -0.000224697               0.000754499               0.000529801               0.000000000               0.000000000               0.000000000               0.000000000               0.000059713               0.002107792              -0.000000848              -0.000241081               0.000782951               0.000541870               0.000000000               0.000000000               0.000000000               0.000000000               0.000041866               0.002174135               0.000001558              -0.000256066               0.000810060               0.000553994               0.000000000               0.000000000               0.000000000               0.000000000               0.000034049               0.002213466               0.000000763              -0.000263914               0.000825786               0.000561872               0.000000000               0.000000000               0.000000000               0.000000000               0.000618611               0.000956354              -0.000634809               0.000112433               0.000281303               0.000393737               0.000000000               0.000000000               0.000000000               0.000000000               0.000439298               0.001097137              -0.000550576               0.000027594               0.000356511               0.000384104               0.000000000               0.000000000               0.000000000               0.000000000               0.000296120               0.001320527              -0.000439026              -0.000054021               0.000458178               0.000404157               0.000000000               0.000000000               0.000000000               0.000000000               0.000254632               0.001424423              -0.000349531              -0.000082566               0.000502325               0.000419759               0.000000000               0.000000000               0.000000000               0.000000000               0.000235742               0.001490493              -0.000279752              -0.000097908               0.000529462               0.000431554               0.000000000               0.000000000               0.000000000               0.000000000               0.000220024               0.001551562              -0.000225503              -0.000111436               0.000554328               0.000442891               0.000000000               0.000000000               0.000000000               0.000000000               0.000199067               0.001606932              -0.000182919              -0.000126216               0.000577711               0.000451495               0.000000000               0.000000000               0.000000000               0.000000000               0.000174200               0.001659008              -0.000150065              -0.000142051               0.000600347               0.000458297               0.000000000               0.000000000               0.000000000               0.000000000               0.000155646               0.001706865              -0.000121285              -0.000154990               0.000620613               0.000465622               0.000000000               0.000000000               0.000000000               0.000000000               0.000146045               0.001755255              -0.000093678              -0.000164639               0.000639959               0.000475319               0.000000000               0.000000000               0.000000000               0.000000000               0.000143140               0.001815111              -0.000066041              -0.000173211               0.000662768               0.000489557               0.000000000               0.000000000               0.000000000               0.000000000               0.000142449               0.001895205              -0.000039661              -0.000183482               0.000692889               0.000509408               0.000000000               0.000000000               0.000000000               0.000000000               0.000137061               0.001987287              -0.000021886              -0.000197012               0.000728093               0.000531081               0.000000000               0.000000000               0.000000000               0.000000000               0.000123752               0.002077619              -0.000012732              -0.000213295               0.000763631               0.000550336               0.000000000               0.000000000               0.000000000               0.000000000               0.000108048               0.002161005              -0.000004539              -0.000229607               0.000796864               0.000567257               0.000000000               0.000000000               0.000000000               0.000000000               0.000094665               0.002242981               0.000002337              -0.000244873               0.000829277               0.000584404               0.000000000               0.000000000               0.000000000               0.000000000               0.000083962               0.002283286               0.000006438              -0.000253924               0.000845729               0.000591805               0.000000000               0.000000000               0.000000000               0.000000000               0.000585428               0.000725027              -0.000544462               0.000128905               0.000198704               0.000327610               0.000000000               0.000000000               0.000000000               0.000000000               0.000450593               0.000904284              -0.000518986               0.000055936               0.000282780               0.000338715               0.000000000               0.000000000               0.000000000               0.000000000               0.000322570               0.001164033              -0.000461613              -0.000024541               0.000396187               0.000371646               0.000000000               0.000000000               0.000000000               0.000000000               0.000278118               0.001303948              -0.000385852              -0.000058700               0.000454212               0.000395512               0.000000000               0.000000000               0.000000000               0.000000000               0.000259656               0.001402134              -0.000316336              -0.000077896               0.000493338               0.000415443               0.000000000               0.000000000               0.000000000               0.000000000               0.000243752               0.001480233              -0.000258697              -0.000093622               0.000524613               0.000430991               0.000000000               0.000000000               0.000000000               0.000000000               0.000222926               0.001545377              -0.000213363              -0.000109575               0.000551645               0.000442071               0.000000000               0.000000000               0.000000000               0.000000000               0.000200657               0.001611197              -0.000179302              -0.000126153               0.000579111               0.000452958               0.000000000               0.000000000               0.000000000               0.000000000               0.000180458               0.001674736              -0.000148512              -0.000141670               0.000605463               0.000463793               0.000000000               0.000000000               0.000000000               0.000000000               0.000166333               0.001736696              -0.000117851              -0.000154712               0.000630463               0.000475752               0.000000000               0.000000000               0.000000000               0.000000000               0.000163961               0.001804011              -0.000089200              -0.000164016               0.000656003               0.000491987               0.000000000               0.000000000               0.000000000               0.000000000               0.000173987               0.001882729              -0.000062106              -0.000170096               0.000684269               0.000514173               0.000000000               0.000000000               0.000000000               0.000000000               0.000181362               0.001973711              -0.000038285              -0.000178703               0.000717465               0.000538762               0.000000000               0.000000000               0.000000000               0.000000000               0.000177040               0.002070819              -0.000022725              -0.000192462               0.000754420               0.000561958               0.000000000               0.000000000               0.000000000               0.000000000               0.000166509               0.002159921              -0.000012250              -0.000207549               0.000789150               0.000581601               0.000000000               0.000000000               0.000000000               0.000000000               0.000156462               0.002243340              -0.000003798              -0.000221744               0.000821687               0.000599943               0.000000000               0.000000000               0.000000000               0.000000000               0.000142924               0.002277400               0.000003406              -0.000231078               0.000836152               0.000605074               0.000000000               0.000000000               0.000000000               0.000000000               0.000524959               0.000520658              -0.000440309               0.000131776               0.000129625               0.000261401               0.000000000               0.000000000               0.000000000               0.000000000               0.000450314               0.000718171              -0.000465482               0.000079095               0.000213023               0.000292118               0.000000000               0.000000000               0.000000000               0.000000000               0.000353516               0.000990366              -0.000457369               0.000008772               0.000327194               0.000335967               0.000000000               0.000000000               0.000000000               0.000000000               0.000312748               0.001162306              -0.000400774              -0.000028008               0.000396767               0.000368759               0.000000000               0.000000000               0.000000000               0.000000000               0.000292766               0.001288651              -0.000337988              -0.000051294               0.000446644               0.000395350               0.000000000               0.000000000               0.000000000               0.000000000               0.000274525               0.001384493              -0.000280458              -0.000070115               0.000484865               0.000414750               0.000000000               0.000000000               0.000000000               0.000000000               0.000254410               0.001466758              -0.000235013              -0.000087941               0.000518228               0.000430287               0.000000000               0.000000000               0.000000000               0.000000000               0.000233468               0.001545350              -0.000201063              -0.000105618               0.000550318               0.000444700               0.000000000               0.000000000               0.000000000               0.000000000               0.000214164               0.001623412              -0.000169739              -0.000122615               0.000582003               0.000459389               0.000000000               0.000000000               0.000000000               0.000000000               0.000201684               0.001698197              -0.000140735              -0.000136643               0.000611608               0.000474965               0.000000000               0.000000000               0.000000000               0.000000000               0.000198082               0.001771809              -0.000116205              -0.000147195               0.000639662               0.000492467               0.000000000               0.000000000               0.000000000               0.000000000               0.000205141               0.001855991              -0.000088166              -0.000155071               0.000670348               0.000515277               0.000000000               0.000000000               0.000000000               0.000000000               0.000216928               0.001953497              -0.000057483              -0.000162839               0.000705439               0.000542600               0.000000000               0.000000000               0.000000000               0.000000000               0.000223518               0.002056016              -0.000037441              -0.000173182               0.000743059               0.000569877               0.000000000               0.000000000               0.000000000               0.000000000               0.000222686               0.002153202              -0.000027288              -0.000185642               0.000779607               0.000593965               0.000000000               0.000000000               0.000000000               0.000000000               0.000216729               0.002242075              -0.000015623              -0.000198985               0.000813679               0.000614694               0.000000000               0.000000000               0.000000000               0.000000000               0.000201821               0.002277346              -0.000004702              -0.000208985               0.000828769               0.000619784               0.000000000               0.000000000               0.000000000               0.000000000               0.000443838               0.000352819              -0.000334751               0.000122336               0.000076826               0.000199162               0.000000000               0.000000000               0.000000000               0.000000000               0.000438357               0.000546745              -0.000392690               0.000096039               0.000150233               0.000246272               0.000000000               0.000000000               0.000000000               0.000000000               0.000387075               0.000814296              -0.000421250               0.000043365               0.000256974               0.000300339               0.000000000               0.000000000               0.000000000               0.000000000               0.000354375               0.001007764              -0.000386310               0.000006920               0.000333611               0.000340531               0.000000000               0.000000000               0.000000000               0.000000000               0.000333403               0.001153609              -0.000333751              -0.000019175               0.000390924               0.000371749               0.000000000               0.000000000               0.000000000               0.000000000               0.000313098               0.001267412              -0.000281717              -0.000041015               0.000436138               0.000395123               0.000000000               0.000000000               0.000000000               0.000000000               0.000295273               0.001368466              -0.000239950              -0.000060331               0.000476261               0.000415930               0.000000000               0.000000000               0.000000000               0.000000000               0.000276833               0.001460709              -0.000207917              -0.000078776               0.000513157               0.000434381               0.000000000               0.000000000               0.000000000               0.000000000               0.000260793               0.001549971              -0.000180448              -0.000095949               0.000548635               0.000452686               0.000000000               0.000000000               0.000000000               0.000000000               0.000249514               0.001637637              -0.000155708              -0.000111137               0.000582919               0.000471782               0.000000000               0.000000000               0.000000000               0.000000000               0.000243118               0.001725555              -0.000132731              -0.000124525               0.000616687               0.000492163               0.000000000               0.000000000               0.000000000               0.000000000               0.000243486               0.001822191              -0.000106365              -0.000136466               0.000652880               0.000516413               0.000000000               0.000000000               0.000000000               0.000000000               0.000254684               0.001926887              -0.000078196              -0.000145354               0.000690741               0.000545387               0.000000000               0.000000000               0.000000000               0.000000000               0.000270284               0.002036309              -0.000056224              -0.000153182               0.000729824               0.000576642               0.000000000               0.000000000               0.000000000               0.000000000               0.000276943               0.002140500              -0.000042117              -0.000163708               0.000768062               0.000604354               0.000000000               0.000000000               0.000000000               0.000000000               0.000273475               0.002235113              -0.000025119              -0.000176835               0.000803975               0.000627140               0.000000000               0.000000000               0.000000000               0.000000000               0.000261299               0.002275814              -0.000011366              -0.000186489               0.000820760               0.000634271               0.000000000               0.000000000               0.000000000               0.000000000               0.000356231               0.000222529              -0.000235695               0.000105770               0.000038919               0.000144688               0.000000000               0.000000000               0.000000000               0.000000000               0.000417044               0.000398512              -0.000305223               0.000106576               0.000097310               0.000203887               0.000000000               0.000000000               0.000000000               0.000000000               0.000418430               0.000650856              -0.000352532               0.000075553               0.000191765               0.000267319               0.000000000               0.000000000               0.000000000               0.000000000               0.000398884               0.000854156              -0.000335921               0.000042811               0.000270445               0.000313257               0.000000000               0.000000000               0.000000000               0.000000000               0.000376603               0.001011531              -0.000296518               0.000014784               0.000332245               0.000347030               0.000000000               0.000000000               0.000000000               0.000000000               0.000357870               0.001142330              -0.000255121              -0.000008590               0.000383636               0.000375046               0.000000000               0.000000000               0.000000000               0.000000000               0.000340713               0.001258733              -0.000220481              -0.000029574               0.000429432               0.000399857               0.000000000               0.000000000               0.000000000               0.000000000               0.000325632               0.001365974              -0.000193989              -0.000048635               0.000471532               0.000422897               0.000000000               0.000000000               0.000000000               0.000000000               0.000311782               0.001469542              -0.000172143              -0.000066774               0.000512101               0.000445326               0.000000000               0.000000000               0.000000000               0.000000000               0.000299182               0.001570393              -0.000151966              -0.000084106               0.000551494               0.000467389               0.000000000               0.000000000               0.000000000               0.000000000               0.000290250               0.001675210              -0.000132260              -0.000100557               0.000591917               0.000491360               0.000000000               0.000000000               0.000000000               0.000000000               0.000291521               0.001788348              -0.000111675              -0.000114223               0.000634184               0.000519961               0.000000000               0.000000000               0.000000000               0.000000000               0.000300595               0.001900092              -0.000091182              -0.000124788               0.000674954               0.000550166               0.000000000               0.000000000               0.000000000               0.000000000               0.000316414               0.002011453              -0.000071851              -0.000132776               0.000714736               0.000581960               0.000000000               0.000000000               0.000000000               0.000000000               0.000327511               0.002117399              -0.000051907              -0.000141858               0.000753079               0.000611221               0.000000000               0.000000000               0.000000000               0.000000000               0.000328129               0.002219444              -0.000028753              -0.000154382               0.000791268               0.000636886               0.000000000               0.000000000               0.000000000               0.000000000               0.000319229               0.002267052              -0.000013816              -0.000163670               0.000810233               0.000646563               0.000000000               0.000000000               0.000000000               0.000000000               0.000277885               0.000130198              -0.000145887               0.000087931               0.000014088               0.000102019               0.000000000               0.000000000               0.000000000               0.000000000               0.000394505               0.000285366              -0.000207214               0.000112267               0.000057699               0.000169966               0.000000000               0.000000000               0.000000000               0.000000000               0.000443530               0.000517787              -0.000254285               0.000101599               0.000138728               0.000240327               0.000000000               0.000000000               0.000000000               0.000000000               0.000438625               0.000721130              -0.000249457               0.000074342               0.000215593               0.000289936               0.000000000               0.000000000               0.000000000               0.000000000               0.000418335               0.000886985              -0.000224689               0.000046002               0.000280325               0.000326327               0.000000000               0.000000000               0.000000000               0.000000000               0.000399644               0.001028497              -0.000196324               0.000021304               0.000335728               0.000357032               0.000000000               0.000000000               0.000000000               0.000000000               0.000382544               0.001154986              -0.000171914              -0.000000919               0.000385298               0.000384378               0.000000000               0.000000000               0.000000000               0.000000000               0.000370150               0.001279371              -0.000152984              -0.000021115               0.000433491               0.000412376               0.000000000               0.000000000               0.000000000               0.000000000               0.000356676               0.001399161              -0.000136551              -0.000041141               0.000480096               0.000438955               0.000000000               0.000000000               0.000000000               0.000000000               0.000343941               0.001512272              -0.000122810              -0.000060056               0.000524104               0.000464048               0.000000000               0.000000000               0.000000000               0.000000000               0.000338878               0.001627616              -0.000111492              -0.000076373               0.000567991               0.000491618               0.000000000               0.000000000               0.000000000               0.000000000               0.000340392               0.001748339              -0.000098465              -0.000090895               0.000613072               0.000522177               0.000000000               0.000000000               0.000000000               0.000000000               0.000348076               0.001870769              -0.000084249              -0.000103317               0.000658022               0.000554705               0.000000000               0.000000000               0.000000000               0.000000000               0.000358065               0.001986149              -0.000069036              -0.000113994               0.000700041               0.000586047               0.000000000               0.000000000               0.000000000               0.000000000               0.000368055               0.002090912              -0.000048717              -0.000123343               0.000738078               0.000614735               0.000000000               0.000000000               0.000000000               0.000000000               0.000380890               0.002200652              -0.000024760              -0.000132247               0.000777626               0.000645378               0.000000000               0.000000000               0.000000000               0.000000000               0.000383389               0.002256105              -0.000011127              -0.000138242               0.000798108               0.000659866               0.000000000               0.000000000               0.000000000               0.000000000               0.000219454               0.000079580              -0.000068246               0.000072347               0.000002410               0.000074758               0.000000000               0.000000000               0.000000000               0.000000000               0.000375594               0.000216145              -0.000104643               0.000113828               0.000034105               0.000147933               0.000000000               0.000000000               0.000000000               0.000000000               0.000461333               0.000429586              -0.000133828               0.000119300               0.000103427               0.000222728               0.000000000               0.000000000               0.000000000               0.000000000               0.000467168               0.000631145              -0.000133313               0.000096294               0.000178282               0.000274576               0.000000000               0.000000000               0.000000000               0.000000000               0.000449144               0.000801276              -0.000121793               0.000068269               0.000244333               0.000312602               0.000000000               0.000000000               0.000000000               0.000000000               0.000428584               0.000946807              -0.000107084               0.000042368               0.000301477               0.000343844               0.000000000               0.000000000               0.000000000               0.000000000               0.000412210               0.001081545              -0.000095218               0.000019386               0.000354049               0.000373435               0.000000000               0.000000000               0.000000000               0.000000000               0.000399696               0.001216141              -0.000085247              -0.000002131               0.000406087               0.000403955               0.000000000               0.000000000               0.000000000               0.000000000               0.000389529               0.001346654              -0.000074524              -0.000022258               0.000456299               0.000434041               0.000000000               0.000000000               0.000000000               0.000000000               0.000381696               0.001472579              -0.000069058              -0.000040936               0.000504500               0.000463564               0.000000000               0.000000000               0.000000000               0.000000000               0.000377162               0.001596191              -0.000065391              -0.000058088               0.000551421               0.000493333               0.000000000               0.000000000               0.000000000               0.000000000               0.000374962               0.001717355              -0.000059128              -0.000074059               0.000597132               0.000523074               0.000000000               0.000000000               0.000000000               0.000000000               0.000378019               0.001838679              -0.000051513              -0.000088077               0.000642246               0.000554169               0.000000000               0.000000000               0.000000000               0.000000000               0.000385866               0.001958237              -0.000040945              -0.000100080               0.000686099               0.000586020               0.000000000               0.000000000               0.000000000               0.000000000               0.000402012               0.002078380              -0.000029415              -0.000109043               0.000729134               0.000620091               0.000000000               0.000000000               0.000000000               0.000000000               0.000429922               0.002200494              -0.000016746              -0.000113841               0.000771438               0.000657597               0.000000000               0.000000000               0.000000000               0.000000000               0.000446456               0.002259856              -0.000009165              -0.000115061               0.000791631               0.000676571               0.000000000               0.000000000               0.000000000               0.000000000               0.000196905               0.000064862               0.000000000               0.000065731              -0.000000290               0.000065441               0.000000000               0.000000000               0.000000000               0.000000000               0.000368016               0.000193217               0.000000000               0.000113853               0.000026454               0.000140307               0.000000000               0.000000000               0.000000000               0.000000000               0.000468491               0.000398047               0.000000000               0.000125927               0.000090705               0.000216632               0.000000000               0.000000000               0.000000000               0.000000000               0.000477805               0.000598885               0.000000000               0.000104315               0.000164855               0.000269170               0.000000000               0.000000000               0.000000000               0.000000000               0.000460391               0.000770167              -0.000000000               0.000076375               0.000231262               0.000307636               0.000000000               0.000000000               0.000000000               0.000000000               0.000438961               0.000917197              -0.000000000               0.000049960               0.000289076               0.000339036               0.000000000               0.000000000               0.000000000               0.000000000               0.000423311               0.001056150              -0.000000000               0.000026722               0.000343139               0.000369861               0.000000000               0.000000000               0.000000000               0.000000000               0.000409197               0.001191825               0.000000000               0.000004471               0.000395781               0.000400252               0.000000000               0.000000000               0.000000000               0.000000000               0.000401737               0.001325041               0.000000000              -0.000014979               0.000446669               0.000431690               0.000000000               0.000000000               0.000000000               0.000000000               0.000398746               0.001458712              -0.000000000              -0.000032809               0.000497169               0.000464360               0.000000000               0.000000000               0.000000000               0.000000000               0.000391076               0.001586445              -0.000000000              -0.000051652               0.000546027               0.000494375               0.000000000               0.000000000               0.000000000               0.000000000               0.000386545               0.001707556               0.000000000              -0.000068490               0.000592010               0.000523520               0.000000000               0.000000000               0.000000000               0.000000000               0.000386525               0.001824123               0.000000000              -0.000083068               0.000635724               0.000552656               0.000000000               0.000000000               0.000000000               0.000000000               0.000395557               0.001943689               0.000000000              -0.000094627               0.000679432               0.000584805               0.000000000               0.000000000               0.000000000               0.000000000               0.000419134               0.002077488               0.000000000              -0.000102510               0.000726659               0.000624149               0.000000000               0.000000000               0.000000000               0.000000000               0.000453026               0.002208311               0.000000000              -0.000106154               0.000771481               0.000665327               0.000000000               0.000000000               0.000000000               0.000000000               0.000474071               0.002267911               0.000000000              -0.000105712               0.000791200               0.000685488               0.000000000               0.000000000               0.000000000               0.000000000               0.000000000               0.000000000               0.000000000               0.000000000               0.000000000               0.000000000               0.000000000               0.000000000               0.000000000               0.000000000               0.000000000               0.000000000               0.000000000               0.000000000               0.000000000               0.000000000               0.000000000               0.000000000               0.000000000               0.000000000               0.000000000               0.000000000               0.000000000               0.000000000               0.000000000               0.000000000               0.000000000               0.000000000               0.000000000               0.000000000               0.000000000               0.000000000               0.000000000               0.000000000               0.000000000               0.000000000               0.000000000               0.000000000               0.000000000               0.000000000               0.000000000               0.000000000               0.000000000               0.000000000               0.000000000               0.000000000               0.000000000               0.000000000               0.000000000               0.000000000               0.000000000               0.000000000               0.000000000               0.000000000               0.000000000               0.000000000               0.000000000               0.000000000               0.000000000               0.000000000               0.000000000               0.000000000               0.000000000               0.000000000               0.000000000               0.000000000               0.000000000               0.000000000               0.000000000               0.000000000               0.000000000               0.000000000               0.000000000               0.000000000               0.000000000               0.000000000               0.000000000               0.000000000               0.000000000               0.000000000               0.000000000               0.000000000               0.000000000               0.000000000               0.000000000               0.000000000               0.000000000               0.000000000               0.000000000               0.000000000               0.000000000               0.000000000               0.000000000               0.000000000               0.000000000               0.000000000               0.000000000               0.000000000               0.000000000               0.000000000               0.000000000               0.000000000               0.000000000               0.000000000               0.000000000               0.000000000               0.000000000               0.000000000               0.000000000               0.000000000               0.000000000               0.000000000               0.000000000               0.000000000               0.000000000               0.000000000               0.000000000               0.000000000               0.000000000               0.000000000               0.000000000               0.000000000               0.000000000               0.000000000               0.000000000               0.000000000               0.000000000               0.000000000               0.000000000               0.000000000               0.000000000               0.000000000               0.000000000               0.000000000               0.000000000               0.000000000               0.000000000               0.000000000               0.000000000               0.000000000               0.000000000               0.000000000               0.000000000               0.000000000               0.000000000               0.000000000               0.000000000               0.000000000               0.000000000               0.000000000               0.000000000               0.000000000               0.000000000               0.000000000               0.000000000               0.000000000               0.000000000               0.000000000               0.000000000               0.000000000               0.000000000               0.000000000               0.000000000               0.000000000               0.000000000               0.000000000               0.000000000               0.000000000               0.000000000               0.000000000               0.000282199               0.002902795               0.000230154              -0.000257024               0.001053263               0.000796239               0.000000000               0.000000000               0.000000000               0.000000000               0.000316811               0.002430051               0.000157402              -0.000184952               0.000871659               0.000686708               0.000000000               0.000000000               0.000000000               0.000000000               0.000444052               0.002047865               0.000081038              -0.000089463               0.000712436               0.000622973               0.000000000               0.000000000               0.000000000               0.000000000               0.000480699               0.001834297               0.000044524              -0.000049025               0.000627768               0.000578743               0.000000000               0.000000000               0.000000000               0.000000000               0.000477644               0.001708978               0.000027360              -0.000034506               0.000581155               0.000546650               0.000000000               0.000000000               0.000000000               0.000000000               0.000455049               0.001634411               0.000019404              -0.000033658               0.000556017               0.000522359               0.000000000               0.000000000               0.000000000               0.000000000               0.000423738               0.001593474               0.000015487              -0.000040282               0.000544580               0.000504298               0.000000000               0.000000000               0.000000000               0.000000000               0.000386725               0.001573603               0.000013227              -0.000051678               0.000541755               0.000490077               0.000000000               0.000000000               0.000000000               0.000000000               0.000346011               0.001571983               0.000010911              -0.000066744               0.000546237               0.000479494               0.000000000               0.000000000               0.000000000               0.000000000               0.000302045               0.001583122               0.000007887              -0.000084623               0.000555910               0.000471287               0.000000000               0.000000000               0.000000000               0.000000000               0.000256833               0.001606691               0.000006605              -0.000104524               0.000570400               0.000465876               0.000000000               0.000000000               0.000000000               0.000000000               0.000210910               0.001634235               0.000008183              -0.000125188               0.000586469               0.000461281               0.000000000               0.000000000               0.000000000               0.000000000               0.000168627               0.001661770               0.000012726              -0.000144486               0.000602080               0.000457594               0.000000000               0.000000000               0.000000000               0.000000000               0.000129148               0.001687689               0.000014370              -0.000162530               0.000616734               0.000454204               0.000000000               0.000000000               0.000000000               0.000000000               0.000087726               0.001716038               0.000010447              -0.000181607               0.000632543               0.000450935               0.000000000               0.000000000               0.000000000               0.000000000               0.000043970               0.001747823               0.000005713              -0.000201989               0.000649932               0.000447943               0.000000000               0.000000000               0.000000000               0.000000000               0.000025381               0.001773248               0.000004167              -0.000212138               0.000661789               0.000449652               0.000000000               0.000000000               0.000000000               0.000000000               0.000329042               0.002771748               0.000439538              -0.000223077               0.000998266               0.000775189               0.000000000               0.000000000               0.000000000               0.000000000               0.000334634               0.002336008               0.000299681              -0.000166513               0.000834166               0.000667653               0.000000000               0.000000000               0.000000000               0.000000000               0.000428816               0.001999638               0.000155534              -0.000089149               0.000696255               0.000607107               0.000000000               0.000000000               0.000000000               0.000000000               0.000448579               0.001813005               0.000089231              -0.000058408               0.000623798               0.000565390               0.000000000               0.000000000               0.000000000               0.000000000               0.000438772               0.001703473               0.000057970              -0.000048394               0.000583950               0.000535556               0.000000000               0.000000000               0.000000000               0.000000000               0.000414897               0.001638797               0.000042527              -0.000049263               0.000562681               0.000513418               0.000000000               0.000000000               0.000000000               0.000000000               0.000385635               0.001601938               0.000035020              -0.000055629               0.000552517               0.000496888               0.000000000               0.000000000               0.000000000               0.000000000               0.000352699               0.001585591               0.000029499              -0.000065936               0.000550504               0.000484567               0.000000000               0.000000000               0.000000000               0.000000000               0.000313908               0.001583679               0.000024176              -0.000080244               0.000554636               0.000474392               0.000000000               0.000000000               0.000000000               0.000000000               0.000273941               0.001595426               0.000017829              -0.000096700               0.000564037               0.000467337               0.000000000               0.000000000               0.000000000               0.000000000               0.000234764               0.001615779               0.000014308              -0.000113936               0.000576566               0.000462630               0.000000000               0.000000000               0.000000000               0.000000000               0.000194671               0.001636758               0.000017884              -0.000131593               0.000589445               0.000457852               0.000000000               0.000000000               0.000000000               0.000000000               0.000158052               0.001655839               0.000024550              -0.000147710               0.000601178               0.000453467               0.000000000               0.000000000               0.000000000               0.000000000               0.000121110               0.001675404               0.000024844              -0.000164009               0.000613132               0.000449123               0.000000000               0.000000000               0.000000000               0.000000000               0.000080313               0.001696762               0.000017014              -0.000181977               0.000626241               0.000444264               0.000000000               0.000000000               0.000000000               0.000000000               0.000040347               0.001717539               0.000010073              -0.000199562               0.000639028               0.000439466               0.000000000               0.000000000               0.000000000               0.000000000               0.000023501               0.001733447               0.000008291              -0.000207868               0.000647099               0.000439232               0.000000000               0.000000000               0.000000000               0.000000000               0.000397037               0.002566962               0.000608190              -0.000171981               0.000912972               0.000740991               0.000000000               0.000000000               0.000000000               0.000000000               0.000358700               0.002194548               0.000415564              -0.000139806               0.000778111               0.000638305               0.000000000               0.000000000               0.000000000               0.000000000               0.000403432               0.001926901               0.000219951              -0.000089575               0.000672152               0.000582577               0.000000000               0.000000000               0.000000000               0.000000000               0.000401361               0.001779939               0.000132898              -0.000071982               0.000617301               0.000545319               0.000000000               0.000000000               0.000000000               0.000000000               0.000384267               0.001693779               0.000091525              -0.000067622               0.000587128               0.000519506               0.000000000               0.000000000               0.000000000               0.000000000               0.000360199               0.001643148               0.000071420              -0.000070319               0.000571150               0.000500831               0.000000000               0.000000000               0.000000000               0.000000000               0.000333980               0.001614203               0.000059430              -0.000076533               0.000563573               0.000487040               0.000000000               0.000000000               0.000000000               0.000000000               0.000304239               0.001602582               0.000050369              -0.000086233               0.000562933               0.000476700               0.000000000               0.000000000               0.000000000               0.000000000               0.000268802               0.001602683               0.000039930              -0.000099534               0.000567400               0.000467866               0.000000000               0.000000000               0.000000000               0.000000000               0.000234332               0.001615565               0.000029251              -0.000114071               0.000576540               0.000462469               0.000000000               0.000000000               0.000000000               0.000000000               0.000201956               0.001629751               0.000024553              -0.000127985               0.000585907               0.000457922               0.000000000               0.000000000               0.000000000               0.000000000               0.000172420               0.001641921               0.000027770              -0.000140582               0.000594162               0.000453580               0.000000000               0.000000000               0.000000000               0.000000000               0.000143132               0.001652497               0.000032601              -0.000152887               0.000601789               0.000448902               0.000000000               0.000000000               0.000000000               0.000000000               0.000109042               0.001665453               0.000027649              -0.000167291               0.000610909               0.000443618               0.000000000               0.000000000               0.000000000               0.000000000               0.000071452               0.001679177               0.000017664              -0.000183102               0.000620754               0.000437652               0.000000000               0.000000000               0.000000000               0.000000000               0.000035367               0.001689401               0.000010889              -0.000197912               0.000629099               0.000431187               0.000000000               0.000000000               0.000000000               0.000000000               0.000019811               0.001697378               0.000008650              -0.000204743               0.000634034               0.000429292               0.000000000               0.000000000               0.000000000               0.000000000               0.000472278               0.002312976               0.000724009              -0.000112018               0.000808324               0.000696305               0.000000000               0.000000000               0.000000000               0.000000000               0.000382723               0.002022018               0.000499953              -0.000109231               0.000710410               0.000601178               0.000000000               0.000000000               0.000000000               0.000000000               0.000372504               0.001840853               0.000273538              -0.000090417               0.000643751               0.000553333               0.000000000               0.000000000               0.000000000               0.000000000               0.000349747               0.001739163               0.000175134              -0.000086240               0.000608462               0.000522222               0.000000000               0.000000000               0.000000000               0.000000000               0.000325210               0.001678527               0.000128212              -0.000087862               0.000588791               0.000500929               0.000000000               0.000000000               0.000000000               0.000000000               0.000301618               0.001643985               0.000103314              -0.000092391               0.000578787               0.000486395               0.000000000               0.000000000               0.000000000               0.000000000               0.000278261               0.001626453               0.000087190              -0.000098959               0.000575132               0.000476173               0.000000000               0.000000000               0.000000000               0.000000000               0.000252635               0.001622698               0.000072599              -0.000108099               0.000576927               0.000468828               0.000000000               0.000000000               0.000000000               0.000000000               0.000222022               0.001630026               0.000056104              -0.000120495               0.000583501               0.000463007               0.000000000               0.000000000               0.000000000               0.000000000               0.000192670               0.001641453               0.000041518              -0.000132930               0.000591456               0.000458525               0.000000000               0.000000000               0.000000000               0.000000000               0.000170490               0.001650041               0.000034795              -0.000142321               0.000597448               0.000455127               0.000000000               0.000000000               0.000000000               0.000000000               0.000149503               0.001654568               0.000035586              -0.000150757               0.000601770               0.000451013               0.000000000               0.000000000               0.000000000               0.000000000               0.000126062               0.001658943               0.000034936              -0.000160094               0.000606340               0.000446246               0.000000000               0.000000000               0.000000000               0.000000000               0.000096524               0.001667977               0.000024268              -0.000172300               0.000613420               0.000441120               0.000000000               0.000000000               0.000000000               0.000000000               0.000062476               0.001677264               0.000012995              -0.000186229               0.000621159               0.000434930               0.000000000               0.000000000               0.000000000               0.000000000               0.000031293               0.001686276               0.000007261              -0.000199049               0.000628436               0.000429387               0.000000000               0.000000000               0.000000000               0.000000000               0.000019375               0.001695457               0.000006118              -0.000204666               0.000633369               0.000428703               0.000000000               0.000000000               0.000000000               0.000000000               0.000538016               0.002031055               0.000786627              -0.000052127               0.000694387               0.000642260               0.000000000               0.000000000               0.000000000               0.000000000               0.000401304               0.001831811               0.000552522              -0.000078488               0.000636760               0.000558272               0.000000000               0.000000000               0.000000000               0.000000000               0.000339456               0.001745209               0.000316588              -0.000090855               0.000612015               0.000521160               0.000000000               0.000000000               0.000000000               0.000000000               0.000301408               0.001689333               0.000215237              -0.000098138               0.000595818               0.000497680               0.000000000               0.000000000               0.000000000               0.000000000               0.000274455               0.001657148               0.000164541              -0.000104223               0.000587118               0.000482895               0.000000000               0.000000000               0.000000000               0.000000000               0.000251627               0.001640491               0.000134893              -0.000110701               0.000583725               0.000473024               0.000000000               0.000000000               0.000000000               0.000000000               0.000230069               0.001637187               0.000113180              -0.000118372               0.000585181               0.000466809               0.000000000               0.000000000               0.000000000               0.000000000               0.000206679               0.001645656               0.000091885              -0.000128202               0.000591281               0.000463078               0.000000000               0.000000000               0.000000000               0.000000000               0.000178950               0.001659157               0.000070150              -0.000140288               0.000599810               0.000459522               0.000000000               0.000000000               0.000000000               0.000000000               0.000155346               0.001670158               0.000053459              -0.000150515               0.000606885               0.000456371               0.000000000               0.000000000               0.000000000               0.000000000               0.000141799               0.001675267               0.000045419              -0.000156233               0.000610495               0.000454261               0.000000000               0.000000000               0.000000000               0.000000000               0.000128496               0.001677930               0.000043533              -0.000161555               0.000613156               0.000451601               0.000000000               0.000000000               0.000000000               0.000000000               0.000109349               0.001683887               0.000037716              -0.000169480               0.000617783               0.000448304               0.000000000               0.000000000               0.000000000               0.000000000               0.000087024               0.001697112               0.000022412              -0.000179504               0.000625533               0.000446029               0.000000000               0.000000000               0.000000000               0.000000000               0.000061669               0.001713352               0.000011033              -0.000191043               0.000634793               0.000443750               0.000000000               0.000000000               0.000000000               0.000000000               0.000031904               0.001731303               0.000006400              -0.000204448               0.000645245               0.000440796               0.000000000               0.000000000               0.000000000               0.000000000               0.000020328               0.001747743               0.000006727              -0.000210844               0.000652856               0.000442012               0.000000000               0.000000000               0.000000000               0.000000000               0.000585605               0.001737591               0.000800199               0.000002402               0.000578390               0.000580792               0.000000000               0.000000000               0.000000000               0.000000000               0.000413214               0.001637909               0.000577068              -0.000049784               0.000562559               0.000512775               0.000000000               0.000000000               0.000000000               0.000000000               0.000310187               0.001646130               0.000351022              -0.000089446               0.000578520               0.000489074               0.000000000               0.000000000               0.000000000               0.000000000               0.000265594               0.001634938               0.000251038              -0.000104769               0.000579897               0.000475128               0.000000000               0.000000000               0.000000000               0.000000000               0.000240091               0.001629974               0.000197238              -0.000113713               0.000581224               0.000467511               0.000000000               0.000000000               0.000000000               0.000000000               0.000218342               0.001631166               0.000161851              -0.000122017               0.000584389               0.000462372               0.000000000               0.000000000               0.000000000               0.000000000               0.000196743               0.001643825               0.000133030              -0.000131699               0.000591836               0.000460137               0.000000000               0.000000000               0.000000000               0.000000000               0.000173019               0.001664700               0.000105877              -0.000143205               0.000602630               0.000459424               0.000000000               0.000000000               0.000000000               0.000000000               0.000149325               0.001687583               0.000081630              -0.000154951               0.000614172               0.000459222               0.000000000               0.000000000               0.000000000               0.000000000               0.000130268               0.001700565               0.000064671              -0.000163720               0.000621423               0.000457703               0.000000000               0.000000000               0.000000000               0.000000000               0.000119178               0.001707819               0.000055392              -0.000168785               0.000625529               0.000456744               0.000000000               0.000000000               0.000000000               0.000000000               0.000108722               0.001719209               0.000049239              -0.000174130               0.000631107               0.000456977               0.000000000               0.000000000               0.000000000               0.000000000               0.000094094               0.001742385               0.000038600              -0.000182512               0.000641627               0.000459114               0.000000000               0.000000000               0.000000000               0.000000000               0.000076117               0.001774057               0.000021003              -0.000193213               0.000655751               0.000462538               0.000000000               0.000000000               0.000000000               0.000000000               0.000053560               0.001808998               0.000010249              -0.000206039               0.000671673               0.000465634               0.000000000               0.000000000               0.000000000               0.000000000               0.000027423               0.001844613               0.000006884              -0.000220292               0.000688296               0.000468003               0.000000000               0.000000000               0.000000000               0.000000000               0.000019201               0.001871034               0.000008195              -0.000226678               0.000699231               0.000472553               0.000000000               0.000000000               0.000000000               0.000000000               0.000612382               0.001452724               0.000769846               0.000048052               0.000468219               0.000516270               0.000000000               0.000000000               0.000000000               0.000000000               0.000419243               0.001454774               0.000578592              -0.000024631               0.000493130               0.000468499               0.000000000               0.000000000               0.000000000               0.000000000               0.000290300               0.001549275               0.000378170              -0.000084797               0.000544685               0.000459888               0.000000000               0.000000000               0.000000000               0.000000000               0.000245342               0.001578031               0.000280988              -0.000105251               0.000561089               0.000455838               0.000000000               0.000000000               0.000000000               0.000000000               0.000222907               0.001595796               0.000222209              -0.000115884               0.000570555               0.000454670               0.000000000               0.000000000               0.000000000               0.000000000               0.000202885               0.001616319               0.000179639              -0.000125958               0.000580754               0.000454796               0.000000000               0.000000000               0.000000000               0.000000000               0.000180549               0.001647313               0.000145141              -0.000138208               0.000595168               0.000456960               0.000000000               0.000000000               0.000000000               0.000000000               0.000155932               0.001681918               0.000114363              -0.000151765               0.000611222               0.000459457               0.000000000               0.000000000               0.000000000               0.000000000               0.000135506               0.001711032               0.000089034              -0.000163064               0.000624693               0.000461629               0.000000000               0.000000000               0.000000000               0.000000000               0.000121336               0.001730078               0.000071707              -0.000170758               0.000633606               0.000462848               0.000000000               0.000000000               0.000000000               0.000000000               0.000110898               0.001753357               0.000059251              -0.000177582               0.000643641               0.000466058               0.000000000               0.000000000               0.000000000               0.000000000               0.000100867               0.001791468               0.000045901              -0.000186108               0.000659186               0.000473078               0.000000000               0.000000000               0.000000000               0.000000000               0.000088724               0.001847089               0.000029845              -0.000197614               0.000681562               0.000483948               0.000000000               0.000000000               0.000000000               0.000000000               0.000069945               0.001908298               0.000013795              -0.000212307               0.000706862               0.000494555               0.000000000               0.000000000               0.000000000               0.000000000               0.000045440               0.001964214               0.000005352              -0.000228486               0.000730893               0.000502407               0.000000000               0.000000000               0.000000000               0.000000000               0.000022641               0.002017444               0.000004029              -0.000243689               0.000753704               0.000510015               0.000000000               0.000000000               0.000000000               0.000000000               0.000016997               0.002053586               0.000006960              -0.000250324               0.000767963               0.000517639               0.000000000               0.000000000               0.000000000               0.000000000               0.000624302               0.001201670               0.000709819               0.000083903               0.000372584               0.000456488               0.000000000               0.000000000               0.000000000               0.000000000               0.000426669               0.001290179               0.000567747              -0.000001272               0.000430479               0.000429207               0.000000000               0.000000000               0.000000000               0.000000000               0.000284968               0.001459151               0.000405615              -0.000075531               0.000511556               0.000436025               0.000000000               0.000000000               0.000000000               0.000000000               0.000243788               0.001524143               0.000310612              -0.000099097               0.000541075               0.000441978               0.000000000               0.000000000               0.000000000               0.000000000               0.000222935               0.001563063               0.000245466              -0.000111782               0.000558276               0.000446494               0.000000000               0.000000000               0.000000000               0.000000000               0.000205455               0.001604538               0.000196038              -0.000123522               0.000576015               0.000452493               0.000000000               0.000000000               0.000000000               0.000000000               0.000182450               0.001651665               0.000157459              -0.000138039               0.000596562               0.000458523               0.000000000               0.000000000               0.000000000               0.000000000               0.000157680               0.001695251               0.000126131              -0.000152776               0.000616003               0.000463227               0.000000000               0.000000000               0.000000000               0.000000000               0.000140868               0.001728071               0.000098687              -0.000163183               0.000630412               0.000467229               0.000000000               0.000000000               0.000000000               0.000000000               0.000132467               0.001758924               0.000075895              -0.000170190               0.000643032               0.000472842               0.000000000               0.000000000               0.000000000               0.000000000               0.000126075               0.001805334               0.000055737              -0.000178388               0.000661235               0.000482847               0.000000000               0.000000000               0.000000000               0.000000000               0.000116188               0.001873945               0.000033970              -0.000190672               0.000688199               0.000497527               0.000000000               0.000000000               0.000000000               0.000000000               0.000100531               0.001958959               0.000015773              -0.000207170               0.000722037               0.000514866               0.000000000               0.000000000               0.000000000               0.000000000               0.000080412               0.002038819               0.000005792              -0.000224697               0.000754499               0.000529801               0.000000000               0.000000000               0.000000000               0.000000000               0.000059713               0.002107792               0.000000848              -0.000241081               0.000782951               0.000541870               0.000000000               0.000000000               0.000000000               0.000000000               0.000041866               0.002174135              -0.000001558              -0.000256066               0.000810060               0.000553994               0.000000000               0.000000000               0.000000000               0.000000000               0.000034049               0.002213466              -0.000000763              -0.000263914               0.000825786               0.000561872               0.000000000               0.000000000               0.000000000               0.000000000               0.000618611               0.000956354               0.000634809               0.000112433               0.000281303               0.000393737               0.000000000               0.000000000               0.000000000               0.000000000               0.000439298               0.001097137               0.000550576               0.000027594               0.000356511               0.000384104               0.000000000               0.000000000               0.000000000               0.000000000               0.000296120               0.001320527               0.000439026              -0.000054021               0.000458178               0.000404157               0.000000000               0.000000000               0.000000000               0.000000000               0.000254632               0.001424423               0.000349531              -0.000082566               0.000502325               0.000419759               0.000000000               0.000000000               0.000000000               0.000000000               0.000235742               0.001490493               0.000279752              -0.000097908               0.000529462               0.000431554               0.000000000               0.000000000               0.000000000               0.000000000               0.000220024               0.001551562               0.000225503              -0.000111436               0.000554328               0.000442891               0.000000000               0.000000000               0.000000000               0.000000000               0.000199067               0.001606932               0.000182919              -0.000126216               0.000577711               0.000451495               0.000000000               0.000000000               0.000000000               0.000000000               0.000174200               0.001659008               0.000150065              -0.000142051               0.000600347               0.000458297               0.000000000               0.000000000               0.000000000               0.000000000               0.000155646               0.001706865               0.000121285              -0.000154990               0.000620613               0.000465622               0.000000000               0.000000000               0.000000000               0.000000000               0.000146045               0.001755255               0.000093678              -0.000164639               0.000639959               0.000475319               0.000000000               0.000000000               0.000000000               0.000000000               0.000143140               0.001815111               0.000066041              -0.000173211               0.000662768               0.000489557               0.000000000               0.000000000               0.000000000               0.000000000               0.000142449               0.001895205               0.000039661              -0.000183482               0.000692889               0.000509408               0.000000000               0.000000000               0.000000000               0.000000000               0.000137061               0.001987287               0.000021886              -0.000197012               0.000728093               0.000531081               0.000000000               0.000000000               0.000000000               0.000000000               0.000123752               0.002077619               0.000012732              -0.000213295               0.000763631               0.000550336               0.000000000               0.000000000               0.000000000               0.000000000               0.000108048               0.002161005               0.000004539              -0.000229607               0.000796864               0.000567257               0.000000000               0.000000000               0.000000000               0.000000000               0.000094665               0.002242981              -0.000002337              -0.000244873               0.000829277               0.000584404               0.000000000               0.000000000               0.000000000               0.000000000               0.000083962               0.002283286              -0.000006438              -0.000253924               0.000845729               0.000591805               0.000000000               0.000000000               0.000000000               0.000000000               0.000585428               0.000725027               0.000544462               0.000128905               0.000198704               0.000327610               0.000000000               0.000000000               0.000000000               0.000000000               0.000450593               0.000904284               0.000518986               0.000055936               0.000282780               0.000338715               0.000000000               0.000000000               0.000000000               0.000000000               0.000322570               0.001164033               0.000461613              -0.000024541               0.000396187               0.000371646               0.000000000               0.000000000               0.000000000               0.000000000               0.000278118               0.001303948               0.000385852              -0.000058700               0.000454212               0.000395512               0.000000000               0.000000000               0.000000000               0.000000000               0.000259656               0.001402134               0.000316336              -0.000077896               0.000493338               0.000415443               0.000000000               0.000000000               0.000000000               0.000000000               0.000243752               0.001480233               0.000258697              -0.000093622               0.000524613               0.000430991               0.000000000               0.000000000               0.000000000               0.000000000               0.000222926               0.001545377               0.000213363              -0.000109575               0.000551645               0.000442071               0.000000000               0.000000000               0.000000000               0.000000000               0.000200657               0.001611197               0.000179302              -0.000126153               0.000579111               0.000452958               0.000000000               0.000000000               0.000000000               0.000000000               0.000180458               0.001674736               0.000148512              -0.000141670               0.000605463               0.000463793               0.000000000               0.000000000               0.000000000               0.000000000               0.000166333               0.001736696               0.000117851              -0.000154712               0.000630463               0.000475752               0.000000000               0.000000000               0.000000000               0.000000000               0.000163961               0.001804011               0.000089200              -0.000164016               0.000656003               0.000491987               0.000000000               0.000000000               0.000000000               0.000000000               0.000173987               0.001882729               0.000062106              -0.000170096               0.000684269               0.000514173               0.000000000               0.000000000               0.000000000               0.000000000               0.000181362               0.001973711               0.000038285              -0.000178703               0.000717465               0.000538762               0.000000000               0.000000000               0.000000000               0.000000000               0.000177040               0.002070819               0.000022725              -0.000192462               0.000754420               0.000561958               0.000000000               0.000000000               0.000000000               0.000000000               0.000166509               0.002159921               0.000012250              -0.000207549               0.000789150               0.000581601               0.000000000               0.000000000               0.000000000               0.000000000               0.000156462               0.002243340               0.000003798              -0.000221744               0.000821687               0.000599943               0.000000000               0.000000000               0.000000000               0.000000000               0.000142924               0.002277400              -0.000003406              -0.000231078               0.000836152               0.000605074               0.000000000               0.000000000               0.000000000               0.000000000               0.000524959               0.000520658               0.000440309               0.000131776               0.000129625               0.000261401               0.000000000               0.000000000               0.000000000               0.000000000               0.000450314               0.000718171               0.000465482               0.000079095               0.000213023               0.000292118               0.000000000               0.000000000               0.000000000               0.000000000               0.000353516               0.000990366               0.000457369               0.000008772               0.000327194               0.000335967               0.000000000               0.000000000               0.000000000               0.000000000               0.000312748               0.001162306               0.000400774              -0.000028008               0.000396767               0.000368759               0.000000000               0.000000000               0.000000000               0.000000000               0.000292766               0.001288651               0.000337988              -0.000051294               0.000446644               0.000395350               0.000000000               0.000000000               0.000000000               0.000000000               0.000274525               0.001384493               0.000280458              -0.000070115               0.000484865               0.000414750               0.000000000               0.000000000               0.000000000               0.000000000               0.000254410               0.001466758               0.000235013              -0.000087941               0.000518228               0.000430287               0.000000000               0.000000000               0.000000000               0.000000000               0.000233468               0.001545350               0.000201063              -0.000105618               0.000550318               0.000444700               0.000000000               0.000000000               0.000000000               0.000000000               0.000214164               0.001623412               0.000169739              -0.000122615               0.000582003               0.000459389               0.000000000               0.000000000               0.000000000               0.000000000               0.000201684               0.001698197               0.000140735              -0.000136643               0.000611608               0.000474965               0.000000000               0.000000000               0.000000000               0.000000000               0.000198082               0.001771809               0.000116205              -0.000147195               0.000639662               0.000492467               0.000000000               0.000000000               0.000000000               0.000000000               0.000205141               0.001855991               0.000088166              -0.000155071               0.000670348               0.000515277               0.000000000               0.000000000               0.000000000               0.000000000               0.000216928               0.001953497               0.000057483              -0.000162839               0.000705439               0.000542600               0.000000000               0.000000000               0.000000000               0.000000000               0.000223518               0.002056016               0.000037441              -0.000173182               0.000743059               0.000569877               0.000000000               0.000000000               0.000000000               0.000000000               0.000222686               0.002153202               0.000027288              -0.000185642               0.000779607               0.000593965               0.000000000               0.000000000               0.000000000               0.000000000               0.000216729               0.002242075               0.000015623              -0.000198985               0.000813679               0.000614694               0.000000000               0.000000000               0.000000000               0.000000000               0.000201821               0.002277346               0.000004702              -0.000208985               0.000828769               0.000619784               0.000000000               0.000000000               0.000000000               0.000000000               0.000443838               0.000352819               0.000334751               0.000122336               0.000076826               0.000199162               0.000000000               0.000000000               0.000000000               0.000000000               0.000438357               0.000546745               0.000392690               0.000096039               0.000150233               0.000246272               0.000000000               0.000000000               0.000000000               0.000000000               0.000387075               0.000814296               0.000421250               0.000043365               0.000256974               0.000300339               0.000000000               0.000000000               0.000000000               0.000000000               0.000354375               0.001007764               0.000386310               0.000006920               0.000333611               0.000340531               0.000000000               0.000000000               0.000000000               0.000000000               0.000333403               0.001153609               0.000333751              -0.000019175               0.000390924               0.000371749               0.000000000               0.000000000               0.000000000               0.000000000               0.000313098               0.001267412               0.000281717              -0.000041015               0.000436138               0.000395123               0.000000000               0.000000000               0.000000000               0.000000000               0.000295273               0.001368466               0.000239950              -0.000060331               0.000476261               0.000415930               0.000000000               0.000000000               0.000000000               0.000000000               0.000276833               0.001460709               0.000207917              -0.000078776               0.000513157               0.000434381               0.000000000               0.000000000               0.000000000               0.000000000               0.000260793               0.001549971               0.000180448              -0.000095949               0.000548635               0.000452686               0.000000000               0.000000000               0.000000000               0.000000000               0.000249514               0.001637637               0.000155708              -0.000111137               0.000582919               0.000471782               0.000000000               0.000000000               0.000000000               0.000000000               0.000243118               0.001725555               0.000132731              -0.000124525               0.000616687               0.000492163               0.000000000               0.000000000               0.000000000               0.000000000               0.000243486               0.001822191               0.000106365              -0.000136466               0.000652880               0.000516413               0.000000000               0.000000000               0.000000000               0.000000000               0.000254684               0.001926887               0.000078196              -0.000145354               0.000690741               0.000545387               0.000000000               0.000000000               0.000000000               0.000000000               0.000270284               0.002036309               0.000056224              -0.000153182               0.000729824               0.000576642               0.000000000               0.000000000               0.000000000               0.000000000               0.000276943               0.002140500               0.000042117              -0.000163708               0.000768062               0.000604354               0.000000000               0.000000000               0.000000000               0.000000000               0.000273475               0.002235113               0.000025119              -0.000176835               0.000803975               0.000627140               0.000000000               0.000000000               0.000000000               0.000000000               0.000261299               0.002275814               0.000011366              -0.000186489               0.000820760               0.000634271               0.000000000               0.000000000               0.000000000               0.000000000               0.000356231               0.000222529               0.000235695               0.000105770               0.000038919               0.000144688               0.000000000               0.000000000               0.000000000               0.000000000               0.000417044               0.000398512               0.000305223               0.000106576               0.000097310               0.000203887               0.000000000               0.000000000               0.000000000               0.000000000               0.000418430               0.000650856               0.000352532               0.000075553               0.000191765               0.000267319               0.000000000               0.000000000               0.000000000               0.000000000               0.000398884               0.000854156               0.000335921               0.000042811               0.000270445               0.000313257               0.000000000               0.000000000               0.000000000               0.000000000               0.000376603               0.001011531               0.000296518               0.000014784               0.000332245               0.000347030               0.000000000               0.000000000               0.000000000               0.000000000               0.000357870               0.001142330               0.000255121              -0.000008590               0.000383636               0.000375046               0.000000000               0.000000000               0.000000000               0.000000000               0.000340713               0.001258733               0.000220481              -0.000029574               0.000429432               0.000399857               0.000000000               0.000000000               0.000000000               0.000000000               0.000325632               0.001365974               0.000193989              -0.000048635               0.000471532               0.000422897               0.000000000               0.000000000               0.000000000               0.000000000               0.000311782               0.001469542               0.000172143              -0.000066774               0.000512101               0.000445326               0.000000000               0.000000000               0.000000000               0.000000000               0.000299182               0.001570393               0.000151966              -0.000084106               0.000551494               0.000467389               0.000000000               0.000000000               0.000000000               0.000000000               0.000290250               0.001675210               0.000132260              -0.000100557               0.000591917               0.000491360               0.000000000               0.000000000               0.000000000               0.000000000               0.000291521               0.001788348               0.000111675              -0.000114223               0.000634184               0.000519961               0.000000000               0.000000000               0.000000000               0.000000000               0.000300595               0.001900092               0.000091182              -0.000124788               0.000674954               0.000550166               0.000000000               0.000000000               0.000000000               0.000000000               0.000316414               0.002011453               0.000071851              -0.000132776               0.000714736               0.000581960               0.000000000               0.000000000               0.000000000               0.000000000               0.000327511               0.002117399               0.000051907              -0.000141858               0.000753079               0.000611221               0.000000000               0.000000000               0.000000000               0.000000000               0.000328129               0.002219444               0.000028753              -0.000154382               0.000791268               0.000636886               0.000000000               0.000000000               0.000000000               0.000000000               0.000319229               0.002267052               0.000013816              -0.000163670               0.000810233               0.000646563               0.000000000               0.000000000               0.000000000               0.000000000               0.000277885               0.000130198               0.000145887               0.000087931               0.000014088               0.000102019               0.000000000               0.000000000               0.000000000               0.000000000               0.000394505               0.000285366               0.000207214               0.000112267               0.000057699               0.000169966               0.000000000               0.000000000               0.000000000               0.000000000               0.000443530               0.000517787               0.000254285               0.000101599               0.000138728               0.000240327               0.000000000               0.000000000               0.000000000               0.000000000               0.000438625               0.000721130               0.000249457               0.000074342               0.000215593               0.000289936               0.000000000               0.000000000               0.000000000               0.000000000               0.000418335               0.000886985               0.000224689               0.000046002               0.000280325               0.000326327               0.000000000               0.000000000               0.000000000               0.000000000               0.000399644               0.001028497               0.000196324               0.000021304               0.000335728               0.000357032               0.000000000               0.000000000               0.000000000               0.000000000               0.000382544               0.001154986               0.000171914              -0.000000919               0.000385298               0.000384378               0.000000000               0.000000000               0.000000000               0.000000000               0.000370150               0.001279371               0.000152984              -0.000021115               0.000433491               0.000412376               0.000000000               0.000000000               0.000000000               0.000000000               0.000356676               0.001399161               0.000136551              -0.000041141               0.000480096               0.000438955               0.000000000               0.000000000               0.000000000               0.000000000               0.000343941               0.001512272               0.000122810              -0.000060056               0.000524104               0.000464048               0.000000000               0.000000000               0.000000000               0.000000000               0.000338878               0.001627616               0.000111492              -0.000076373               0.000567991               0.000491618               0.000000000               0.000000000               0.000000000               0.000000000               0.000340392               0.001748339               0.000098465              -0.000090895               0.000613072               0.000522177               0.000000000               0.000000000               0.000000000               0.000000000               0.000348076               0.001870769               0.000084249              -0.000103317               0.000658022               0.000554705               0.000000000               0.000000000               0.000000000               0.000000000               0.000358065               0.001986149               0.000069036              -0.000113994               0.000700041               0.000586047               0.000000000               0.000000000               0.000000000               0.000000000               0.000368055               0.002090912               0.000048717              -0.000123343               0.000738078               0.000614735               0.000000000               0.000000000               0.000000000               0.000000000               0.000380890               0.002200652               0.000024760              -0.000132247               0.000777626               0.000645378               0.000000000               0.000000000               0.000000000               0.000000000               0.000383389               0.002256105               0.000011127              -0.000138242               0.000798108               0.000659866               0.000000000               0.000000000               0.000000000               0.000000000               0.000219454               0.000079580               0.000068246               0.000072347               0.000002410               0.000074758               0.000000000               0.000000000               0.000000000               0.000000000               0.000375594               0.000216145               0.000104643               0.000113828               0.000034105               0.000147933               0.000000000               0.000000000               0.000000000               0.000000000               0.000461333               0.000429586               0.000133828               0.000119300               0.000103427               0.000222728               0.000000000               0.000000000               0.000000000               0.000000000               0.000467168               0.000631145               0.000133313               0.000096294               0.000178282               0.000274576               0.000000000               0.000000000               0.000000000               0.000000000               0.000449144               0.000801276               0.000121793               0.000068269               0.000244333               0.000312602               0.000000000               0.000000000               0.000000000               0.000000000               0.000428584               0.000946807               0.000107084               0.000042368               0.000301477               0.000343844               0.000000000               0.000000000               0.000000000               0.000000000               0.000412210               0.001081545               0.000095218               0.000019386               0.000354049               0.000373435               0.000000000               0.000000000               0.000000000               0.000000000               0.000399696               0.001216141               0.000085247              -0.000002131               0.000406087               0.000403955               0.000000000               0.000000000               0.000000000               0.000000000               0.000389529               0.001346654               0.000074524              -0.000022258               0.000456299               0.000434041               0.000000000               0.000000000               0.000000000               0.000000000               0.000381696               0.001472579               0.000069058              -0.000040936               0.000504500               0.000463564               0.000000000               0.000000000               0.000000000               0.000000000               0.000377162               0.001596191               0.000065391              -0.000058088               0.000551421               0.000493333               0.000000000               0.000000000               0.000000000               0.000000000               0.000374962               0.001717355               0.000059128              -0.000074059               0.000597132               0.000523074               0.000000000               0.000000000               0.000000000               0.000000000               0.000378019               0.001838679               0.000051513              -0.000088077               0.000642246               0.000554169               0.000000000               0.000000000               0.000000000               0.000000000               0.000385866               0.001958237               0.000040945              -0.000100080               0.000686099               0.000586020               0.000000000               0.000000000               0.000000000               0.000000000               0.000402012               0.002078380               0.000029415              -0.000109043               0.000729134               0.000620091               0.000000000               0.000000000               0.000000000               0.000000000               0.000429922               0.002200494               0.000016746              -0.000113841               0.000771438               0.000657597               0.000000000               0.000000000               0.000000000               0.000000000               0.000446456               0.002259856               0.000009165              -0.000115061               0.000791631               0.000676571               0.000000000               0.000000000               0.000000000               0.000000000               0.000196905               0.000064862               0.000000000               0.000065731              -0.000000290               0.000065441               0.000000000               0.000000000               0.000000000               0.000000000               0.000368016               0.000193217               0.000000000               0.000113853               0.000026454               0.000140307               0.000000000               0.000000000               0.000000000               0.000000000               0.000468491               0.000398047               0.000000000               0.000125927               0.000090705               0.000216632               0.000000000               0.000000000               0.000000000               0.000000000               0.000477805               0.000598885               0.000000000               0.000104315               0.000164855               0.000269170               0.000000000               0.000000000               0.000000000               0.000000000               0.000460391               0.000770167               0.000000000               0.000076375               0.000231262               0.000307636               0.000000000               0.000000000               0.000000000               0.000000000               0.000438961               0.000917197              -0.000000000               0.000049960               0.000289076               0.000339036               0.000000000               0.000000000               0.000000000               0.000000000               0.000423311               0.001056150               0.000000000               0.000026722               0.000343139               0.000369861               0.000000000               0.000000000               0.000000000               0.000000000               0.000409197               0.001191825               0.000000000               0.000004471               0.000395781               0.000400252               0.000000000               0.000000000               0.000000000               0.000000000               0.000401737               0.001325041               0.000000000              -0.000014979               0.000446669               0.000431690               0.000000000               0.000000000               0.000000000               0.000000000               0.000398746               0.001458712               0.000000000              -0.000032809               0.000497169               0.000464360               0.000000000               0.000000000               0.000000000               0.000000000               0.000391076               0.001586445               0.000000000              -0.000051652               0.000546027               0.000494375               0.000000000               0.000000000               0.000000000               0.000000000               0.000386545               0.001707556               0.000000000              -0.000068490               0.000592010               0.000523520               0.000000000               0.000000000               0.000000000               0.000000000               0.000386525               0.001824123               0.000000000              -0.000083068               0.000635724               0.000552656               0.000000000               0.000000000               0.000000000               0.000000000               0.000395557               0.001943689              -0.000000000              -0.000094627               0.000679432               0.000584805               0.000000000               0.000000000               0.000000000               0.000000000               0.000419134               0.002077488              -0.000000000              -0.000102510               0.000726659               0.000624149               0.000000000               0.000000000               0.000000000               0.000000000               0.000453026               0.002208311              -0.000000000              -0.000106154               0.000771481               0.000665327               0.000000000               0.000000000               0.000000000               0.000000000               0.000474071               0.002267911               0.000000000              -0.000105712               0.000791200               0.000685488               0.000000000               0.000000000               0.000000000               0.000000000               0.000264943               0.002947166              -0.000000000              -0.000269042               0.001072059               0.000803018               0.000000000               0.000000000               0.000000000               0.000000000               0.000310006               0.002462924              -0.000000000              -0.000191613               0.000884837               0.000693224               0.000000000               0.000000000               0.000000000               0.000000000               0.000448555               0.002063806               0.000000000              -0.000089767               0.000717851               0.000628083               0.000000000               0.000000000               0.000000000               0.000000000               0.000491705               0.001840564               0.000000000              -0.000045681               0.000628742               0.000583061               0.000000000               0.000000000               0.000000000               0.000000000               0.000492212               0.001710266               0.000000000              -0.000029203               0.000579817               0.000550614               0.000000000               0.000000000               0.000000000               0.000000000               0.000470219               0.001633184              -0.000000000              -0.000027816               0.000553661               0.000525845               0.000000000               0.000000000               0.000000000               0.000000000               0.000437083               0.001589815              -0.000000000              -0.000034821               0.000541540               0.000506719               0.000000000               0.000000000               0.000000000               0.000000000               0.000399958               0.001570851              -0.000000000              -0.000046372               0.000539069               0.000492697               0.000000000               0.000000000               0.000000000               0.000000000               0.000357588               0.001567668              -0.000000000              -0.000061863               0.000543172               0.000481309               0.000000000               0.000000000               0.000000000               0.000000000               0.000311744               0.001579997              -0.000000000              -0.000080596               0.000553526               0.000472930               0.000000000               0.000000000               0.000000000               0.000000000               0.000265205               0.001603290              -0.000000000              -0.000100959               0.000568078               0.000467118               0.000000000               0.000000000               0.000000000               0.000000000               0.000217738               0.001632385              -0.000000000              -0.000122396               0.000584922               0.000462525               0.000000000               0.000000000               0.000000000               0.000000000               0.000173950               0.001663185              -0.000000000              -0.000142666               0.000601945               0.000459278               0.000000000               0.000000000               0.000000000               0.000000000               0.000134933               0.001692659              -0.000000000              -0.000160982               0.000617875               0.000456893               0.000000000               0.000000000               0.000000000               0.000000000               0.000091291               0.001723820               0.000000000              -0.000181243               0.000635015               0.000453772               0.000000000               0.000000000               0.000000000               0.000000000               0.000042773               0.001759318               0.000000000              -0.000203874               0.000654392               0.000450517               0.000000000               0.000000000               0.000000000               0.000000000               0.000022839               0.001788976               0.000000000              -0.000215057               0.000668005               0.000452948               0.000000000               0.000000000               0.000000000               0.000000000               0.000282199               0.002902795              -0.000230154              -0.000257024               0.001053263               0.000796239               0.000000000               0.000000000               0.000000000               0.000000000               0.000316811               0.002430051              -0.000157402              -0.000184952               0.000871659               0.000686708               0.000000000               0.000000000               0.000000000               0.000000000               0.000444052               0.002047865              -0.000081038              -0.000089463               0.000712436               0.000622973               0.000000000               0.000000000               0.000000000               0.000000000               0.000480699               0.001834297              -0.000044524              -0.000049025               0.000627768               0.000578743               0.000000000               0.000000000               0.000000000               0.000000000               0.000477644               0.001708978              -0.000027360              -0.000034506               0.000581155               0.000546650               0.000000000               0.000000000               0.000000000               0.000000000               0.000455049               0.001634411              -0.000019404              -0.000033658               0.000556017               0.000522359               0.000000000               0.000000000               0.000000000               0.000000000               0.000423738               0.001593474              -0.000015487              -0.000040282               0.000544580               0.000504298               0.000000000               0.000000000               0.000000000               0.000000000               0.000386725               0.001573603              -0.000013227              -0.000051678               0.000541755               0.000490077               0.000000000               0.000000000               0.000000000               0.000000000               0.000346011               0.001571983              -0.000010911              -0.000066744               0.000546237               0.000479494               0.000000000               0.000000000               0.000000000               0.000000000               0.000302045               0.001583122              -0.000007887              -0.000084623               0.000555910               0.000471287               0.000000000               0.000000000               0.000000000               0.000000000               0.000256833               0.001606691              -0.000006605              -0.000104524               0.000570400               0.000465876               0.000000000               0.000000000               0.000000000               0.000000000               0.000210910               0.001634235              -0.000008183              -0.000125188               0.000586469               0.000461281               0.000000000               0.000000000               0.000000000               0.000000000               0.000168627               0.001661770              -0.000012726              -0.000144486               0.000602080               0.000457594               0.000000000               0.000000000               0.000000000               0.000000000               0.000129148               0.001687689              -0.000014370              -0.000162530               0.000616734               0.000454204               0.000000000               0.000000000               0.000000000               0.000000000               0.000087726               0.001716038              -0.000010447              -0.000181607               0.000632543               0.000450935               0.000000000               0.000000000               0.000000000               0.000000000               0.000043970               0.001747823              -0.000005713              -0.000201989               0.000649932               0.000447943               0.000000000               0.000000000               0.000000000               0.000000000               0.000025381               0.001773248              -0.000004167              -0.000212138               0.000661789               0.000449652               0.000000000               0.000000000               0.000000000               0.000000000               0.000329042               0.002771748              -0.000439538              -0.000223077               0.000998266               0.000775189               0.000000000               0.000000000               0.000000000               0.000000000               0.000334634               0.002336008              -0.000299681              -0.000166513               0.000834166               0.000667653               0.000000000               0.000000000               0.000000000               0.000000000               0.000428816               0.001999638              -0.000155534              -0.000089149               0.000696255               0.000607107               0.000000000               0.000000000               0.000000000               0.000000000               0.000448579               0.001813005              -0.000089231              -0.000058408               0.000623798               0.000565390               0.000000000               0.000000000               0.000000000               0.000000000               0.000438772               0.001703473              -0.000057970              -0.000048394               0.000583950               0.000535556               0.000000000               0.000000000               0.000000000               0.000000000               0.000414897               0.001638797              -0.000042527              -0.000049263               0.000562681               0.000513418               0.000000000               0.000000000               0.000000000               0.000000000               0.000385635               0.001601938              -0.000035020              -0.000055629               0.000552517               0.000496888               0.000000000               0.000000000               0.000000000               0.000000000               0.000352699               0.001585591              -0.000029499              -0.000065936               0.000550504               0.000484567               0.000000000               0.000000000               0.000000000               0.000000000               0.000313908               0.001583679              -0.000024176              -0.000080244               0.000554636               0.000474392               0.000000000               0.000000000               0.000000000               0.000000000               0.000273941               0.001595426              -0.000017829              -0.000096700               0.000564037               0.000467337               0.000000000               0.000000000               0.000000000               0.000000000               0.000234764               0.001615779              -0.000014308              -0.000113936               0.000576566               0.000462630               0.000000000               0.000000000               0.000000000               0.000000000               0.000194671               0.001636758              -0.000017884              -0.000131593               0.000589445               0.000457852               0.000000000               0.000000000               0.000000000               0.000000000               0.000158052               0.001655839              -0.000024550              -0.000147710               0.000601178               0.000453467               0.000000000               0.000000000               0.000000000               0.000000000               0.000121110               0.001675404              -0.000024844              -0.000164009               0.000613132               0.000449123               0.000000000               0.000000000               0.000000000               0.000000000               0.000080313               0.001696762              -0.000017014              -0.000181977               0.000626241               0.000444264               0.000000000               0.000000000               0.000000000               0.000000000               0.000040347               0.001717539              -0.000010073              -0.000199562               0.000639028               0.000439466               0.000000000               0.000000000               0.000000000               0.000000000               0.000023501               0.001733447              -0.000008291              -0.000207868               0.000647099               0.000439232               0.000000000               0.000000000               0.000000000               0.000000000               0.000397037               0.002566962              -0.000608190              -0.000171981               0.000912972               0.000740991               0.000000000               0.000000000               0.000000000               0.000000000               0.000358700               0.002194548              -0.000415564              -0.000139806               0.000778111               0.000638305               0.000000000               0.000000000               0.000000000               0.000000000               0.000403432               0.001926901              -0.000219951              -0.000089575               0.000672152               0.000582577               0.000000000               0.000000000               0.000000000               0.000000000               0.000401361               0.001779939              -0.000132898              -0.000071982               0.000617301               0.000545319               0.000000000               0.000000000               0.000000000               0.000000000               0.000384267               0.001693779              -0.000091525              -0.000067622               0.000587128               0.000519506               0.000000000               0.000000000               0.000000000               0.000000000               0.000360199               0.001643148              -0.000071420              -0.000070319               0.000571150               0.000500831               0.000000000               0.000000000               0.000000000               0.000000000               0.000333980               0.001614203              -0.000059430              -0.000076533               0.000563573               0.000487040               0.000000000               0.000000000               0.000000000               0.000000000               0.000304239               0.001602582              -0.000050369              -0.000086233               0.000562933               0.000476700               0.000000000               0.000000000               0.000000000               0.000000000               0.000268802               0.001602683              -0.000039930              -0.000099534               0.000567400               0.000467866               0.000000000               0.000000000               0.000000000               0.000000000               0.000234332               0.001615565              -0.000029251              -0.000114071               0.000576540               0.000462469               0.000000000               0.000000000               0.000000000               0.000000000               0.000201956               0.001629751              -0.000024553              -0.000127985               0.000585907               0.000457922               0.000000000               0.000000000               0.000000000               0.000000000               0.000172420               0.001641921              -0.000027770              -0.000140582               0.000594162               0.000453580               0.000000000               0.000000000               0.000000000               0.000000000               0.000143132               0.001652497              -0.000032601              -0.000152887               0.000601789               0.000448902               0.000000000               0.000000000               0.000000000               0.000000000               0.000109042               0.001665453              -0.000027649              -0.000167291               0.000610909               0.000443618               0.000000000               0.000000000               0.000000000               0.000000000               0.000071452               0.001679177              -0.000017664              -0.000183102               0.000620754               0.000437652               0.000000000               0.000000000               0.000000000               0.000000000               0.000035367               0.001689401              -0.000010889              -0.000197912               0.000629099               0.000431187               0.000000000               0.000000000               0.000000000               0.000000000               0.000019811               0.001697378              -0.000008650              -0.000204743               0.000634034               0.000429292               0.000000000               0.000000000               0.000000000               0.000000000               0.000472278               0.002312976              -0.000724009              -0.000112018               0.000808324               0.000696305               0.000000000               0.000000000               0.000000000               0.000000000               0.000382723               0.002022018              -0.000499953              -0.000109231               0.000710410               0.000601178               0.000000000               0.000000000               0.000000000               0.000000000               0.000372504               0.001840853              -0.000273538              -0.000090417               0.000643751               0.000553333               0.000000000               0.000000000               0.000000000               0.000000000               0.000349747               0.001739163              -0.000175134              -0.000086240               0.000608462               0.000522222               0.000000000               0.000000000               0.000000000               0.000000000               0.000325210               0.001678527              -0.000128212              -0.000087862               0.000588791               0.000500929               0.000000000               0.000000000               0.000000000               0.000000000               0.000301618               0.001643985              -0.000103314              -0.000092391               0.000578787               0.000486395               0.000000000               0.000000000               0.000000000               0.000000000               0.000278261               0.001626453              -0.000087190              -0.000098959               0.000575132               0.000476173               0.000000000               0.000000000               0.000000000               0.000000000               0.000252635               0.001622698              -0.000072599              -0.000108099               0.000576927               0.000468828               0.000000000               0.000000000               0.000000000               0.000000000               0.000222022               0.001630026              -0.000056104              -0.000120495               0.000583501               0.000463007               0.000000000               0.000000000               0.000000000               0.000000000               0.000192670               0.001641453              -0.000041518              -0.000132930               0.000591456               0.000458525               0.000000000               0.000000000               0.000000000               0.000000000               0.000170490               0.001650041              -0.000034795              -0.000142321               0.000597448               0.000455127               0.000000000               0.000000000               0.000000000               0.000000000               0.000149503               0.001654568              -0.000035586              -0.000150757               0.000601770               0.000451013               0.000000000               0.000000000               0.000000000               0.000000000               0.000126062               0.001658943              -0.000034936              -0.000160094               0.000606340               0.000446246               0.000000000               0.000000000               0.000000000               0.000000000               0.000096524               0.001667977              -0.000024268              -0.000172300               0.000613420               0.000441120               0.000000000               0.000000000               0.000000000               0.000000000               0.000062476               0.001677264              -0.000012995              -0.000186229               0.000621159               0.000434930               0.000000000               0.000000000               0.000000000               0.000000000               0.000031293               0.001686276              -0.000007261              -0.000199049               0.000628436               0.000429387               0.000000000               0.000000000               0.000000000               0.000000000               0.000019375               0.001695457              -0.000006118              -0.000204666               0.000633369               0.000428703               0.000000000               0.000000000               0.000000000               0.000000000               0.000538016               0.002031055              -0.000786627              -0.000052127               0.000694387               0.000642260               0.000000000               0.000000000               0.000000000               0.000000000               0.000401304               0.001831811              -0.000552522              -0.000078488               0.000636760               0.000558272               0.000000000               0.000000000               0.000000000               0.000000000               0.000339456               0.001745209              -0.000316588              -0.000090855               0.000612015               0.000521160               0.000000000               0.000000000               0.000000000               0.000000000               0.000301408               0.001689333              -0.000215237              -0.000098138               0.000595818               0.000497680               0.000000000               0.000000000               0.000000000               0.000000000               0.000274455               0.001657148              -0.000164541              -0.000104223               0.000587118               0.000482895               0.000000000               0.000000000               0.000000000               0.000000000               0.000251627               0.001640491              -0.000134893              -0.000110701               0.000583725               0.000473024               0.000000000               0.000000000               0.000000000               0.000000000               0.000230069               0.001637187              -0.000113180              -0.000118372               0.000585181               0.000466809               0.000000000               0.000000000               0.000000000               0.000000000               0.000206679               0.001645656              -0.000091885              -0.000128202               0.000591281               0.000463078               0.000000000               0.000000000               0.000000000               0.000000000               0.000178950               0.001659157              -0.000070150              -0.000140288               0.000599810               0.000459522               0.000000000               0.000000000               0.000000000               0.000000000               0.000155346               0.001670158              -0.000053459              -0.000150515               0.000606885               0.000456371               0.000000000               0.000000000               0.000000000               0.000000000               0.000141799               0.001675267              -0.000045419              -0.000156233               0.000610495               0.000454261               0.000000000               0.000000000               0.000000000               0.000000000               0.000128496               0.001677930              -0.000043533              -0.000161555               0.000613156               0.000451601               0.000000000               0.000000000               0.000000000               0.000000000               0.000109349               0.001683887              -0.000037716              -0.000169480               0.000617783               0.000448304               0.000000000               0.000000000               0.000000000               0.000000000               0.000087024               0.001697112              -0.000022412              -0.000179504               0.000625533               0.000446029               0.000000000               0.000000000               0.000000000               0.000000000               0.000061669               0.001713352              -0.000011033              -0.000191043               0.000634793               0.000443750               0.000000000               0.000000000               0.000000000               0.000000000               0.000031904               0.001731303              -0.000006400              -0.000204448               0.000645245               0.000440796               0.000000000               0.000000000               0.000000000               0.000000000               0.000020328               0.001747743              -0.000006727              -0.000210844               0.000652856               0.000442012               0.000000000               0.000000000               0.000000000               0.000000000               0.000585605               0.001737591              -0.000800199               0.000002402               0.000578390               0.000580792               0.000000000               0.000000000               0.000000000               0.000000000               0.000413214               0.001637909              -0.000577068              -0.000049784               0.000562559               0.000512775               0.000000000               0.000000000               0.000000000               0.000000000               0.000310187               0.001646130              -0.000351022              -0.000089446               0.000578520               0.000489074               0.000000000               0.000000000               0.000000000               0.000000000               0.000265594               0.001634938              -0.000251038              -0.000104769               0.000579897               0.000475128               0.000000000               0.000000000               0.000000000               0.000000000               0.000240091               0.001629974              -0.000197238              -0.000113713               0.000581224               0.000467511               0.000000000               0.000000000               0.000000000               0.000000000               0.000218342               0.001631166              -0.000161851              -0.000122017               0.000584389               0.000462372               0.000000000               0.000000000               0.000000000               0.000000000               0.000196743               0.001643825              -0.000133030              -0.000131699               0.000591836               0.000460137               0.000000000               0.000000000               0.000000000               0.000000000               0.000173019               0.001664700              -0.000105877              -0.000143205               0.000602630               0.000459424               0.000000000               0.000000000               0.000000000               0.000000000               0.000149325               0.001687583              -0.000081630              -0.000154951               0.000614172               0.000459222               0.000000000               0.000000000               0.000000000               0.000000000               0.000130268               0.001700565              -0.000064671              -0.000163720               0.000621423               0.000457703               0.000000000               0.000000000               0.000000000               0.000000000               0.000119178               0.001707819              -0.000055392              -0.000168785               0.000625529               0.000456744               0.000000000               0.000000000               0.000000000               0.000000000               0.000108722               0.001719209              -0.000049239              -0.000174130               0.000631107               0.000456977               0.000000000               0.000000000               0.000000000               0.000000000               0.000094094               0.001742385              -0.000038600              -0.000182512               0.000641627               0.000459114               0.000000000               0.000000000               0.000000000               0.000000000               0.000076117               0.001774057              -0.000021003              -0.000193213               0.000655751               0.000462538               0.000000000               0.000000000               0.000000000               0.000000000               0.000053560               0.001808998              -0.000010249              -0.000206039               0.000671673               0.000465634               0.000000000               0.000000000               0.000000000               0.000000000               0.000027423               0.001844613              -0.000006884              -0.000220292               0.000688296               0.000468003               0.000000000               0.000000000               0.000000000               0.000000000               0.000019201               0.001871034              -0.000008195              -0.000226678               0.000699231               0.000472553               0.000000000               0.000000000               0.000000000               0.000000000               0.000612382               0.001452724              -0.000769846               0.000048052               0.000468219               0.000516270               0.000000000               0.000000000               0.000000000               0.000000000               0.000419243               0.001454774              -0.000578592              -0.000024631               0.000493130               0.000468499               0.000000000               0.000000000               0.000000000               0.000000000               0.000290300               0.001549275              -0.000378170              -0.000084797               0.000544685               0.000459888               0.000000000               0.000000000               0.000000000               0.000000000               0.000245342               0.001578031              -0.000280988              -0.000105251               0.000561089               0.000455838               0.000000000               0.000000000               0.000000000               0.000000000               0.000222907               0.001595796              -0.000222209              -0.000115884               0.000570555               0.000454670               0.000000000               0.000000000               0.000000000               0.000000000               0.000202885               0.001616319              -0.000179639              -0.000125958               0.000580754               0.000454796               0.000000000               0.000000000               0.000000000               0.000000000               0.000180549               0.001647313              -0.000145141              -0.000138208               0.000595168               0.000456960               0.000000000               0.000000000               0.000000000               0.000000000               0.000155932               0.001681918              -0.000114363              -0.000151765               0.000611222               0.000459457               0.000000000               0.000000000               0.000000000               0.000000000               0.000135506               0.001711032              -0.000089034              -0.000163064               0.000624693               0.000461629               0.000000000               0.000000000               0.000000000               0.000000000               0.000121336               0.001730078              -0.000071707              -0.000170758               0.000633606               0.000462848               0.000000000               0.000000000               0.000000000               0.000000000               0.000110898               0.001753357              -0.000059251              -0.000177582               0.000643641               0.000466058               0.000000000               0.000000000               0.000000000               0.000000000               0.000100867               0.001791468              -0.000045901              -0.000186108               0.000659186               0.000473078               0.000000000               0.000000000               0.000000000               0.000000000               0.000088724               0.001847089              -0.000029845              -0.000197614               0.000681562               0.000483948               0.000000000               0.000000000               0.000000000               0.000000000               0.000069945               0.001908298              -0.000013795              -0.000212307               0.000706862               0.000494555               0.000000000               0.000000000               0.000000000               0.000000000               0.000045440               0.001964214              -0.000005352              -0.000228486               0.000730893               0.000502407               0.000000000               0.000000000               0.000000000               0.000000000               0.000022641               0.002017444              -0.000004029              -0.000243689               0.000753704               0.000510015               0.000000000               0.000000000               0.000000000               0.000000000               0.000016997               0.002053586              -0.000006960              -0.000250324               0.000767963               0.000517639               0.000000000               0.000000000               0.000000000               0.000000000               0.000624302               0.001201670              -0.000709819               0.000083903               0.000372584               0.000456488               0.000000000               0.000000000               0.000000000               0.000000000               0.000426669               0.001290179              -0.000567747              -0.000001272               0.000430479               0.000429207               0.000000000               0.000000000               0.000000000               0.000000000               0.000284968               0.001459151              -0.000405615              -0.000075531               0.000511556               0.000436025               0.000000000               0.000000000               0.000000000               0.000000000               0.000243788               0.001524143              -0.000310612              -0.000099097               0.000541075               0.000441978               0.000000000               0.000000000               0.000000000               0.000000000               0.000222935               0.001563063              -0.000245466              -0.000111782               0.000558276               0.000446494               0.000000000               0.000000000               0.000000000               0.000000000               0.000205455               0.001604538              -0.000196038              -0.000123522               0.000576015               0.000452493               0.000000000               0.000000000               0.000000000               0.000000000               0.000182450               0.001651665              -0.000157459              -0.000138039               0.000596562               0.000458523               0.000000000               0.000000000               0.000000000               0.000000000               0.000157680               0.001695251              -0.000126131              -0.000152776               0.000616003               0.000463227               0.000000000               0.000000000               0.000000000               0.000000000               0.000140868               0.001728071              -0.000098687              -0.000163183               0.000630412               0.000467229               0.000000000               0.000000000               0.000000000               0.000000000               0.000132467               0.001758924              -0.000075895              -0.000170190               0.000643032               0.000472842               0.000000000               0.000000000               0.000000000               0.000000000               0.000126075               0.001805334              -0.000055737              -0.000178388               0.000661235               0.000482847               0.000000000               0.000000000               0.000000000               0.000000000               0.000116188               0.001873945              -0.000033970              -0.000190672               0.000688199               0.000497527               0.000000000               0.000000000               0.000000000               0.000000000               0.000100531               0.001958959              -0.000015773              -0.000207170               0.000722037               0.000514866               0.000000000               0.000000000               0.000000000               0.000000000               0.000080412               0.002038819              -0.000005792              -0.000224697               0.000754499               0.000529801               0.000000000               0.000000000               0.000000000               0.000000000               0.000059713               0.002107792              -0.000000848              -0.000241081               0.000782951               0.000541870               0.000000000               0.000000000               0.000000000               0.000000000               0.000041866               0.002174135               0.000001558              -0.000256066               0.000810060               0.000553994               0.000000000               0.000000000               0.000000000               0.000000000               0.000034049               0.002213466               0.000000763              -0.000263914               0.000825786               0.000561872               0.000000000               0.000000000               0.000000000               0.000000000               0.000618611               0.000956354              -0.000634809               0.000112433               0.000281303               0.000393737               0.000000000               0.000000000               0.000000000               0.000000000               0.000439298               0.001097137              -0.000550576               0.000027594               0.000356511               0.000384104               0.000000000               0.000000000               0.000000000               0.000000000               0.000296120               0.001320527              -0.000439026              -0.000054021               0.000458178               0.000404157               0.000000000               0.000000000               0.000000000               0.000000000               0.000254632               0.001424423              -0.000349531              -0.000082566               0.000502325               0.000419759               0.000000000               0.000000000               0.000000000               0.000000000               0.000235742               0.001490493              -0.000279752              -0.000097908               0.000529462               0.000431554               0.000000000               0.000000000               0.000000000               0.000000000               0.000220024               0.001551562              -0.000225503              -0.000111436               0.000554328               0.000442891               0.000000000               0.000000000               0.000000000               0.000000000               0.000199067               0.001606932              -0.000182919              -0.000126216               0.000577711               0.000451495               0.000000000               0.000000000               0.000000000               0.000000000               0.000174200               0.001659008              -0.000150065              -0.000142051               0.000600347               0.000458297               0.000000000               0.000000000               0.000000000               0.000000000               0.000155646               0.001706865              -0.000121285              -0.000154990               0.000620613               0.000465622               0.000000000               0.000000000               0.000000000               0.000000000               0.000146045               0.001755255              -0.000093678              -0.000164639               0.000639959               0.000475319               0.000000000               0.000000000               0.000000000               0.000000000               0.000143140               0.001815111              -0.000066041              -0.000173211               0.000662768               0.000489557               0.000000000               0.000000000               0.000000000               0.000000000               0.000142449               0.001895205              -0.000039661              -0.000183482               0.000692889               0.000509408               0.000000000               0.000000000               0.000000000               0.000000000               0.000137061               0.001987287              -0.000021886              -0.000197012               0.000728093               0.000531081               0.000000000               0.000000000               0.000000000               0.000000000               0.000123752               0.002077619              -0.000012732              -0.000213295               0.000763631               0.000550336               0.000000000               0.000000000               0.000000000               0.000000000               0.000108048               0.002161005              -0.000004539              -0.000229607               0.000796864               0.000567257               0.000000000               0.000000000               0.000000000               0.000000000               0.000094665               0.002242981               0.000002337              -0.000244873               0.000829277               0.000584404               0.000000000               0.000000000               0.000000000               0.000000000               0.000083962               0.002283286               0.000006438              -0.000253924               0.000845729               0.000591805               0.000000000               0.000000000               0.000000000               0.000000000               0.000585428               0.000725027              -0.000544462               0.000128905               0.000198704               0.000327610               0.000000000               0.000000000               0.000000000               0.000000000               0.000450593               0.000904284              -0.000518986               0.000055936               0.000282780               0.000338715               0.000000000               0.000000000               0.000000000               0.000000000               0.000322570               0.001164033              -0.000461613              -0.000024541               0.000396187               0.000371646               0.000000000               0.000000000               0.000000000               0.000000000               0.000278118               0.001303948              -0.000385852              -0.000058700               0.000454212               0.000395512               0.000000000               0.000000000               0.000000000               0.000000000               0.000259656               0.001402134              -0.000316336              -0.000077896               0.000493338               0.000415443               0.000000000               0.000000000               0.000000000               0.000000000               0.000243752               0.001480233              -0.000258697              -0.000093622               0.000524613               0.000430991               0.000000000               0.000000000               0.000000000               0.000000000               0.000222926               0.001545377              -0.000213363              -0.000109575               0.000551645               0.000442071               0.000000000               0.000000000               0.000000000               0.000000000               0.000200657               0.001611197              -0.000179302              -0.000126153               0.000579111               0.000452958               0.000000000               0.000000000               0.000000000               0.000000000               0.000180458               0.001674736              -0.000148512              -0.000141670               0.000605463               0.000463793               0.000000000               0.000000000               0.000000000               0.000000000               0.000166333               0.001736696              -0.000117851              -0.000154712               0.000630463               0.000475752               0.000000000               0.000000000               0.000000000               0.000000000               0.000163961               0.001804011              -0.000089200              -0.000164016               0.000656003               0.000491987               0.000000000               0.000000000               0.000000000               0.000000000               0.000173987               0.001882729              -0.000062106              -0.000170096               0.000684269               0.000514173               0.000000000               0.000000000               0.000000000               0.000000000               0.000181362               0.001973711              -0.000038285              -0.000178703               0.000717465               0.000538762               0.000000000               0.000000000               0.000000000               0.000000000               0.000177040               0.002070819              -0.000022725              -0.000192462               0.000754420               0.000561958               0.000000000               0.000000000               0.000000000               0.000000000               0.000166509               0.002159921              -0.000012250              -0.000207549               0.000789150               0.000581601               0.000000000               0.000000000               0.000000000               0.000000000               0.000156462               0.002243340              -0.000003798              -0.000221744               0.000821687               0.000599943               0.000000000               0.000000000               0.000000000               0.000000000               0.000142924               0.002277400               0.000003406              -0.000231078               0.000836152               0.000605074               0.000000000               0.000000000               0.000000000               0.000000000               0.000524959               0.000520658              -0.000440309               0.000131776               0.000129625               0.000261401               0.000000000               0.000000000               0.000000000               0.000000000               0.000450314               0.000718171              -0.000465482               0.000079095               0.000213023               0.000292118               0.000000000               0.000000000               0.000000000               0.000000000               0.000353516               0.000990366              -0.000457369               0.000008772               0.000327194               0.000335967               0.000000000               0.000000000               0.000000000               0.000000000               0.000312748               0.001162306              -0.000400774              -0.000028008               0.000396767               0.000368759               0.000000000               0.000000000               0.000000000               0.000000000               0.000292766               0.001288651              -0.000337988              -0.000051294               0.000446644               0.000395350               0.000000000               0.000000000               0.000000000               0.000000000               0.000274525               0.001384493              -0.000280458              -0.000070115               0.000484865               0.000414750               0.000000000               0.000000000               0.000000000               0.000000000               0.000254410               0.001466758              -0.000235013              -0.000087941               0.000518228               0.000430287               0.000000000               0.000000000               0.000000000               0.000000000               0.000233468               0.001545350              -0.000201063              -0.000105618               0.000550318               0.000444700               0.000000000               0.000000000               0.000000000               0.000000000               0.000214164               0.001623412              -0.000169739              -0.000122615               0.000582003               0.000459389               0.000000000               0.000000000               0.000000000               0.000000000               0.000201684               0.001698197              -0.000140735              -0.000136643               0.000611608               0.000474965               0.000000000               0.000000000               0.000000000               0.000000000               0.000198082               0.001771809              -0.000116205              -0.000147195               0.000639662               0.000492467               0.000000000               0.000000000               0.000000000               0.000000000               0.000205141               0.001855991              -0.000088166              -0.000155071               0.000670348               0.000515277               0.000000000               0.000000000               0.000000000               0.000000000               0.000216928               0.001953497              -0.000057483              -0.000162839               0.000705439               0.000542600               0.000000000               0.000000000               0.000000000               0.000000000               0.000223518               0.002056016              -0.000037441              -0.000173182               0.000743059               0.000569877               0.000000000               0.000000000               0.000000000               0.000000000               0.000222686               0.002153202              -0.000027288              -0.000185642               0.000779607               0.000593965               0.000000000               0.000000000               0.000000000               0.000000000               0.000216729               0.002242075              -0.000015623              -0.000198985               0.000813679               0.000614694               0.000000000               0.000000000               0.000000000               0.000000000               0.000201821               0.002277346              -0.000004702              -0.000208985               0.000828769               0.000619784               0.000000000               0.000000000               0.000000000               0.000000000               0.000443838               0.000352819              -0.000334751               0.000122336               0.000076826               0.000199162               0.000000000               0.000000000               0.000000000               0.000000000               0.000438357               0.000546745              -0.000392690               0.000096039               0.000150233               0.000246272               0.000000000               0.000000000               0.000000000               0.000000000               0.000387075               0.000814296              -0.000421250               0.000043365               0.000256974               0.000300339               0.000000000               0.000000000               0.000000000               0.000000000               0.000354375               0.001007764              -0.000386310               0.000006920               0.000333611               0.000340531               0.000000000               0.000000000               0.000000000               0.000000000               0.000333403               0.001153609              -0.000333751              -0.000019175               0.000390924               0.000371749               0.000000000               0.000000000               0.000000000               0.000000000               0.000313098               0.001267412              -0.000281717              -0.000041015               0.000436138               0.000395123               0.000000000               0.000000000               0.000000000               0.000000000               0.000295273               0.001368466              -0.000239950              -0.000060331               0.000476261               0.000415930               0.000000000               0.000000000               0.000000000               0.000000000               0.000276833               0.001460709              -0.000207917              -0.000078776               0.000513157               0.000434381               0.000000000               0.000000000               0.000000000               0.000000000               0.000260793               0.001549971              -0.000180448              -0.000095949               0.000548635               0.000452686               0.000000000               0.000000000               0.000000000               0.000000000               0.000249514               0.001637637              -0.000155708              -0.000111137               0.000582919               0.000471782               0.000000000               0.000000000               0.000000000               0.000000000               0.000243118               0.001725555              -0.000132731              -0.000124525               0.000616687               0.000492163               0.000000000               0.000000000               0.000000000               0.000000000               0.000243486               0.001822191              -0.000106365              -0.000136466               0.000652880               0.000516413               0.000000000               0.000000000               0.000000000               0.000000000               0.000254684               0.001926887              -0.000078196              -0.000145354               0.000690741               0.000545387               0.000000000               0.000000000               0.000000000               0.000000000               0.000270284               0.002036309              -0.000056224              -0.000153182               0.000729824               0.000576642               0.000000000               0.000000000               0.000000000               0.000000000               0.000276943               0.002140500              -0.000042117              -0.000163708               0.000768062               0.000604354               0.000000000               0.000000000               0.000000000               0.000000000               0.000273475               0.002235113              -0.000025119              -0.000176835               0.000803975               0.000627140               0.000000000               0.000000000               0.000000000               0.000000000               0.000261299               0.002275814              -0.000011366              -0.000186489               0.000820760               0.000634271               0.000000000               0.000000000               0.000000000               0.000000000               0.000356231               0.000222529              -0.000235695               0.000105770               0.000038919               0.000144688               0.000000000               0.000000000               0.000000000               0.000000000               0.000417044               0.000398512              -0.000305223               0.000106576               0.000097310               0.000203887               0.000000000               0.000000000               0.000000000               0.000000000               0.000418430               0.000650856              -0.000352532               0.000075553               0.000191765               0.000267319               0.000000000               0.000000000               0.000000000               0.000000000               0.000398884               0.000854156              -0.000335921               0.000042811               0.000270445               0.000313257               0.000000000               0.000000000               0.000000000               0.000000000               0.000376603               0.001011531              -0.000296518               0.000014784               0.000332245               0.000347030               0.000000000               0.000000000               0.000000000               0.000000000               0.000357870               0.001142330              -0.000255121              -0.000008590               0.000383636               0.000375046               0.000000000               0.000000000               0.000000000               0.000000000               0.000340713               0.001258733              -0.000220481              -0.000029574               0.000429432               0.000399857               0.000000000               0.000000000               0.000000000               0.000000000               0.000325632               0.001365974              -0.000193989              -0.000048635               0.000471532               0.000422897               0.000000000               0.000000000               0.000000000               0.000000000               0.000311782               0.001469542              -0.000172143              -0.000066774               0.000512101               0.000445326               0.000000000               0.000000000               0.000000000               0.000000000               0.000299182               0.001570393              -0.000151966              -0.000084106               0.000551494               0.000467389               0.000000000               0.000000000               0.000000000               0.000000000               0.000290250               0.001675210              -0.000132260              -0.000100557               0.000591917               0.000491360               0.000000000               0.000000000               0.000000000               0.000000000               0.000291521               0.001788348              -0.000111675              -0.000114223               0.000634184               0.000519961               0.000000000               0.000000000               0.000000000               0.000000000               0.000300595               0.001900092              -0.000091182              -0.000124788               0.000674954               0.000550166               0.000000000               0.000000000               0.000000000               0.000000000               0.000316414               0.002011453              -0.000071851              -0.000132776               0.000714736               0.000581960               0.000000000               0.000000000               0.000000000               0.000000000               0.000327511               0.002117399              -0.000051907              -0.000141858               0.000753079               0.000611221               0.000000000               0.000000000               0.000000000               0.000000000               0.000328129               0.002219444              -0.000028753              -0.000154382               0.000791268               0.000636886               0.000000000               0.000000000               0.000000000               0.000000000               0.000319229               0.002267052              -0.000013816              -0.000163670               0.000810233               0.000646563               0.000000000               0.000000000               0.000000000               0.000000000               0.000277885               0.000130198              -0.000145887               0.000087931               0.000014088               0.000102019               0.000000000               0.000000000               0.000000000               0.000000000               0.000394505               0.000285366              -0.000207214               0.000112267               0.000057699               0.000169966               0.000000000               0.000000000               0.000000000               0.000000000               0.000443530               0.000517787              -0.000254285               0.000101599               0.000138728               0.000240327               0.000000000               0.000000000               0.000000000               0.000000000               0.000438625               0.000721130              -0.000249457               0.000074342               0.000215593               0.000289936               0.000000000               0.000000000               0.000000000               0.000000000               0.000418335               0.000886985              -0.000224689               0.000046002               0.000280325               0.000326327               0.000000000               0.000000000               0.000000000               0.000000000               0.000399644               0.001028497              -0.000196324               0.000021304               0.000335728               0.000357032               0.000000000               0.000000000               0.000000000               0.000000000               0.000382544               0.001154986              -0.000171914              -0.000000919               0.000385298               0.000384378               0.000000000               0.000000000               0.000000000               0.000000000               0.000370150               0.001279371              -0.000152984              -0.000021115               0.000433491               0.000412376               0.000000000               0.000000000               0.000000000               0.000000000               0.000356676               0.001399161              -0.000136551              -0.000041141               0.000480096               0.000438955               0.000000000               0.000000000               0.000000000               0.000000000               0.000343941               0.001512272              -0.000122810              -0.000060056               0.000524104               0.000464048               0.000000000               0.000000000               0.000000000               0.000000000               0.000338878               0.001627616              -0.000111492              -0.000076373               0.000567991               0.000491618               0.000000000               0.000000000               0.000000000               0.000000000               0.000340392               0.001748339              -0.000098465              -0.000090895               0.000613072               0.000522177               0.000000000               0.000000000               0.000000000               0.000000000               0.000348076               0.001870769              -0.000084249              -0.000103317               0.000658022               0.000554705               0.000000000               0.000000000               0.000000000               0.000000000               0.000358065               0.001986149              -0.000069036              -0.000113994               0.000700041               0.000586047               0.000000000               0.000000000               0.000000000               0.000000000               0.000368055               0.002090912              -0.000048717              -0.000123343               0.000738078               0.000614735               0.000000000               0.000000000               0.000000000               0.000000000               0.000380890               0.002200652              -0.000024760              -0.000132247               0.000777626               0.000645378               0.000000000               0.000000000               0.000000000               0.000000000               0.000383389               0.002256105              -0.000011127              -0.000138242               0.000798108               0.000659866               0.000000000               0.000000000               0.000000000               0.000000000               0.000219454               0.000079580              -0.000068246               0.000072347               0.000002410               0.000074758               0.000000000               0.000000000               0.000000000               0.000000000               0.000375594               0.000216145              -0.000104643               0.000113828               0.000034105               0.000147933               0.000000000               0.000000000               0.000000000               0.000000000               0.000461333               0.000429586              -0.000133828               0.000119300               0.000103427               0.000222728               0.000000000               0.000000000               0.000000000               0.000000000               0.000467168               0.000631145              -0.000133313               0.000096294               0.000178282               0.000274576               0.000000000               0.000000000               0.000000000               0.000000000               0.000449144               0.000801276              -0.000121793               0.000068269               0.000244333               0.000312602               0.000000000               0.000000000               0.000000000               0.000000000               0.000428584               0.000946807              -0.000107084               0.000042368               0.000301477               0.000343844               0.000000000               0.000000000               0.000000000               0.000000000               0.000412210               0.001081545              -0.000095218               0.000019386               0.000354049               0.000373435               0.000000000               0.000000000               0.000000000               0.000000000               0.000399696               0.001216141              -0.000085247              -0.000002131               0.000406087               0.000403955               0.000000000               0.000000000               0.000000000               0.000000000               0.000389529               0.001346654              -0.000074524              -0.000022258               0.000456299               0.000434041               0.000000000               0.000000000               0.000000000               0.000000000               0.000381696               0.001472579              -0.000069058              -0.000040936               0.000504500               0.000463564               0.000000000               0.000000000               0.000000000               0.000000000               0.000377162               0.001596191              -0.000065391              -0.000058088               0.000551421               0.000493333               0.000000000               0.000000000               0.000000000               0.000000000               0.000374962               0.001717355              -0.000059128              -0.000074059               0.000597132               0.000523074               0.000000000               0.000000000               0.000000000               0.000000000               0.000378019               0.001838679              -0.000051513              -0.000088077               0.000642246               0.000554169               0.000000000               0.000000000               0.000000000               0.000000000               0.000385866               0.001958237              -0.000040945              -0.000100080               0.000686099               0.000586020               0.000000000               0.000000000               0.000000000               0.000000000               0.000402012               0.002078380              -0.000029415              -0.000109043               0.000729134               0.000620091               0.000000000               0.000000000               0.000000000               0.000000000               0.000429922               0.002200494              -0.000016746              -0.000113841               0.000771438               0.000657597               0.000000000               0.000000000               0.000000000               0.000000000               0.000446456               0.002259856              -0.000009165              -0.000115061               0.000791631               0.000676571               0.000000000               0.000000000               0.000000000               0.000000000               0.000000000               0.000000000               0.000000000               0.000000000               0.000000000               0.000000000               0.000000000               0.000000000               0.000000000               0.000000000               0.000000000               0.000000000               0.000000000               0.000000000               0.000000000               0.000000000               0.000000000               0.000000000               0.000000000               0.000000000               0.000000000               0.000000000               0.000000000               0.000000000               0.000000000               0.000000000               0.000000000               0.000000000               0.000000000               0.000000000               0.000000000               0.000000000               0.000000000               0.000000000               0.000000000               0.000000000               0.000000000               0.000000000               0.000000000               0.000000000               0.000000000               0.000000000               0.000000000               0.000000000               0.000000000               0.000000000               0.000000000               0.000000000               0.000000000               0.000000000               0.000000000               0.000000000               0.000000000               0.000000000               0.000000000               0.000000000               0.000000000               0.000000000               0.000000000               0.000000000               0.000000000               0.000000000               0.000000000               0.000000000               0.000000000               0.000000000               0.000000000               0.000000000               0.000000000               0.000000000               0.000000000               0.000000000               0.000000000               0.000000000               0.000000000               0.000000000               0.000000000               0.000000000               0.000000000               0.000000000               0.000000000               0.000000000               0.000000000               0.000000000               0.000000000               0.000000000               0.000000000               0.000000000               0.000000000               0.000000000               0.000000000               0.000000000               0.000000000               0.000000000               0.000000000               0.000000000               0.000000000               0.000000000               0.000000000               0.000000000               0.000000000               0.000000000               0.000000000               0.000000000               0.000000000               0.000000000               0.000000000               0.000000000               0.000000000               0.000000000               0.000000000               0.000000000               0.000000000               0.000000000               0.000000000               0.000000000               0.000000000               0.000000000               0.000000000               0.000000000               0.000000000               0.000000000               0.000000000               0.000000000               0.000000000               0.000000000               0.000000000               0.000000000               0.000000000               0.000000000               0.000000000               0.000000000               0.000000000               0.000000000               0.000000000               0.000000000               0.000000000               0.000000000               0.000000000               0.000000000               0.000000000               0.000000000               0.000000000               0.000000000               0.000000000               0.000000000               0.000000000               0.000000000               0.000000000               0.000000000               0.000000000               0.000000000               0.000000000               0.000000000               0.000000000               0.000000000               0.000000000               0.000000000               0.000000000               0.000000000               0.000000000               0.000000000               0.000000000               0.000000000               0.000000000               0.000000000               0.000000000               0.000000000               0.000000000               0.000000000               0.000000000               0.000000000               0.000000000               0.000000000               0.000000000               0.000000000               0.000000000               0.000000000               0.000000000               0.000000000               0.000000000               0.000000000               0.000000000               0.000000000               0.000000000               0.000000000               0.000000000               0.000000000               0.000000000               0.000000000               0.000000000               0.000000000               0.000000000               0.000000000               0.000000000               0.000000000               0.000000000               0.000000000               0.000000000               0.000000000               0.000000000               0.000000000               0.000000000               0.000000000               0.000000000               0.000000000               0.000000000               0.000000000               0.000000000               0.000000000               0.000000000               0.000000000               0.000000000               0.000000000               0.000000000               0.000000000               0.000000000               0.000000000               0.000000000               0.000000000               0.000000000               0.000000000               0.000000000               0.000000000               0.000000000               0.000000000               0.000000000               0.000000000               0.000000000               0.000000000               0.000000000               0.000000000               0.000000000               0.000000000               0.000000000               0.000000000               0.000000000               0.000000000               0.000000000               0.000000000               0.000000000               0.000000000               0.000000000               0.000000000               0.000000000               0.000000000               0.000000000               0.000000000               0.000000000               0.000000000               0.000000000               0.000000000               0.000000000               0.000000000               0.000000000               0.000000000               0.000000000               0.000000000               0.000000000               0.000000000               0.000000000               0.000000000               0.000000000               0.000000000               0.000000000               0.000000000               0.000000000               0.000000000               0.000000000               0.000000000               0.000000000               0.000000000               0.000000000               0.000000000               0.000000000               0.000000000               0.000000000               0.000000000               0.000000000               0.000000000               0.000000000               0.000000000               0.000000000               0.000000000               0.000000000               0.000000000               0.000000000               0.000000000               0.000000000               0.000000000               0.000000000               0.000000000               0.000000000               0.000000000               0.000000000               0.000000000               0.000000000               0.000000000               0.000000000               0.000000000               0.000000000               0.000000000               0.000000000               0.000000000               0.000000000               0.000000000               0.000000000               0.000000000               0.000000000               0.000000000               0.000000000               0.000000000               0.000000000               0.000000000               0.000000000               0.000000000               0.000000000               0.000000000               0.000000000               0.000000000               0.000000000               0.000000000               0.000000000               0.000000000               0.000000000               0.000000000               0.000000000               0.000000000               0.000000000               0.000000000               0.000000000               0.000000000               0.000000000               0.000000000               0.000000000               0.000000000               0.000000000               0.000000000               0.000000000               0.000000000               0.000282199               0.002902795               0.000230154              -0.000257024               0.001053263               0.000796239               0.000000000               0.000000000               0.000000000               0.000000000               0.000316811               0.002430051               0.000157402              -0.000184952               0.000871659               0.000686708               0.000000000               0.000000000               0.000000000               0.000000000               0.000444052               0.002047865               0.000081038              -0.000089463               0.000712436               0.000622973               0.000000000               0.000000000               0.000000000               0.000000000               0.000480699               0.001834297               0.000044524              -0.000049025               0.000627768               0.000578743               0.000000000               0.000000000               0.000000000               0.000000000               0.000477644               0.001708978               0.000027360              -0.000034506               0.000581155               0.000546650               0.000000000               0.000000000               0.000000000               0.000000000               0.000455049               0.001634411               0.000019404              -0.000033658               0.000556017               0.000522359               0.000000000               0.000000000               0.000000000               0.000000000               0.000423738               0.001593474               0.000015487              -0.000040282               0.000544580               0.000504298               0.000000000               0.000000000               0.000000000               0.000000000               0.000386725               0.001573603               0.000013227              -0.000051678               0.000541755               0.000490077               0.000000000               0.000000000               0.000000000               0.000000000               0.000346011               0.001571983               0.000010911              -0.000066744               0.000546237               0.000479494               0.000000000               0.000000000               0.000000000               0.000000000               0.000302045               0.001583122               0.000007887              -0.000084623               0.000555910               0.000471287               0.000000000               0.000000000               0.000000000               0.000000000               0.000256833               0.001606691               0.000006605              -0.000104524               0.000570400               0.000465876               0.000000000               0.000000000               0.000000000               0.000000000               0.000210910               0.001634235               0.000008183              -0.000125188               0.000586469               0.000461281               0.000000000               0.000000000               0.000000000               0.000000000               0.000168627               0.001661770               0.000012726              -0.000144486               0.000602080               0.000457594               0.000000000               0.000000000               0.000000000               0.000000000               0.000129148               0.001687689               0.000014370              -0.000162530               0.000616734               0.000454204               0.000000000               0.000000000               0.000000000               0.000000000               0.000087726               0.001716038               0.000010447              -0.000181607               0.000632543               0.000450935               0.000000000               0.000000000               0.000000000               0.000000000               0.000043970               0.001747823               0.000005713              -0.000201989               0.000649932               0.000447943               0.000000000               0.000000000               0.000000000               0.000000000               0.000025381               0.001773248               0.000004167              -0.000212138               0.000661789               0.000449652               0.000000000               0.000000000               0.000000000               0.000000000               0.000329042               0.002771748               0.000439538              -0.000223077               0.000998266               0.000775189               0.000000000               0.000000000               0.000000000               0.000000000               0.000334634               0.002336008               0.000299681              -0.000166513               0.000834166               0.000667653               0.000000000               0.000000000               0.000000000               0.000000000               0.000428816               0.001999638               0.000155534              -0.000089149               0.000696255               0.000607107               0.000000000               0.000000000               0.000000000               0.000000000               0.000448579               0.001813005               0.000089231              -0.000058408               0.000623798               0.000565390               0.000000000               0.000000000               0.000000000               0.000000000               0.000438772               0.001703473               0.000057970              -0.000048394               0.000583950               0.000535556               0.000000000               0.000000000               0.000000000               0.000000000               0.000414897               0.001638797               0.000042527              -0.000049263               0.000562681               0.000513418               0.000000000               0.000000000               0.000000000               0.000000000               0.000385635               0.001601938               0.000035020              -0.000055629               0.000552517               0.000496888               0.000000000               0.000000000               0.000000000               0.000000000               0.000352699               0.001585591               0.000029499              -0.000065936               0.000550504               0.000484567               0.000000000               0.000000000               0.000000000               0.000000000               0.000313908               0.001583679               0.000024176              -0.000080244               0.000554636               0.000474392               0.000000000               0.000000000               0.000000000               0.000000000               0.000273941               0.001595426               0.000017829              -0.000096700               0.000564037               0.000467337               0.000000000               0.000000000               0.000000000               0.000000000               0.000234764               0.001615779               0.000014308              -0.000113936               0.000576566               0.000462630               0.000000000               0.000000000               0.000000000               0.000000000               0.000194671               0.001636758               0.000017884              -0.000131593               0.000589445               0.000457852               0.000000000               0.000000000               0.000000000               0.000000000               0.000158052               0.001655839               0.000024550              -0.000147710               0.000601178               0.000453467               0.000000000               0.000000000               0.000000000               0.000000000               0.000121110               0.001675404               0.000024844              -0.000164009               0.000613132               0.000449123               0.000000000               0.000000000               0.000000000               0.000000000               0.000080313               0.001696762               0.000017014              -0.000181977               0.000626241               0.000444264               0.000000000               0.000000000               0.000000000               0.000000000               0.000040347               0.001717539               0.000010073              -0.000199562               0.000639028               0.000439466               0.000000000               0.000000000               0.000000000               0.000000000               0.000023501               0.001733447               0.000008291              -0.000207868               0.000647099               0.000439232               0.000000000               0.000000000               0.000000000               0.000000000               0.000397037               0.002566962               0.000608190              -0.000171981               0.000912972               0.000740991               0.000000000               0.000000000               0.000000000               0.000000000               0.000358700               0.002194548               0.000415564              -0.000139806               0.000778111               0.000638305               0.000000000               0.000000000               0.000000000               0.000000000               0.000403432               0.001926901               0.000219951              -0.000089575               0.000672152               0.000582577               0.000000000               0.000000000               0.000000000               0.000000000               0.000401361               0.001779939               0.000132898              -0.000071982               0.000617301               0.000545319               0.000000000               0.000000000               0.000000000               0.000000000               0.000384267               0.001693779               0.000091525              -0.000067622               0.000587128               0.000519506               0.000000000               0.000000000               0.000000000               0.000000000               0.000360199               0.001643148               0.000071420              -0.000070319               0.000571150               0.000500831               0.000000000               0.000000000               0.000000000               0.000000000               0.000333980               0.001614203               0.000059430              -0.000076533               0.000563573               0.000487040               0.000000000               0.000000000               0.000000000               0.000000000               0.000304239               0.001602582               0.000050369              -0.000086233               0.000562933               0.000476700               0.000000000               0.000000000               0.000000000               0.000000000               0.000268802               0.001602683               0.000039930              -0.000099534               0.000567400               0.000467866               0.000000000               0.000000000               0.000000000               0.000000000               0.000234332               0.001615565               0.000029251              -0.000114071               0.000576540               0.000462469               0.000000000               0.000000000               0.000000000               0.000000000               0.000201956               0.001629751               0.000024553              -0.000127985               0.000585907               0.000457922               0.000000000               0.000000000               0.000000000               0.000000000               0.000172420               0.001641921               0.000027770              -0.000140582               0.000594162               0.000453580               0.000000000               0.000000000               0.000000000               0.000000000               0.000143132               0.001652497               0.000032601              -0.000152887               0.000601789               0.000448902               0.000000000               0.000000000               0.000000000               0.000000000               0.000109042               0.001665453               0.000027649              -0.000167291               0.000610909               0.000443618               0.000000000               0.000000000               0.000000000               0.000000000               0.000071452               0.001679177               0.000017664              -0.000183102               0.000620754               0.000437652               0.000000000               0.000000000               0.000000000               0.000000000               0.000035367               0.001689401               0.000010889              -0.000197912               0.000629099               0.000431187               0.000000000               0.000000000               0.000000000               0.000000000               0.000019811               0.001697378               0.000008650              -0.000204743               0.000634034               0.000429292               0.000000000               0.000000000               0.000000000               0.000000000               0.000472278               0.002312976               0.000724009              -0.000112018               0.000808324               0.000696305               0.000000000               0.000000000               0.000000000               0.000000000               0.000382723               0.002022018               0.000499953              -0.000109231               0.000710410               0.000601178               0.000000000               0.000000000               0.000000000               0.000000000               0.000372504               0.001840853               0.000273538              -0.000090417               0.000643751               0.000553333               0.000000000               0.000000000               0.000000000               0.000000000               0.000349747               0.001739163               0.000175134              -0.000086240               0.000608462               0.000522222               0.000000000               0.000000000               0.000000000               0.000000000               0.000325210               0.001678527               0.000128212              -0.000087862               0.000588791               0.000500929               0.000000000               0.000000000               0.000000000               0.000000000               0.000301618               0.001643985               0.000103314              -0.000092391               0.000578787               0.000486395               0.000000000               0.000000000               0.000000000               0.000000000               0.000278261               0.001626453               0.000087190              -0.000098959               0.000575132               0.000476173               0.000000000               0.000000000               0.000000000               0.000000000               0.000252635               0.001622698               0.000072599              -0.000108099               0.000576927               0.000468828               0.000000000               0.000000000               0.000000000               0.000000000               0.000222022               0.001630026               0.000056104              -0.000120495               0.000583501               0.000463007               0.000000000               0.000000000               0.000000000               0.000000000               0.000192670               0.001641453               0.000041518              -0.000132930               0.000591456               0.000458525               0.000000000               0.000000000               0.000000000               0.000000000               0.000170490               0.001650041               0.000034795              -0.000142321               0.000597448               0.000455127               0.000000000               0.000000000               0.000000000               0.000000000               0.000149503               0.001654568               0.000035586              -0.000150757               0.000601770               0.000451013               0.000000000               0.000000000               0.000000000               0.000000000               0.000126062               0.001658943               0.000034936              -0.000160094               0.000606340               0.000446246               0.000000000               0.000000000               0.000000000               0.000000000               0.000096524               0.001667977               0.000024268              -0.000172300               0.000613420               0.000441120               0.000000000               0.000000000               0.000000000               0.000000000               0.000062476               0.001677264               0.000012995              -0.000186229               0.000621159               0.000434930               0.000000000               0.000000000               0.000000000               0.000000000               0.000031293               0.001686276               0.000007261              -0.000199049               0.000628436               0.000429387               0.000000000               0.000000000               0.000000000               0.000000000               0.000019375               0.001695457               0.000006118              -0.000204666               0.000633369               0.000428703               0.000000000               0.000000000               0.000000000               0.000000000               0.000538016               0.002031055               0.000786627              -0.000052127               0.000694387               0.000642260               0.000000000               0.000000000               0.000000000               0.000000000               0.000401304               0.001831811               0.000552522              -0.000078488               0.000636760               0.000558272               0.000000000               0.000000000               0.000000000               0.000000000               0.000339456               0.001745209               0.000316588              -0.000090855               0.000612015               0.000521160               0.000000000               0.000000000               0.000000000               0.000000000               0.000301408               0.001689333               0.000215237              -0.000098138               0.000595818               0.000497680               0.000000000               0.000000000               0.000000000               0.000000000               0.000274455               0.001657148               0.000164541              -0.000104223               0.000587118               0.000482895               0.000000000               0.000000000               0.000000000               0.000000000               0.000251627               0.001640491               0.000134893              -0.000110701               0.000583725               0.000473024               0.000000000               0.000000000               0.000000000               0.000000000               0.000230069               0.001637187               0.000113180              -0.000118372               0.000585181               0.000466809               0.000000000               0.000000000               0.000000000               0.000000000               0.000206679               0.001645656               0.000091885              -0.000128202               0.000591281               0.000463078               0.000000000               0.000000000               0.000000000               0.000000000               0.000178950               0.001659157               0.000070150              -0.000140288               0.000599810               0.000459522               0.000000000               0.000000000               0.000000000               0.000000000               0.000155346               0.001670158               0.000053459              -0.000150515               0.000606885               0.000456371               0.000000000               0.000000000               0.000000000               0.000000000               0.000141799               0.001675267               0.000045419              -0.000156233               0.000610495               0.000454261               0.000000000               0.000000000               0.000000000               0.000000000               0.000128496               0.001677930               0.000043533              -0.000161555               0.000613156               0.000451601               0.000000000               0.000000000               0.000000000               0.000000000               0.000109349               0.001683887               0.000037716              -0.000169480               0.000617783               0.000448304               0.000000000               0.000000000               0.000000000               0.000000000               0.000087024               0.001697112               0.000022412              -0.000179504               0.000625533               0.000446029               0.000000000               0.000000000               0.000000000               0.000000000               0.000061669               0.001713352               0.000011033              -0.000191043               0.000634793               0.000443750               0.000000000               0.000000000               0.000000000               0.000000000               0.000031904               0.001731303               0.000006400              -0.000204448               0.000645245               0.000440796               0.000000000               0.000000000               0.000000000               0.000000000               0.000020328               0.001747743               0.000006727              -0.000210844               0.000652856               0.000442012               0.000000000               0.000000000               0.000000000               0.000000000               0.000585605               0.001737591               0.000800199               0.000002402               0.000578390               0.000580792               0.000000000               0.000000000               0.000000000               0.000000000               0.000413214               0.001637909               0.000577068              -0.000049784               0.000562559               0.000512775               0.000000000               0.000000000               0.000000000               0.000000000               0.000310187               0.001646130               0.000351022              -0.000089446               0.000578520               0.000489074               0.000000000               0.000000000               0.000000000               0.000000000               0.000265594               0.001634938               0.000251038              -0.000104769               0.000579897               0.000475128               0.000000000               0.000000000               0.000000000               0.000000000               0.000240091               0.001629974               0.000197238              -0.000113713               0.000581224               0.000467511               0.000000000               0.000000000               0.000000000               0.000000000               0.000218342               0.001631166               0.000161851              -0.000122017               0.000584389               0.000462372               0.000000000               0.000000000               0.000000000               0.000000000               0.000196743               0.001643825               0.000133030              -0.000131699               0.000591836               0.000460137               0.000000000               0.000000000               0.000000000               0.000000000               0.000173019               0.001664700               0.000105877              -0.000143205               0.000602630               0.000459424               0.000000000               0.000000000               0.000000000               0.000000000               0.000149325               0.001687583               0.000081630              -0.000154951               0.000614172               0.000459222               0.000000000               0.000000000               0.000000000               0.000000000               0.000130268               0.001700565               0.000064671              -0.000163720               0.000621423               0.000457703               0.000000000               0.000000000               0.000000000               0.000000000               0.000119178               0.001707819               0.000055392              -0.000168785               0.000625529               0.000456744               0.000000000               0.000000000               0.000000000               0.000000000               0.000108722               0.001719209               0.000049239              -0.000174130               0.000631107               0.000456977               0.000000000               0.000000000               0.000000000               0.000000000               0.000094094               0.001742385               0.000038600              -0.000182512               0.000641627               0.000459114               0.000000000               0.000000000               0.000000000               0.000000000               0.000076117               0.001774057               0.000021003              -0.000193213               0.000655751               0.000462538               0.000000000               0.000000000               0.000000000               0.000000000               0.000053560               0.001808998               0.000010249              -0.000206039               0.000671673               0.000465634               0.000000000               0.000000000               0.000000000               0.000000000               0.000027423               0.001844613               0.000006884              -0.000220292               0.000688296               0.000468003               0.000000000               0.000000000               0.000000000               0.000000000               0.000019201               0.001871034               0.000008195              -0.000226678               0.000699231               0.000472553               0.000000000               0.000000000               0.000000000               0.000000000               0.000612382               0.001452724               0.000769846               0.000048052               0.000468219               0.000516270               0.000000000               0.000000000               0.000000000               0.000000000               0.000419243               0.001454774               0.000578592              -0.000024631               0.000493130               0.000468499               0.000000000               0.000000000               0.000000000               0.000000000               0.000290300               0.001549275               0.000378170              -0.000084797               0.000544685               0.000459888               0.000000000               0.000000000               0.000000000               0.000000000               0.000245342               0.001578031               0.000280988              -0.000105251               0.000561089               0.000455838               0.000000000               0.000000000               0.000000000               0.000000000               0.000222907               0.001595796               0.000222209              -0.000115884               0.000570555               0.000454670               0.000000000               0.000000000               0.000000000               0.000000000               0.000202885               0.001616319               0.000179639              -0.000125958               0.000580754               0.000454796               0.000000000               0.000000000               0.000000000               0.000000000               0.000180549               0.001647313               0.000145141              -0.000138208               0.000595168               0.000456960               0.000000000               0.000000000               0.000000000               0.000000000               0.000155932               0.001681918               0.000114363              -0.000151765               0.000611222               0.000459457               0.000000000               0.000000000               0.000000000               0.000000000               0.000135506               0.001711032               0.000089034              -0.000163064               0.000624693               0.000461629               0.000000000               0.000000000               0.000000000               0.000000000               0.000121336               0.001730078               0.000071707              -0.000170758               0.000633606               0.000462848               0.000000000               0.000000000               0.000000000               0.000000000               0.000110898               0.001753357               0.000059251              -0.000177582               0.000643641               0.000466058               0.000000000               0.000000000               0.000000000               0.000000000               0.000100867               0.001791468               0.000045901              -0.000186108               0.000659186               0.000473078               0.000000000               0.000000000               0.000000000               0.000000000               0.000088724               0.001847089               0.000029845              -0.000197614               0.000681562               0.000483948               0.000000000               0.000000000               0.000000000               0.000000000               0.000069945               0.001908298               0.000013795              -0.000212307               0.000706862               0.000494555               0.000000000               0.000000000               0.000000000               0.000000000               0.000045440               0.001964214               0.000005352              -0.000228486               0.000730893               0.000502407               0.000000000               0.000000000               0.000000000               0.000000000               0.000022641               0.002017444               0.000004029              -0.000243689               0.000753704               0.000510015               0.000000000               0.000000000               0.000000000               0.000000000               0.000016997               0.002053586               0.000006960              -0.000250324               0.000767963               0.000517639               0.000000000               0.000000000               0.000000000               0.000000000               0.000624302               0.001201670               0.000709819               0.000083903               0.000372584               0.000456488               0.000000000               0.000000000               0.000000000               0.000000000               0.000426669               0.001290179               0.000567747              -0.000001272               0.000430479               0.000429207               0.000000000               0.000000000               0.000000000               0.000000000               0.000284968               0.001459151               0.000405615              -0.000075531               0.000511556               0.000436025               0.000000000               0.000000000               0.000000000               0.000000000               0.000243788               0.001524143               0.000310612              -0.000099097               0.000541075               0.000441978               0.000000000               0.000000000               0.000000000               0.000000000               0.000222935               0.001563063               0.000245466              -0.000111782               0.000558276               0.000446494               0.000000000               0.000000000               0.000000000               0.000000000               0.000205455               0.001604538               0.000196038              -0.000123522               0.000576015               0.000452493               0.000000000               0.000000000               0.000000000               0.000000000               0.000182450               0.001651665               0.000157459              -0.000138039               0.000596562               0.000458523               0.000000000               0.000000000               0.000000000               0.000000000               0.000157680               0.001695251               0.000126131              -0.000152776               0.000616003               0.000463227               0.000000000               0.000000000               0.000000000               0.000000000               0.000140868               0.001728071               0.000098687              -0.000163183               0.000630412               0.000467229               0.000000000               0.000000000               0.000000000               0.000000000               0.000132467               0.001758924               0.000075895              -0.000170190               0.000643032               0.000472842               0.000000000               0.000000000               0.000000000               0.000000000               0.000126075               0.001805334               0.000055737              -0.000178388               0.000661235               0.000482847               0.000000000               0.000000000               0.000000000               0.000000000               0.000116188               0.001873945               0.000033970              -0.000190672               0.000688199               0.000497527               0.000000000               0.000000000               0.000000000               0.000000000               0.000100531               0.001958959               0.000015773              -0.000207170               0.000722037               0.000514866               0.000000000               0.000000000               0.000000000               0.000000000               0.000080412               0.002038819               0.000005792              -0.000224697               0.000754499               0.000529801               0.000000000               0.000000000               0.000000000               0.000000000               0.000059713               0.002107792               0.000000848              -0.000241081               0.000782951               0.000541870               0.000000000               0.000000000               0.000000000               0.000000000               0.000041866               0.002174135              -0.000001558              -0.000256066               0.000810060               0.000553994               0.000000000               0.000000000               0.000000000               0.000000000               0.000034049               0.002213466              -0.000000763              -0.000263914               0.000825786               0.000561872               0.000000000               0.000000000               0.000000000               0.000000000               0.000618611               0.000956354               0.000634809               0.000112433               0.000281303               0.000393737               0.000000000               0.000000000               0.000000000               0.000000000               0.000439298               0.001097137               0.000550576               0.000027594               0.000356511               0.000384104               0.000000000               0.000000000               0.000000000               0.000000000               0.000296120               0.001320527               0.000439026              -0.000054021               0.000458178               0.000404157               0.000000000               0.000000000               0.000000000               0.000000000               0.000254632               0.001424423               0.000349531              -0.000082566               0.000502325               0.000419759               0.000000000               0.000000000               0.000000000               0.000000000               0.000235742               0.001490493               0.000279752              -0.000097908               0.000529462               0.000431554               0.000000000               0.000000000               0.000000000               0.000000000               0.000220024               0.001551562               0.000225503              -0.000111436               0.000554328               0.000442891               0.000000000               0.000000000               0.000000000               0.000000000               0.000199067               0.001606932               0.000182919              -0.000126216               0.000577711               0.000451495               0.000000000               0.000000000               0.000000000               0.000000000               0.000174200               0.001659008               0.000150065              -0.000142051               0.000600347               0.000458297               0.000000000               0.000000000               0.000000000               0.000000000               0.000155646               0.001706865               0.000121285              -0.000154990               0.000620613               0.000465622               0.000000000               0.000000000               0.000000000               0.000000000               0.000146045               0.001755255               0.000093678              -0.000164639               0.000639959               0.000475319               0.000000000               0.000000000               0.000000000               0.000000000               0.000143140               0.001815111               0.000066041              -0.000173211               0.000662768               0.000489557               0.000000000               0.000000000               0.000000000               0.000000000               0.000142449               0.001895205               0.000039661              -0.000183482               0.000692889               0.000509408               0.000000000               0.000000000               0.000000000               0.000000000               0.000137061               0.001987287               0.000021886              -0.000197012               0.000728093               0.000531081               0.000000000               0.000000000               0.000000000               0.000000000               0.000123752               0.002077619               0.000012732              -0.000213295               0.000763631               0.000550336               0.000000000               0.000000000               0.000000000               0.000000000               0.000108048               0.002161005               0.000004539              -0.000229607               0.000796864               0.000567257               0.000000000               0.000000000               0.000000000               0.000000000               0.000094665               0.002242981              -0.000002337              -0.000244873               0.000829277               0.000584404               0.000000000               0.000000000               0.000000000               0.000000000               0.000083962               0.002283286              -0.000006438              -0.000253924               0.000845729               0.000591805               0.000000000               0.000000000               0.000000000               0.000000000               0.000585428               0.000725027               0.000544462               0.000128905               0.000198704               0.000327610               0.000000000               0.000000000               0.000000000               0.000000000               0.000450593               0.000904284               0.000518986               0.000055936               0.000282780               0.000338715               0.000000000               0.000000000               0.000000000               0.000000000               0.000322570               0.001164033               0.000461613              -0.000024541               0.000396187               0.000371646               0.000000000               0.000000000               0.000000000               0.000000000               0.000278118               0.001303948               0.000385852              -0.000058700               0.000454212               0.000395512               0.000000000               0.000000000               0.000000000               0.000000000               0.000259656               0.001402134               0.000316336              -0.000077896               0.000493338               0.000415443               0.000000000               0.000000000               0.000000000               0.000000000               0.000243752               0.001480233               0.000258697              -0.000093622               0.000524613               0.000430991               0.000000000               0.000000000               0.000000000               0.000000000               0.000222926               0.001545377               0.000213363              -0.000109575               0.000551645               0.000442071               0.000000000               0.000000000               0.000000000               0.000000000               0.000200657               0.001611197               0.000179302              -0.000126153               0.000579111               0.000452958               0.000000000               0.000000000               0.000000000               0.000000000               0.000180458               0.001674736               0.000148512              -0.000141670               0.000605463               0.000463793               0.000000000               0.000000000               0.000000000               0.000000000               0.000166333               0.001736696               0.000117851              -0.000154712               0.000630463               0.000475752               0.000000000               0.000000000               0.000000000               0.000000000               0.000163961               0.001804011               0.000089200              -0.000164016               0.000656003               0.000491987               0.000000000               0.000000000               0.000000000               0.000000000               0.000173987               0.001882729               0.000062106              -0.000170096               0.000684269               0.000514173               0.000000000               0.000000000               0.000000000               0.000000000               0.000181362               0.001973711               0.000038285              -0.000178703               0.000717465               0.000538762               0.000000000               0.000000000               0.000000000               0.000000000               0.000177040               0.002070819               0.000022725              -0.000192462               0.000754420               0.000561958               0.000000000               0.000000000               0.000000000               0.000000000               0.000166509               0.002159921               0.000012250              -0.000207549               0.000789150               0.000581601               0.000000000               0.000000000               0.000000000               0.000000000               0.000156462               0.002243340               0.000003798              -0.000221744               0.000821687               0.000599943               0.000000000               0.000000000               0.000000000               0.000000000               0.000142924               0.002277400              -0.000003406              -0.000231078               0.000836152               0.000605074               0.000000000               0.000000000               0.000000000               0.000000000               0.000524959               0.000520658               0.000440309               0.000131776               0.000129625               0.000261401               0.000000000               0.000000000               0.000000000               0.000000000               0.000450314               0.000718171               0.000465482               0.000079095               0.000213023               0.000292118               0.000000000               0.000000000               0.000000000               0.000000000               0.000353516               0.000990366               0.000457369               0.000008772               0.000327194               0.000335967               0.000000000               0.000000000               0.000000000               0.000000000               0.000312748               0.001162306               0.000400774              -0.000028008               0.000396767               0.000368759               0.000000000               0.000000000               0.000000000               0.000000000               0.000292766               0.001288651               0.000337988              -0.000051294               0.000446644               0.000395350               0.000000000               0.000000000               0.000000000               0.000000000               0.000274525               0.001384493               0.000280458              -0.000070115               0.000484865               0.000414750               0.000000000               0.000000000               0.000000000               0.000000000               0.000254410               0.001466758               0.000235013              -0.000087941               0.000518228               0.000430287               0.000000000               0.000000000               0.000000000               0.000000000               0.000233468               0.001545350               0.000201063              -0.000105618               0.000550318               0.000444700               0.000000000               0.000000000               0.000000000               0.000000000               0.000214164               0.001623412               0.000169739              -0.000122615               0.000582003               0.000459389               0.000000000               0.000000000               0.000000000               0.000000000               0.000201684               0.001698197               0.000140735              -0.000136643               0.000611608               0.000474965               0.000000000               0.000000000               0.000000000               0.000000000               0.000198082               0.001771809               0.000116205              -0.000147195               0.000639662               0.000492467               0.000000000               0.000000000               0.000000000               0.000000000               0.000205141               0.001855991               0.000088166              -0.000155071               0.000670348               0.000515277               0.000000000               0.000000000               0.000000000               0.000000000               0.000216928               0.001953497               0.000057483              -0.000162839               0.000705439               0.000542600               0.000000000               0.000000000               0.000000000               0.000000000               0.000223518               0.002056016               0.000037441              -0.000173182               0.000743059               0.000569877               0.000000000               0.000000000               0.000000000               0.000000000               0.000222686               0.002153202               0.000027288              -0.000185642               0.000779607               0.000593965               0.000000000               0.000000000               0.000000000               0.000000000               0.000216729               0.002242075               0.000015623              -0.000198985               0.000813679               0.000614694               0.000000000               0.000000000               0.000000000               0.000000000               0.000201821               0.002277346               0.000004702              -0.000208985               0.000828769               0.000619784               0.000000000               0.000000000               0.000000000               0.000000000               0.000443838               0.000352819               0.000334751               0.000122336               0.000076826               0.000199162               0.000000000               0.000000000               0.000000000               0.000000000               0.000438357               0.000546745               0.000392690               0.000096039               0.000150233               0.000246272               0.000000000               0.000000000               0.000000000               0.000000000               0.000387075               0.000814296               0.000421250               0.000043365               0.000256974               0.000300339               0.000000000               0.000000000               0.000000000               0.000000000               0.000354375               0.001007764               0.000386310               0.000006920               0.000333611               0.000340531               0.000000000               0.000000000               0.000000000               0.000000000               0.000333403               0.001153609               0.000333751              -0.000019175               0.000390924               0.000371749               0.000000000               0.000000000               0.000000000               0.000000000               0.000313098               0.001267412               0.000281717              -0.000041015               0.000436138               0.000395123               0.000000000               0.000000000               0.000000000               0.000000000               0.000295273               0.001368466               0.000239950              -0.000060331               0.000476261               0.000415930               0.000000000               0.000000000               0.000000000               0.000000000               0.000276833               0.001460709               0.000207917              -0.000078776               0.000513157               0.000434381               0.000000000               0.000000000               0.000000000               0.000000000               0.000260793               0.001549971               0.000180448              -0.000095949               0.000548635               0.000452686               0.000000000               0.000000000               0.000000000               0.000000000               0.000249514               0.001637637               0.000155708              -0.000111137               0.000582919               0.000471782               0.000000000               0.000000000               0.000000000               0.000000000               0.000243118               0.001725555               0.000132731              -0.000124525               0.000616687               0.000492163               0.000000000               0.000000000               0.000000000               0.000000000               0.000243486               0.001822191               0.000106365              -0.000136466               0.000652880               0.000516413               0.000000000               0.000000000               0.000000000               0.000000000               0.000254684               0.001926887               0.000078196              -0.000145354               0.000690741               0.000545387               0.000000000               0.000000000               0.000000000               0.000000000               0.000270284               0.002036309               0.000056224              -0.000153182               0.000729824               0.000576642               0.000000000               0.000000000               0.000000000               0.000000000               0.000276943               0.002140500               0.000042117              -0.000163708               0.000768062               0.000604354               0.000000000               0.000000000               0.000000000               0.000000000               0.000273475               0.002235113               0.000025119              -0.000176835               0.000803975               0.000627140               0.000000000               0.000000000               0.000000000               0.000000000               0.000261299               0.002275814               0.000011366              -0.000186489               0.000820760               0.000634271               0.000000000               0.000000000               0.000000000               0.000000000               0.000356231               0.000222529               0.000235695               0.000105770               0.000038919               0.000144688               0.000000000               0.000000000               0.000000000               0.000000000               0.000417044               0.000398512               0.000305223               0.000106576               0.000097310               0.000203887               0.000000000               0.000000000               0.000000000               0.000000000               0.000418430               0.000650856               0.000352532               0.000075553               0.000191765               0.000267319               0.000000000               0.000000000               0.000000000               0.000000000               0.000398884               0.000854156               0.000335921               0.000042811               0.000270445               0.000313257               0.000000000               0.000000000               0.000000000               0.000000000               0.000376603               0.001011531               0.000296518               0.000014784               0.000332245               0.000347030               0.000000000               0.000000000               0.000000000               0.000000000               0.000357870               0.001142330               0.000255121              -0.000008590               0.000383636               0.000375046               0.000000000               0.000000000               0.000000000               0.000000000               0.000340713               0.001258733               0.000220481              -0.000029574               0.000429432               0.000399857               0.000000000               0.000000000               0.000000000               0.000000000               0.000325632               0.001365974               0.000193989              -0.000048635               0.000471532               0.000422897               0.000000000               0.000000000               0.000000000               0.000000000               0.000311782               0.001469542               0.000172143              -0.000066774               0.000512101               0.000445326               0.000000000               0.000000000               0.000000000               0.000000000               0.000299182               0.001570393               0.000151966              -0.000084106               0.000551494               0.000467389               0.000000000               0.000000000               0.000000000               0.000000000               0.000290250               0.001675210               0.000132260              -0.000100557               0.000591917               0.000491360               0.000000000               0.000000000               0.000000000               0.000000000               0.000291521               0.001788348               0.000111675              -0.000114223               0.000634184               0.000519961               0.000000000               0.000000000               0.000000000               0.000000000               0.000300595               0.001900092               0.000091182              -0.000124788               0.000674954               0.000550166               0.000000000               0.000000000               0.000000000               0.000000000               0.000316414               0.002011453               0.000071851              -0.000132776               0.000714736               0.000581960               0.000000000               0.000000000               0.000000000               0.000000000               0.000327511               0.002117399               0.000051907              -0.000141858               0.000753079               0.000611221               0.000000000               0.000000000               0.000000000               0.000000000               0.000328129               0.002219444               0.000028753              -0.000154382               0.000791268               0.000636886               0.000000000               0.000000000               0.000000000               0.000000000               0.000319229               0.002267052               0.000013816              -0.000163670               0.000810233               0.000646563               0.000000000               0.000000000               0.000000000               0.000000000               0.000277885               0.000130198               0.000145887               0.000087931               0.000014088               0.000102019               0.000000000               0.000000000               0.000000000               0.000000000               0.000394505               0.000285366               0.000207214               0.000112267               0.000057699               0.000169966               0.000000000               0.000000000               0.000000000               0.000000000               0.000443530               0.000517787               0.000254285               0.000101599               0.000138728               0.000240327               0.000000000               0.000000000               0.000000000               0.000000000               0.000438625               0.000721130               0.000249457               0.000074342               0.000215593               0.000289936               0.000000000               0.000000000               0.000000000               0.000000000               0.000418335               0.000886985               0.000224689               0.000046002               0.000280325               0.000326327               0.000000000               0.000000000               0.000000000               0.000000000               0.000399644               0.001028497               0.000196324               0.000021304               0.000335728               0.000357032               0.000000000               0.000000000               0.000000000               0.000000000               0.000382544               0.001154986               0.000171914              -0.000000919               0.000385298               0.000384378               0.000000000               0.000000000               0.000000000               0.000000000               0.000370150               0.001279371               0.000152984              -0.000021115               0.000433491               0.000412376               0.000000000               0.000000000               0.000000000               0.000000000               0.000356676               0.001399161               0.000136551              -0.000041141               0.000480096               0.000438955               0.000000000               0.000000000               0.000000000               0.000000000               0.000343941               0.001512272               0.000122810              -0.000060056               0.000524104               0.000464048               0.000000000               0.000000000               0.000000000               0.000000000               0.000338878               0.001627616               0.000111492              -0.000076373               0.000567991               0.000491618               0.000000000               0.000000000               0.000000000               0.000000000               0.000340392               0.001748339               0.000098465              -0.000090895               0.000613072               0.000522177               0.000000000               0.000000000               0.000000000               0.000000000               0.000348076               0.001870769               0.000084249              -0.000103317               0.000658022               0.000554705               0.000000000               0.000000000               0.000000000               0.000000000               0.000358065               0.001986149               0.000069036              -0.000113994               0.000700041               0.000586047               0.000000000               0.000000000               0.000000000               0.000000000               0.000368055               0.002090912               0.000048717              -0.000123343               0.000738078               0.000614735               0.000000000               0.000000000               0.000000000               0.000000000               0.000380890               0.002200652               0.000024760              -0.000132247               0.000777626               0.000645378               0.000000000               0.000000000               0.000000000               0.000000000               0.000383389               0.002256105               0.000011127              -0.000138242               0.000798108               0.000659866               0.000000000               0.000000000               0.000000000               0.000000000               0.000219454               0.000079580               0.000068246               0.000072347               0.000002410               0.000074758               0.000000000               0.000000000               0.000000000               0.000000000               0.000375594               0.000216145               0.000104643               0.000113828               0.000034105               0.000147933               0.000000000               0.000000000               0.000000000               0.000000000               0.000461333               0.000429586               0.000133828               0.000119300               0.000103427               0.000222728               0.000000000               0.000000000               0.000000000               0.000000000               0.000467168               0.000631145               0.000133313               0.000096294               0.000178282               0.000274576               0.000000000               0.000000000               0.000000000               0.000000000               0.000449144               0.000801276               0.000121793               0.000068269               0.000244333               0.000312602               0.000000000               0.000000000               0.000000000               0.000000000               0.000428584               0.000946807               0.000107084               0.000042368               0.000301477               0.000343844               0.000000000               0.000000000               0.000000000               0.000000000               0.000412210               0.001081545               0.000095218               0.000019386               0.000354049               0.000373435               0.000000000               0.000000000               0.000000000               0.000000000               0.000399696               0.001216141               0.000085247              -0.000002131               0.000406087               0.000403955               0.000000000               0.000000000               0.000000000               0.000000000               0.000389529               0.001346654               0.000074524              -0.000022258               0.000456299               0.000434041               0.000000000               0.000000000               0.000000000               0.000000000               0.000381696               0.001472579               0.000069058              -0.000040936               0.000504500               0.000463564               0.000000000               0.000000000               0.000000000               0.000000000               0.000377162               0.001596191               0.000065391              -0.000058088               0.000551421               0.000493333               0.000000000               0.000000000               0.000000000               0.000000000               0.000374962               0.001717355               0.000059128              -0.000074059               0.000597132               0.000523074               0.000000000               0.000000000               0.000000000               0.000000000               0.000378019               0.001838679               0.000051513              -0.000088077               0.000642246               0.000554169               0.000000000               0.000000000               0.000000000               0.000000000               0.000385866               0.001958237               0.000040945              -0.000100080               0.000686099               0.000586020               0.000000000               0.000000000               0.000000000               0.000000000               0.000402012               0.002078380               0.000029415              -0.000109043               0.000729134               0.000620091               0.000000000               0.000000000               0.000000000               0.000000000               0.000429922               0.002200494               0.000016746              -0.000113841               0.000771438               0.000657597               0.000000000               0.000000000               0.000000000               0.000000000               0.000446456               0.002259856               0.000009165              -0.000115061               0.000791631               0.000676571               0.000000000               0.000000000               0.000000000               0.000000000               0.000000000               0.000000000               0.000000000               0.000000000               0.000000000               0.000000000               0.000000000               0.000000000               0.000000000               0.000000000               0.000000000               0.000000000               0.000000000               0.000000000               0.000000000               0.000000000               0.000000000               0.000000000               0.000000000               0.000000000               0.000000000               0.000000000               0.000000000               0.000000000               0.000000000               0.000000000               0.000000000               0.000000000               0.000000000               0.000000000               0.000000000               0.000000000               0.000000000               0.000000000               0.000000000               0.000000000               0.000000000               0.000000000               0.000000000               0.000000000               0.000000000               0.000000000               0.000000000               0.000000000               0.000000000               0.000000000               0.000000000               0.000000000               0.000000000               0.000000000               0.000000000               0.000000000               0.000000000               0.000000000               0.000000000               0.000000000               0.000000000               0.000000000               0.000000000               0.000000000               0.000000000               0.000000000               0.000000000               0.000000000               0.000000000               0.000000000               0.000000000               0.000000000               0.000000000               0.000000000               0.000000000               0.000000000               0.000000000               0.000000000               0.000000000               0.000000000               0.000000000               0.000000000               0.000000000               0.000000000               0.000000000               0.000000000               0.000000000               0.000000000               0.000000000               0.000000000               0.000000000               0.000000000               0.000000000               0.000000000               0.000000000               0.000000000               0.000000000               0.000000000               0.000000000               0.000000000               0.000000000               0.000000000               0.000000000               0.000000000               0.000000000               0.000000000               0.000000000               0.000000000               0.000000000               0.000000000               0.000000000               0.000000000               0.000000000               0.000000000               0.000000000               0.000000000               0.000000000               0.000000000               0.000000000               0.000000000               0.000000000               0.000000000               0.000000000               0.000000000               0.000000000               0.000000000               0.000000000               0.000000000               0.000000000               0.000000000               0.000000000               0.000000000               0.000000000               0.000000000               0.000000000               0.000000000               0.000000000               0.000000000               0.000000000               0.000000000               0.000000000               0.000000000               0.000000000               0.000000000               0.000000000               0.000000000               0.000000000               0.000000000               0.000000000               0.000000000               0.000000000               0.000000000               0.000000000               0.000000000               0.000000000               0.000000000               0.000000000               0.000000000               0.000000000               0.000000000               0.000000000               0.000000000               0.000000000               0.000000000               0.000000000               0.000000000               0.000000000               0.000000000               0.000000000               0.000000000               0.000000000               0.000000000               0.000000000               0.000000000 </DataArray>
</PointData>
</Piece>
</UnstructuredGrid> </VTKFile>
