<?xml version="1.0"?>
<VTKFile type="UnstructuredGrid" version="0.1">
<UnstructuredGrid>
<Piece NumberOfPoints="      1156" NumberOfCells="      1024">
<Points>
<DataArray type="Float64"                                    Name="coordinates"                                                      NumberOfComponents=" 3" format="ascii">
              0.133000000               0.000000000               0.000000000               0.155937500               0.000000000               0.000000000               0.178875000               0.000000000               0.000000000               0.201812500               0.000000000               0.000000000               0.224750000               0.000000000               0.000000000               0.247687500               0.000000000               0.000000000               0.270625000               0.000000000               0.000000000               0.293562500               0.000000000               0.000000000               0.316500000               0.000000000               0.000000000               0.339437500               0.000000000               0.000000000               0.362375000               0.000000000               0.000000000               0.385312500               0.000000000               0.000000000               0.408250000               0.000000000               0.000000000               0.431187500               0.000000000               0.000000000               0.454125000               0.000000000               0.000000000               0.477062500               0.000000000               0.000000000               0.500000000               0.000000000               0.000000000               0.132359569               0.013036280               0.000000000               0.155337096               0.016127762               0.000000000               0.178314623               0.019219245               0.000000000               0.201292150               0.022310727               0.000000000               0.224269676               0.025402210               0.000000000               0.247247203               0.028493692               0.000000000               0.270224730               0.031585175               0.000000000               0.293202257               0.034676657               0.000000000               0.316179784               0.037768140               0.000000000               0.339157311               0.040859622               0.000000000               0.362134838               0.043951105               0.000000000               0.385112365               0.047042587               0.000000000               0.408089892               0.050134070               0.000000000               0.431067419               0.053225552               0.000000000               0.454044946               0.056317035               0.000000000               0.477022473               0.059408517               0.000000000               0.500000000               0.062500000               0.000000000               0.130444442               0.025947013               0.000000000               0.153541665               0.032137825               0.000000000               0.176638887               0.038328636               0.000000000               0.199736109               0.044519448               0.000000000               0.222833332               0.050710260               0.000000000               0.245930554               0.056901071               0.000000000               0.269027776               0.063091883               0.000000000               0.292124999               0.069282695               0.000000000               0.315222221               0.075473506               0.000000000               0.338319444               0.081664318               0.000000000               0.361416666               0.087855130               0.000000000               0.384513888               0.094045942               0.000000000               0.407611111               0.100236753               0.000000000               0.430708333               0.106427565               0.000000000               0.453805555               0.112618377               0.000000000               0.476902778               0.118809188               0.000000000               0.500000000               0.125000000               0.000000000               0.127273065               0.038607862               0.000000000               0.150568498               0.047913621               0.000000000               0.173863932               0.057219379               0.000000000               0.197159365               0.066525138               0.000000000               0.220454798               0.075830897               0.000000000               0.243750232               0.085136655               0.000000000               0.267045665               0.094442414               0.000000000               0.290341099               0.103748172               0.000000000               0.313636532               0.113053931               0.000000000               0.336931966               0.122359690               0.000000000               0.360227399               0.131665448               0.000000000               0.383522833               0.140971207               0.000000000               0.406818266               0.150276966               0.000000000               0.430113700               0.159582724               0.000000000               0.453409133               0.168888483               0.000000000               0.476704567               0.178194241               0.000000000               0.500000000               0.187500000               0.000000000               0.122875978               0.050896897               0.000000000               0.146446229               0.063340840               0.000000000               0.170016481               0.075784784               0.000000000               0.193586732               0.088228728               0.000000000               0.217156983               0.100672672               0.000000000               0.240727235               0.113116616               0.000000000               0.264297486               0.125560560               0.000000000               0.287867738               0.138004504               0.000000000               0.311437989               0.150448448               0.000000000               0.335008240               0.162892392               0.000000000               0.358578492               0.175336336               0.000000000               0.382148743               0.187780280               0.000000000               0.405718994               0.200224224               0.000000000               0.429289246               0.212668168               0.000000000               0.452859497               0.225112112               0.000000000               0.476429749               0.237556056               0.000000000               0.500000000               0.250000000               0.000000000               0.117295528               0.062695766               0.000000000               0.141214558               0.078308531               0.000000000               0.165133587               0.093921295               0.000000000               0.189052617               0.109534060               0.000000000               0.212971646               0.125146824               0.000000000               0.236890676               0.140759589               0.000000000               0.260809705               0.156372354               0.000000000               0.284728735               0.171985118               0.000000000               0.308647764               0.187597883               0.000000000               0.332566794               0.203210648               0.000000000               0.356485823               0.218823412               0.000000000               0.380404853               0.234436177               0.000000000               0.404323882               0.250048941               0.000000000               0.428242912               0.265661706               0.000000000               0.452161941               0.281274471               0.000000000               0.476080971               0.296887235               0.000000000               0.500000000               0.312500000               0.000000000               0.110585458               0.073890841               0.000000000               0.134923867               0.092710163               0.000000000               0.159262276               0.111529486               0.000000000               0.183600685               0.130348808               0.000000000               0.207939094               0.149168131               0.000000000               0.232277503               0.167987453               0.000000000               0.256615912               0.186806776               0.000000000               0.280954320               0.205626098               0.000000000               0.305292729               0.224445420               0.000000000               0.329631138               0.243264743               0.000000000               0.353969547               0.262084065               0.000000000               0.378307956               0.280903388               0.000000000               0.402646365               0.299722710               0.000000000               0.426984773               0.318542033               0.000000000               0.451323182               0.337361355               0.000000000               0.475661591               0.356180678               0.000000000               0.500000000               0.375000000               0.000000000               0.102810390               0.084374307               0.000000000               0.127634741               0.106444663               0.000000000               0.152459092               0.128515018               0.000000000               0.177283442               0.150585374               0.000000000               0.202107793               0.172655730               0.000000000               0.226932143               0.194726086               0.000000000               0.251756494               0.216796442               0.000000000               0.276580845               0.238866798               0.000000000               0.301405195               0.260937153               0.000000000               0.326229546               0.283007509               0.000000000               0.351053896               0.305077865               0.000000000               0.375878247               0.327148221               0.000000000               0.400702598               0.349218577               0.000000000               0.425526948               0.371288933               0.000000000               0.450351299               0.393359288               0.000000000               0.475175649               0.415429644               0.000000000               0.500000000               0.437500000               0.000000000               0.094045202               0.094045202               0.000000000               0.119417377               0.119417377               0.000000000               0.144789552               0.144789552               0.000000000               0.170161727               0.170161727               0.000000000               0.195533901               0.195533901               0.000000000               0.220906076               0.220906076               0.000000000               0.246278251               0.246278251               0.000000000               0.271650426               0.271650426               0.000000000               0.297022601               0.297022601               0.000000000               0.322394776               0.322394776               0.000000000               0.347766951               0.347766951               0.000000000               0.373139126               0.373139126               0.000000000               0.398511300               0.398511300               0.000000000               0.423883475               0.423883475               0.000000000               0.449255650               0.449255650               0.000000000               0.474627825               0.474627825               0.000000000               0.500000000               0.500000000               0.000000000               0.084374307               0.102810390               0.000000000               0.106444663               0.127634741               0.000000000               0.128515018               0.152459092               0.000000000               0.150585374               0.177283442               0.000000000               0.172655730               0.202107793               0.000000000               0.194726086               0.226932143               0.000000000               0.216796442               0.251756494               0.000000000               0.238866798               0.276580845               0.000000000               0.260937153               0.301405195               0.000000000               0.283007509               0.326229546               0.000000000               0.305077865               0.351053896               0.000000000               0.327148221               0.375878247               0.000000000               0.349218577               0.400702598               0.000000000               0.371288933               0.425526948               0.000000000               0.393359288               0.450351299               0.000000000               0.415429644               0.475175649               0.000000000               0.437500000               0.500000000               0.000000000               0.073890841               0.110585458               0.000000000               0.092710163               0.134923867               0.000000000               0.111529486               0.159262276               0.000000000               0.130348808               0.183600685               0.000000000               0.149168131               0.207939094               0.000000000               0.167987453               0.232277503               0.000000000               0.186806776               0.256615912               0.000000000               0.205626098               0.280954320               0.000000000               0.224445420               0.305292729               0.000000000               0.243264743               0.329631138               0.000000000               0.262084065               0.353969547               0.000000000               0.280903388               0.378307956               0.000000000               0.299722710               0.402646365               0.000000000               0.318542033               0.426984773               0.000000000               0.337361355               0.451323182               0.000000000               0.356180678               0.475661591               0.000000000               0.375000000               0.500000000               0.000000000               0.062695766               0.117295528               0.000000000               0.078308531               0.141214558               0.000000000               0.093921295               0.165133587               0.000000000               0.109534060               0.189052617               0.000000000               0.125146824               0.212971646               0.000000000               0.140759589               0.236890676               0.000000000               0.156372354               0.260809705               0.000000000               0.171985118               0.284728735               0.000000000               0.187597883               0.308647764               0.000000000               0.203210648               0.332566794               0.000000000               0.218823412               0.356485823               0.000000000               0.234436177               0.380404853               0.000000000               0.250048941               0.404323882               0.000000000               0.265661706               0.428242912               0.000000000               0.281274471               0.452161941               0.000000000               0.296887235               0.476080971               0.000000000               0.312500000               0.500000000               0.000000000               0.050896897               0.122875978               0.000000000               0.063340840               0.146446229               0.000000000               0.075784784               0.170016481               0.000000000               0.088228728               0.193586732               0.000000000               0.100672672               0.217156983               0.000000000               0.113116616               0.240727235               0.000000000               0.125560560               0.264297486               0.000000000               0.138004504               0.287867738               0.000000000               0.150448448               0.311437989               0.000000000               0.162892392               0.335008240               0.000000000               0.175336336               0.358578492               0.000000000               0.187780280               0.382148743               0.000000000               0.200224224               0.405718994               0.000000000               0.212668168               0.429289246               0.000000000               0.225112112               0.452859497               0.000000000               0.237556056               0.476429749               0.000000000               0.250000000               0.500000000               0.000000000               0.038607862               0.127273065               0.000000000               0.047913621               0.150568498               0.000000000               0.057219379               0.173863932               0.000000000               0.066525138               0.197159365               0.000000000               0.075830897               0.220454798               0.000000000               0.085136655               0.243750232               0.000000000               0.094442414               0.267045665               0.000000000               0.103748172               0.290341099               0.000000000               0.113053931               0.313636532               0.000000000               0.122359690               0.336931966               0.000000000               0.131665448               0.360227399               0.000000000               0.140971207               0.383522833               0.000000000               0.150276966               0.406818266               0.000000000               0.159582724               0.430113700               0.000000000               0.168888483               0.453409133               0.000000000               0.178194241               0.476704567               0.000000000               0.187500000               0.500000000               0.000000000               0.025947013               0.130444442               0.000000000               0.032137825               0.153541665               0.000000000               0.038328636               0.176638887               0.000000000               0.044519448               0.199736109               0.000000000               0.050710260               0.222833332               0.000000000               0.056901071               0.245930554               0.000000000               0.063091883               0.269027776               0.000000000               0.069282695               0.292124999               0.000000000               0.075473506               0.315222221               0.000000000               0.081664318               0.338319444               0.000000000               0.087855130               0.361416666               0.000000000               0.094045942               0.384513888               0.000000000               0.100236753               0.407611111               0.000000000               0.106427565               0.430708333               0.000000000               0.112618377               0.453805555               0.000000000               0.118809188               0.476902778               0.000000000               0.125000000               0.500000000               0.000000000               0.013036280               0.132359569               0.000000000               0.016127762               0.155337096               0.000000000               0.019219245               0.178314623               0.000000000               0.022310727               0.201292150               0.000000000               0.025402210               0.224269676               0.000000000               0.028493692               0.247247203               0.000000000               0.031585175               0.270224730               0.000000000               0.034676657               0.293202257               0.000000000               0.037768140               0.316179784               0.000000000               0.040859622               0.339157311               0.000000000               0.043951105               0.362134838               0.000000000               0.047042587               0.385112365               0.000000000               0.050134070               0.408089892               0.000000000               0.053225552               0.431067419               0.000000000               0.056317035               0.454044946               0.000000000               0.059408517               0.477022473               0.000000000               0.062500000               0.500000000               0.000000000               0.000000000               0.133000000               0.000000000               0.000000000               0.155937500               0.000000000               0.000000000               0.178875000               0.000000000               0.000000000               0.201812500               0.000000000               0.000000000               0.224750000               0.000000000               0.000000000               0.247687500               0.000000000               0.000000000               0.270625000               0.000000000               0.000000000               0.293562500               0.000000000               0.000000000               0.316500000               0.000000000               0.000000000               0.339437500               0.000000000               0.000000000               0.362375000               0.000000000               0.000000000               0.385312500               0.000000000               0.000000000               0.408250000               0.000000000               0.000000000               0.431187500               0.000000000               0.000000000               0.454125000               0.000000000               0.000000000               0.477062500               0.000000000               0.000000000               0.500000000               0.000000000               0.133000000               0.000000000               0.000000000               0.155937500               0.000000000               0.000000000               0.178875000               0.000000000               0.000000000               0.201812500               0.000000000               0.000000000               0.224750000               0.000000000               0.000000000               0.247687500               0.000000000               0.000000000               0.270625000               0.000000000               0.000000000               0.293562500               0.000000000               0.000000000               0.316500000               0.000000000               0.000000000               0.339437500               0.000000000               0.000000000               0.362375000               0.000000000               0.000000000               0.385312500               0.000000000               0.000000000               0.408250000               0.000000000               0.000000000               0.431187500               0.000000000               0.000000000               0.454125000               0.000000000               0.000000000               0.477062500               0.000000000               0.000000000               0.500000000               0.000000000               0.000000000               0.132359569              -0.013036280               0.000000000               0.155337096              -0.016127762               0.000000000               0.178314623              -0.019219245               0.000000000               0.201292150              -0.022310727               0.000000000               0.224269676              -0.025402210               0.000000000               0.247247203              -0.028493692               0.000000000               0.270224730              -0.031585175               0.000000000               0.293202257              -0.034676657               0.000000000               0.316179784              -0.037768140               0.000000000               0.339157311              -0.040859622               0.000000000               0.362134838              -0.043951105               0.000000000               0.385112365              -0.047042587               0.000000000               0.408089892              -0.050134070               0.000000000               0.431067419              -0.053225552               0.000000000               0.454044946              -0.056317035               0.000000000               0.477022473              -0.059408517               0.000000000               0.500000000              -0.062500000               0.000000000               0.130444442              -0.025947013               0.000000000               0.153541665              -0.032137825               0.000000000               0.176638887              -0.038328636               0.000000000               0.199736109              -0.044519448               0.000000000               0.222833332              -0.050710260               0.000000000               0.245930554              -0.056901071               0.000000000               0.269027776              -0.063091883               0.000000000               0.292124999              -0.069282695               0.000000000               0.315222221              -0.075473506               0.000000000               0.338319444              -0.081664318               0.000000000               0.361416666              -0.087855130               0.000000000               0.384513888              -0.094045942               0.000000000               0.407611111              -0.100236753               0.000000000               0.430708333              -0.106427565               0.000000000               0.453805555              -0.112618377               0.000000000               0.476902778              -0.118809188               0.000000000               0.500000000              -0.125000000               0.000000000               0.127273065              -0.038607862               0.000000000               0.150568498              -0.047913621               0.000000000               0.173863932              -0.057219379               0.000000000               0.197159365              -0.066525138               0.000000000               0.220454798              -0.075830897               0.000000000               0.243750232              -0.085136655               0.000000000               0.267045665              -0.094442414               0.000000000               0.290341099              -0.103748172               0.000000000               0.313636532              -0.113053931               0.000000000               0.336931966              -0.122359690               0.000000000               0.360227399              -0.131665448               0.000000000               0.383522833              -0.140971207               0.000000000               0.406818266              -0.150276966               0.000000000               0.430113700              -0.159582724               0.000000000               0.453409133              -0.168888483               0.000000000               0.476704567              -0.178194241               0.000000000               0.500000000              -0.187500000               0.000000000               0.122875978              -0.050896897               0.000000000               0.146446229              -0.063340840               0.000000000               0.170016481              -0.075784784               0.000000000               0.193586732              -0.088228728               0.000000000               0.217156983              -0.100672672               0.000000000               0.240727235              -0.113116616               0.000000000               0.264297486              -0.125560560               0.000000000               0.287867738              -0.138004504               0.000000000               0.311437989              -0.150448448               0.000000000               0.335008240              -0.162892392               0.000000000               0.358578492              -0.175336336               0.000000000               0.382148743              -0.187780280               0.000000000               0.405718994              -0.200224224               0.000000000               0.429289246              -0.212668168               0.000000000               0.452859497              -0.225112112               0.000000000               0.476429749              -0.237556056               0.000000000               0.500000000              -0.250000000               0.000000000               0.117295528              -0.062695766               0.000000000               0.141214558              -0.078308531               0.000000000               0.165133587              -0.093921295               0.000000000               0.189052617              -0.109534060               0.000000000               0.212971646              -0.125146824               0.000000000               0.236890676              -0.140759589               0.000000000               0.260809705              -0.156372354               0.000000000               0.284728735              -0.171985118               0.000000000               0.308647764              -0.187597883               0.000000000               0.332566794              -0.203210648               0.000000000               0.356485823              -0.218823412               0.000000000               0.380404853              -0.234436177               0.000000000               0.404323882              -0.250048941               0.000000000               0.428242912              -0.265661706               0.000000000               0.452161941              -0.281274471               0.000000000               0.476080971              -0.296887235               0.000000000               0.500000000              -0.312500000               0.000000000               0.110585458              -0.073890841               0.000000000               0.134923867              -0.092710163               0.000000000               0.159262276              -0.111529486               0.000000000               0.183600685              -0.130348808               0.000000000               0.207939094              -0.149168131               0.000000000               0.232277503              -0.167987453               0.000000000               0.256615912              -0.186806776               0.000000000               0.280954320              -0.205626098               0.000000000               0.305292729              -0.224445420               0.000000000               0.329631138              -0.243264743               0.000000000               0.353969547              -0.262084065               0.000000000               0.378307956              -0.280903388               0.000000000               0.402646365              -0.299722710               0.000000000               0.426984773              -0.318542033               0.000000000               0.451323182              -0.337361355               0.000000000               0.475661591              -0.356180678               0.000000000               0.500000000              -0.375000000               0.000000000               0.102810390              -0.084374307               0.000000000               0.127634741              -0.106444663               0.000000000               0.152459092              -0.128515018               0.000000000               0.177283442              -0.150585374               0.000000000               0.202107793              -0.172655730               0.000000000               0.226932143              -0.194726086               0.000000000               0.251756494              -0.216796442               0.000000000               0.276580845              -0.238866798               0.000000000               0.301405195              -0.260937153               0.000000000               0.326229546              -0.283007509               0.000000000               0.351053896              -0.305077865               0.000000000               0.375878247              -0.327148221               0.000000000               0.400702598              -0.349218577               0.000000000               0.425526948              -0.371288933               0.000000000               0.450351299              -0.393359288               0.000000000               0.475175649              -0.415429644               0.000000000               0.500000000              -0.437500000               0.000000000               0.094045202              -0.094045202               0.000000000               0.119417377              -0.119417377               0.000000000               0.144789552              -0.144789552               0.000000000               0.170161727              -0.170161727               0.000000000               0.195533901              -0.195533901               0.000000000               0.220906076              -0.220906076               0.000000000               0.246278251              -0.246278251               0.000000000               0.271650426              -0.271650426               0.000000000               0.297022601              -0.297022601               0.000000000               0.322394776              -0.322394776               0.000000000               0.347766951              -0.347766951               0.000000000               0.373139126              -0.373139126               0.000000000               0.398511300              -0.398511300               0.000000000               0.423883475              -0.423883475               0.000000000               0.449255650              -0.449255650               0.000000000               0.474627825              -0.474627825               0.000000000               0.500000000              -0.500000000               0.000000000               0.084374307              -0.102810390               0.000000000               0.106444663              -0.127634741               0.000000000               0.128515018              -0.152459092               0.000000000               0.150585374              -0.177283442               0.000000000               0.172655730              -0.202107793               0.000000000               0.194726086              -0.226932143               0.000000000               0.216796442              -0.251756494               0.000000000               0.238866798              -0.276580845               0.000000000               0.260937153              -0.301405195               0.000000000               0.283007509              -0.326229546               0.000000000               0.305077865              -0.351053896               0.000000000               0.327148221              -0.375878247               0.000000000               0.349218577              -0.400702598               0.000000000               0.371288933              -0.425526948               0.000000000               0.393359288              -0.450351299               0.000000000               0.415429644              -0.475175649               0.000000000               0.437500000              -0.500000000               0.000000000               0.073890841              -0.110585458               0.000000000               0.092710163              -0.134923867               0.000000000               0.111529486              -0.159262276               0.000000000               0.130348808              -0.183600685               0.000000000               0.149168131              -0.207939094               0.000000000               0.167987453              -0.232277503               0.000000000               0.186806776              -0.256615912               0.000000000               0.205626098              -0.280954320               0.000000000               0.224445420              -0.305292729               0.000000000               0.243264743              -0.329631138               0.000000000               0.262084065              -0.353969547               0.000000000               0.280903388              -0.378307956               0.000000000               0.299722710              -0.402646365               0.000000000               0.318542033              -0.426984773               0.000000000               0.337361355              -0.451323182               0.000000000               0.356180678              -0.475661591               0.000000000               0.375000000              -0.500000000               0.000000000               0.062695766              -0.117295528               0.000000000               0.078308531              -0.141214558               0.000000000               0.093921295              -0.165133587               0.000000000               0.109534060              -0.189052617               0.000000000               0.125146824              -0.212971646               0.000000000               0.140759589              -0.236890676               0.000000000               0.156372354              -0.260809705               0.000000000               0.171985118              -0.284728735               0.000000000               0.187597883              -0.308647764               0.000000000               0.203210648              -0.332566794               0.000000000               0.218823412              -0.356485823               0.000000000               0.234436177              -0.380404853               0.000000000               0.250048941              -0.404323882               0.000000000               0.265661706              -0.428242912               0.000000000               0.281274471              -0.452161941               0.000000000               0.296887235              -0.476080971               0.000000000               0.312500000              -0.500000000               0.000000000               0.050896897              -0.122875978               0.000000000               0.063340840              -0.146446229               0.000000000               0.075784784              -0.170016481               0.000000000               0.088228728              -0.193586732               0.000000000               0.100672672              -0.217156983               0.000000000               0.113116616              -0.240727235               0.000000000               0.125560560              -0.264297486               0.000000000               0.138004504              -0.287867738               0.000000000               0.150448448              -0.311437989               0.000000000               0.162892392              -0.335008240               0.000000000               0.175336336              -0.358578492               0.000000000               0.187780280              -0.382148743               0.000000000               0.200224224              -0.405718994               0.000000000               0.212668168              -0.429289246               0.000000000               0.225112112              -0.452859497               0.000000000               0.237556056              -0.476429749               0.000000000               0.250000000              -0.500000000               0.000000000               0.038607862              -0.127273065               0.000000000               0.047913621              -0.150568498               0.000000000               0.057219379              -0.173863932               0.000000000               0.066525138              -0.197159365               0.000000000               0.075830897              -0.220454798               0.000000000               0.085136655              -0.243750232               0.000000000               0.094442414              -0.267045665               0.000000000               0.103748172              -0.290341099               0.000000000               0.113053931              -0.313636532               0.000000000               0.122359690              -0.336931966               0.000000000               0.131665448              -0.360227399               0.000000000               0.140971207              -0.383522833               0.000000000               0.150276966              -0.406818266               0.000000000               0.159582724              -0.430113700               0.000000000               0.168888483              -0.453409133               0.000000000               0.178194241              -0.476704567               0.000000000               0.187500000              -0.500000000               0.000000000               0.025947013              -0.130444442               0.000000000               0.032137825              -0.153541665               0.000000000               0.038328636              -0.176638887               0.000000000               0.044519448              -0.199736109               0.000000000               0.050710260              -0.222833332               0.000000000               0.056901071              -0.245930554               0.000000000               0.063091883              -0.269027776               0.000000000               0.069282695              -0.292124999               0.000000000               0.075473506              -0.315222221               0.000000000               0.081664318              -0.338319444               0.000000000               0.087855130              -0.361416666               0.000000000               0.094045942              -0.384513888               0.000000000               0.100236753              -0.407611111               0.000000000               0.106427565              -0.430708333               0.000000000               0.112618377              -0.453805555               0.000000000               0.118809188              -0.476902778               0.000000000               0.125000000              -0.500000000               0.000000000               0.013036280              -0.132359569               0.000000000               0.016127762              -0.155337096               0.000000000               0.019219245              -0.178314623               0.000000000               0.022310727              -0.201292150               0.000000000               0.025402210              -0.224269676               0.000000000               0.028493692              -0.247247203               0.000000000               0.031585175              -0.270224730               0.000000000               0.034676657              -0.293202257               0.000000000               0.037768140              -0.316179784               0.000000000               0.040859622              -0.339157311               0.000000000               0.043951105              -0.362134838               0.000000000               0.047042587              -0.385112365               0.000000000               0.050134070              -0.408089892               0.000000000               0.053225552              -0.431067419               0.000000000               0.056317035              -0.454044946               0.000000000               0.059408517              -0.477022473               0.000000000               0.062500000              -0.500000000               0.000000000               0.000000000              -0.133000000               0.000000000               0.000000000              -0.155937500               0.000000000               0.000000000              -0.178875000               0.000000000               0.000000000              -0.201812500               0.000000000               0.000000000              -0.224750000               0.000000000               0.000000000              -0.247687500               0.000000000               0.000000000              -0.270625000               0.000000000               0.000000000              -0.293562500               0.000000000               0.000000000              -0.316500000               0.000000000               0.000000000              -0.339437500               0.000000000               0.000000000              -0.362375000               0.000000000               0.000000000              -0.385312500               0.000000000               0.000000000              -0.408250000               0.000000000               0.000000000              -0.431187500               0.000000000               0.000000000              -0.454125000               0.000000000               0.000000000              -0.477062500               0.000000000               0.000000000              -0.500000000               0.000000000              -0.133000000               0.000000000               0.000000000              -0.155937500               0.000000000               0.000000000              -0.178875000               0.000000000               0.000000000              -0.201812500               0.000000000               0.000000000              -0.224750000               0.000000000               0.000000000              -0.247687500               0.000000000               0.000000000              -0.270625000               0.000000000               0.000000000              -0.293562500               0.000000000               0.000000000              -0.316500000               0.000000000               0.000000000              -0.339437500               0.000000000               0.000000000              -0.362375000               0.000000000               0.000000000              -0.385312500               0.000000000               0.000000000              -0.408250000               0.000000000               0.000000000              -0.431187500               0.000000000               0.000000000              -0.454125000               0.000000000               0.000000000              -0.477062500               0.000000000               0.000000000              -0.500000000               0.000000000               0.000000000              -0.132359569              -0.013036280               0.000000000              -0.155337096              -0.016127762               0.000000000              -0.178314623              -0.019219245               0.000000000              -0.201292150              -0.022310727               0.000000000              -0.224269676              -0.025402210               0.000000000              -0.247247203              -0.028493692               0.000000000              -0.270224730              -0.031585175               0.000000000              -0.293202257              -0.034676657               0.000000000              -0.316179784              -0.037768140               0.000000000              -0.339157311              -0.040859622               0.000000000              -0.362134838              -0.043951105               0.000000000              -0.385112365              -0.047042587               0.000000000              -0.408089892              -0.050134070               0.000000000              -0.431067419              -0.053225552               0.000000000              -0.454044946              -0.056317035               0.000000000              -0.477022473              -0.059408517               0.000000000              -0.500000000              -0.062500000               0.000000000              -0.130444442              -0.025947013               0.000000000              -0.153541665              -0.032137825               0.000000000              -0.176638887              -0.038328636               0.000000000              -0.199736109              -0.044519448               0.000000000              -0.222833332              -0.050710260               0.000000000              -0.245930554              -0.056901071               0.000000000              -0.269027776              -0.063091883               0.000000000              -0.292124999              -0.069282695               0.000000000              -0.315222221              -0.075473506               0.000000000              -0.338319444              -0.081664318               0.000000000              -0.361416666              -0.087855130               0.000000000              -0.384513888              -0.094045942               0.000000000              -0.407611111              -0.100236753               0.000000000              -0.430708333              -0.106427565               0.000000000              -0.453805555              -0.112618377               0.000000000              -0.476902778              -0.118809188               0.000000000              -0.500000000              -0.125000000               0.000000000              -0.127273065              -0.038607862               0.000000000              -0.150568498              -0.047913621               0.000000000              -0.173863932              -0.057219379               0.000000000              -0.197159365              -0.066525138               0.000000000              -0.220454798              -0.075830897               0.000000000              -0.243750232              -0.085136655               0.000000000              -0.267045665              -0.094442414               0.000000000              -0.290341099              -0.103748172               0.000000000              -0.313636532              -0.113053931               0.000000000              -0.336931966              -0.122359690               0.000000000              -0.360227399              -0.131665448               0.000000000              -0.383522833              -0.140971207               0.000000000              -0.406818266              -0.150276966               0.000000000              -0.430113700              -0.159582724               0.000000000              -0.453409133              -0.168888483               0.000000000              -0.476704567              -0.178194241               0.000000000              -0.500000000              -0.187500000               0.000000000              -0.122875978              -0.050896897               0.000000000              -0.146446229              -0.063340840               0.000000000              -0.170016481              -0.075784784               0.000000000              -0.193586732              -0.088228728               0.000000000              -0.217156983              -0.100672672               0.000000000              -0.240727235              -0.113116616               0.000000000              -0.264297486              -0.125560560               0.000000000              -0.287867738              -0.138004504               0.000000000              -0.311437989              -0.150448448               0.000000000              -0.335008240              -0.162892392               0.000000000              -0.358578492              -0.175336336               0.000000000              -0.382148743              -0.187780280               0.000000000              -0.405718994              -0.200224224               0.000000000              -0.429289246              -0.212668168               0.000000000              -0.452859497              -0.225112112               0.000000000              -0.476429749              -0.237556056               0.000000000              -0.500000000              -0.250000000               0.000000000              -0.117295528              -0.062695766               0.000000000              -0.141214558              -0.078308531               0.000000000              -0.165133587              -0.093921295               0.000000000              -0.189052617              -0.109534060               0.000000000              -0.212971646              -0.125146824               0.000000000              -0.236890676              -0.140759589               0.000000000              -0.260809705              -0.156372354               0.000000000              -0.284728735              -0.171985118               0.000000000              -0.308647764              -0.187597883               0.000000000              -0.332566794              -0.203210648               0.000000000              -0.356485823              -0.218823412               0.000000000              -0.380404853              -0.234436177               0.000000000              -0.404323882              -0.250048941               0.000000000              -0.428242912              -0.265661706               0.000000000              -0.452161941              -0.281274471               0.000000000              -0.476080971              -0.296887235               0.000000000              -0.500000000              -0.312500000               0.000000000              -0.110585458              -0.073890841               0.000000000              -0.134923867              -0.092710163               0.000000000              -0.159262276              -0.111529486               0.000000000              -0.183600685              -0.130348808               0.000000000              -0.207939094              -0.149168131               0.000000000              -0.232277503              -0.167987453               0.000000000              -0.256615912              -0.186806776               0.000000000              -0.280954320              -0.205626098               0.000000000              -0.305292729              -0.224445420               0.000000000              -0.329631138              -0.243264743               0.000000000              -0.353969547              -0.262084065               0.000000000              -0.378307956              -0.280903388               0.000000000              -0.402646365              -0.299722710               0.000000000              -0.426984773              -0.318542033               0.000000000              -0.451323182              -0.337361355               0.000000000              -0.475661591              -0.356180678               0.000000000              -0.500000000              -0.375000000               0.000000000              -0.102810390              -0.084374307               0.000000000              -0.127634741              -0.106444663               0.000000000              -0.152459092              -0.128515018               0.000000000              -0.177283442              -0.150585374               0.000000000              -0.202107793              -0.172655730               0.000000000              -0.226932143              -0.194726086               0.000000000              -0.251756494              -0.216796442               0.000000000              -0.276580845              -0.238866798               0.000000000              -0.301405195              -0.260937153               0.000000000              -0.326229546              -0.283007509               0.000000000              -0.351053896              -0.305077865               0.000000000              -0.375878247              -0.327148221               0.000000000              -0.400702598              -0.349218577               0.000000000              -0.425526948              -0.371288933               0.000000000              -0.450351299              -0.393359288               0.000000000              -0.475175649              -0.415429644               0.000000000              -0.500000000              -0.437500000               0.000000000              -0.094045202              -0.094045202               0.000000000              -0.119417377              -0.119417377               0.000000000              -0.144789552              -0.144789552               0.000000000              -0.170161727              -0.170161727               0.000000000              -0.195533901              -0.195533901               0.000000000              -0.220906076              -0.220906076               0.000000000              -0.246278251              -0.246278251               0.000000000              -0.271650426              -0.271650426               0.000000000              -0.297022601              -0.297022601               0.000000000              -0.322394776              -0.322394776               0.000000000              -0.347766951              -0.347766951               0.000000000              -0.373139126              -0.373139126               0.000000000              -0.398511300              -0.398511300               0.000000000              -0.423883475              -0.423883475               0.000000000              -0.449255650              -0.449255650               0.000000000              -0.474627825              -0.474627825               0.000000000              -0.500000000              -0.500000000               0.000000000              -0.084374307              -0.102810390               0.000000000              -0.106444663              -0.127634741               0.000000000              -0.128515018              -0.152459092               0.000000000              -0.150585374              -0.177283442               0.000000000              -0.172655730              -0.202107793               0.000000000              -0.194726086              -0.226932143               0.000000000              -0.216796442              -0.251756494               0.000000000              -0.238866798              -0.276580845               0.000000000              -0.260937153              -0.301405195               0.000000000              -0.283007509              -0.326229546               0.000000000              -0.305077865              -0.351053896               0.000000000              -0.327148221              -0.375878247               0.000000000              -0.349218577              -0.400702598               0.000000000              -0.371288933              -0.425526948               0.000000000              -0.393359288              -0.450351299               0.000000000              -0.415429644              -0.475175649               0.000000000              -0.437500000              -0.500000000               0.000000000              -0.073890841              -0.110585458               0.000000000              -0.092710163              -0.134923867               0.000000000              -0.111529486              -0.159262276               0.000000000              -0.130348808              -0.183600685               0.000000000              -0.149168131              -0.207939094               0.000000000              -0.167987453              -0.232277503               0.000000000              -0.186806776              -0.256615912               0.000000000              -0.205626098              -0.280954320               0.000000000              -0.224445420              -0.305292729               0.000000000              -0.243264743              -0.329631138               0.000000000              -0.262084065              -0.353969547               0.000000000              -0.280903388              -0.378307956               0.000000000              -0.299722710              -0.402646365               0.000000000              -0.318542033              -0.426984773               0.000000000              -0.337361355              -0.451323182               0.000000000              -0.356180678              -0.475661591               0.000000000              -0.375000000              -0.500000000               0.000000000              -0.062695766              -0.117295528               0.000000000              -0.078308531              -0.141214558               0.000000000              -0.093921295              -0.165133587               0.000000000              -0.109534060              -0.189052617               0.000000000              -0.125146824              -0.212971646               0.000000000              -0.140759589              -0.236890676               0.000000000              -0.156372354              -0.260809705               0.000000000              -0.171985118              -0.284728735               0.000000000              -0.187597883              -0.308647764               0.000000000              -0.203210648              -0.332566794               0.000000000              -0.218823412              -0.356485823               0.000000000              -0.234436177              -0.380404853               0.000000000              -0.250048941              -0.404323882               0.000000000              -0.265661706              -0.428242912               0.000000000              -0.281274471              -0.452161941               0.000000000              -0.296887235              -0.476080971               0.000000000              -0.312500000              -0.500000000               0.000000000              -0.050896897              -0.122875978               0.000000000              -0.063340840              -0.146446229               0.000000000              -0.075784784              -0.170016481               0.000000000              -0.088228728              -0.193586732               0.000000000              -0.100672672              -0.217156983               0.000000000              -0.113116616              -0.240727235               0.000000000              -0.125560560              -0.264297486               0.000000000              -0.138004504              -0.287867738               0.000000000              -0.150448448              -0.311437989               0.000000000              -0.162892392              -0.335008240               0.000000000              -0.175336336              -0.358578492               0.000000000              -0.187780280              -0.382148743               0.000000000              -0.200224224              -0.405718994               0.000000000              -0.212668168              -0.429289246               0.000000000              -0.225112112              -0.452859497               0.000000000              -0.237556056              -0.476429749               0.000000000              -0.250000000              -0.500000000               0.000000000              -0.038607862              -0.127273065               0.000000000              -0.047913621              -0.150568498               0.000000000              -0.057219379              -0.173863932               0.000000000              -0.066525138              -0.197159365               0.000000000              -0.075830897              -0.220454798               0.000000000              -0.085136655              -0.243750232               0.000000000              -0.094442414              -0.267045665               0.000000000              -0.103748172              -0.290341099               0.000000000              -0.113053931              -0.313636532               0.000000000              -0.122359690              -0.336931966               0.000000000              -0.131665448              -0.360227399               0.000000000              -0.140971207              -0.383522833               0.000000000              -0.150276966              -0.406818266               0.000000000              -0.159582724              -0.430113700               0.000000000              -0.168888483              -0.453409133               0.000000000              -0.178194241              -0.476704567               0.000000000              -0.187500000              -0.500000000               0.000000000              -0.025947013              -0.130444442               0.000000000              -0.032137825              -0.153541665               0.000000000              -0.038328636              -0.176638887               0.000000000              -0.044519448              -0.199736109               0.000000000              -0.050710260              -0.222833332               0.000000000              -0.056901071              -0.245930554               0.000000000              -0.063091883              -0.269027776               0.000000000              -0.069282695              -0.292124999               0.000000000              -0.075473506              -0.315222221               0.000000000              -0.081664318              -0.338319444               0.000000000              -0.087855130              -0.361416666               0.000000000              -0.094045942              -0.384513888               0.000000000              -0.100236753              -0.407611111               0.000000000              -0.106427565              -0.430708333               0.000000000              -0.112618377              -0.453805555               0.000000000              -0.118809188              -0.476902778               0.000000000              -0.125000000              -0.500000000               0.000000000              -0.013036280              -0.132359569               0.000000000              -0.016127762              -0.155337096               0.000000000              -0.019219245              -0.178314623               0.000000000              -0.022310727              -0.201292150               0.000000000              -0.025402210              -0.224269676               0.000000000              -0.028493692              -0.247247203               0.000000000              -0.031585175              -0.270224730               0.000000000              -0.034676657              -0.293202257               0.000000000              -0.037768140              -0.316179784               0.000000000              -0.040859622              -0.339157311               0.000000000              -0.043951105              -0.362134838               0.000000000              -0.047042587              -0.385112365               0.000000000              -0.050134070              -0.408089892               0.000000000              -0.053225552              -0.431067419               0.000000000              -0.056317035              -0.454044946               0.000000000              -0.059408517              -0.477022473               0.000000000              -0.062500000              -0.500000000               0.000000000               0.000000000              -0.133000000               0.000000000               0.000000000              -0.155937500               0.000000000               0.000000000              -0.178875000               0.000000000               0.000000000              -0.201812500               0.000000000               0.000000000              -0.224750000               0.000000000               0.000000000              -0.247687500               0.000000000               0.000000000              -0.270625000               0.000000000               0.000000000              -0.293562500               0.000000000               0.000000000              -0.316500000               0.000000000               0.000000000              -0.339437500               0.000000000               0.000000000              -0.362375000               0.000000000               0.000000000              -0.385312500               0.000000000               0.000000000              -0.408250000               0.000000000               0.000000000              -0.431187500               0.000000000               0.000000000              -0.454125000               0.000000000               0.000000000              -0.477062500               0.000000000               0.000000000              -0.500000000               0.000000000              -0.133000000               0.000000000               0.000000000              -0.155937500               0.000000000               0.000000000              -0.178875000               0.000000000               0.000000000              -0.201812500               0.000000000               0.000000000              -0.224750000               0.000000000               0.000000000              -0.247687500               0.000000000               0.000000000              -0.270625000               0.000000000               0.000000000              -0.293562500               0.000000000               0.000000000              -0.316500000               0.000000000               0.000000000              -0.339437500               0.000000000               0.000000000              -0.362375000               0.000000000               0.000000000              -0.385312500               0.000000000               0.000000000              -0.408250000               0.000000000               0.000000000              -0.431187500               0.000000000               0.000000000              -0.454125000               0.000000000               0.000000000              -0.477062500               0.000000000               0.000000000              -0.500000000               0.000000000               0.000000000              -0.132359569               0.013036280               0.000000000              -0.155337096               0.016127762               0.000000000              -0.178314623               0.019219245               0.000000000              -0.201292150               0.022310727               0.000000000              -0.224269676               0.025402210               0.000000000              -0.247247203               0.028493692               0.000000000              -0.270224730               0.031585175               0.000000000              -0.293202257               0.034676657               0.000000000              -0.316179784               0.037768140               0.000000000              -0.339157311               0.040859622               0.000000000              -0.362134838               0.043951105               0.000000000              -0.385112365               0.047042587               0.000000000              -0.408089892               0.050134070               0.000000000              -0.431067419               0.053225552               0.000000000              -0.454044946               0.056317035               0.000000000              -0.477022473               0.059408517               0.000000000              -0.500000000               0.062500000               0.000000000              -0.130444442               0.025947013               0.000000000              -0.153541665               0.032137825               0.000000000              -0.176638887               0.038328636               0.000000000              -0.199736109               0.044519448               0.000000000              -0.222833332               0.050710260               0.000000000              -0.245930554               0.056901071               0.000000000              -0.269027776               0.063091883               0.000000000              -0.292124999               0.069282695               0.000000000              -0.315222221               0.075473506               0.000000000              -0.338319444               0.081664318               0.000000000              -0.361416666               0.087855130               0.000000000              -0.384513888               0.094045942               0.000000000              -0.407611111               0.100236753               0.000000000              -0.430708333               0.106427565               0.000000000              -0.453805555               0.112618377               0.000000000              -0.476902778               0.118809188               0.000000000              -0.500000000               0.125000000               0.000000000              -0.127273065               0.038607862               0.000000000              -0.150568498               0.047913621               0.000000000              -0.173863932               0.057219379               0.000000000              -0.197159365               0.066525138               0.000000000              -0.220454798               0.075830897               0.000000000              -0.243750232               0.085136655               0.000000000              -0.267045665               0.094442414               0.000000000              -0.290341099               0.103748172               0.000000000              -0.313636532               0.113053931               0.000000000              -0.336931966               0.122359690               0.000000000              -0.360227399               0.131665448               0.000000000              -0.383522833               0.140971207               0.000000000              -0.406818266               0.150276966               0.000000000              -0.430113700               0.159582724               0.000000000              -0.453409133               0.168888483               0.000000000              -0.476704567               0.178194241               0.000000000              -0.500000000               0.187500000               0.000000000              -0.122875978               0.050896897               0.000000000              -0.146446229               0.063340840               0.000000000              -0.170016481               0.075784784               0.000000000              -0.193586732               0.088228728               0.000000000              -0.217156983               0.100672672               0.000000000              -0.240727235               0.113116616               0.000000000              -0.264297486               0.125560560               0.000000000              -0.287867738               0.138004504               0.000000000              -0.311437989               0.150448448               0.000000000              -0.335008240               0.162892392               0.000000000              -0.358578492               0.175336336               0.000000000              -0.382148743               0.187780280               0.000000000              -0.405718994               0.200224224               0.000000000              -0.429289246               0.212668168               0.000000000              -0.452859497               0.225112112               0.000000000              -0.476429749               0.237556056               0.000000000              -0.500000000               0.250000000               0.000000000              -0.117295528               0.062695766               0.000000000              -0.141214558               0.078308531               0.000000000              -0.165133587               0.093921295               0.000000000              -0.189052617               0.109534060               0.000000000              -0.212971646               0.125146824               0.000000000              -0.236890676               0.140759589               0.000000000              -0.260809705               0.156372354               0.000000000              -0.284728735               0.171985118               0.000000000              -0.308647764               0.187597883               0.000000000              -0.332566794               0.203210648               0.000000000              -0.356485823               0.218823412               0.000000000              -0.380404853               0.234436177               0.000000000              -0.404323882               0.250048941               0.000000000              -0.428242912               0.265661706               0.000000000              -0.452161941               0.281274471               0.000000000              -0.476080971               0.296887235               0.000000000              -0.500000000               0.312500000               0.000000000              -0.110585458               0.073890841               0.000000000              -0.134923867               0.092710163               0.000000000              -0.159262276               0.111529486               0.000000000              -0.183600685               0.130348808               0.000000000              -0.207939094               0.149168131               0.000000000              -0.232277503               0.167987453               0.000000000              -0.256615912               0.186806776               0.000000000              -0.280954320               0.205626098               0.000000000              -0.305292729               0.224445420               0.000000000              -0.329631138               0.243264743               0.000000000              -0.353969547               0.262084065               0.000000000              -0.378307956               0.280903388               0.000000000              -0.402646365               0.299722710               0.000000000              -0.426984773               0.318542033               0.000000000              -0.451323182               0.337361355               0.000000000              -0.475661591               0.356180678               0.000000000              -0.500000000               0.375000000               0.000000000              -0.102810390               0.084374307               0.000000000              -0.127634741               0.106444663               0.000000000              -0.152459092               0.128515018               0.000000000              -0.177283442               0.150585374               0.000000000              -0.202107793               0.172655730               0.000000000              -0.226932143               0.194726086               0.000000000              -0.251756494               0.216796442               0.000000000              -0.276580845               0.238866798               0.000000000              -0.301405195               0.260937153               0.000000000              -0.326229546               0.283007509               0.000000000              -0.351053896               0.305077865               0.000000000              -0.375878247               0.327148221               0.000000000              -0.400702598               0.349218577               0.000000000              -0.425526948               0.371288933               0.000000000              -0.450351299               0.393359288               0.000000000              -0.475175649               0.415429644               0.000000000              -0.500000000               0.437500000               0.000000000              -0.094045202               0.094045202               0.000000000              -0.119417377               0.119417377               0.000000000              -0.144789552               0.144789552               0.000000000              -0.170161727               0.170161727               0.000000000              -0.195533901               0.195533901               0.000000000              -0.220906076               0.220906076               0.000000000              -0.246278251               0.246278251               0.000000000              -0.271650426               0.271650426               0.000000000              -0.297022601               0.297022601               0.000000000              -0.322394776               0.322394776               0.000000000              -0.347766951               0.347766951               0.000000000              -0.373139126               0.373139126               0.000000000              -0.398511300               0.398511300               0.000000000              -0.423883475               0.423883475               0.000000000              -0.449255650               0.449255650               0.000000000              -0.474627825               0.474627825               0.000000000              -0.500000000               0.500000000               0.000000000              -0.084374307               0.102810390               0.000000000              -0.106444663               0.127634741               0.000000000              -0.128515018               0.152459092               0.000000000              -0.150585374               0.177283442               0.000000000              -0.172655730               0.202107793               0.000000000              -0.194726086               0.226932143               0.000000000              -0.216796442               0.251756494               0.000000000              -0.238866798               0.276580845               0.000000000              -0.260937153               0.301405195               0.000000000              -0.283007509               0.326229546               0.000000000              -0.305077865               0.351053896               0.000000000              -0.327148221               0.375878247               0.000000000              -0.349218577               0.400702598               0.000000000              -0.371288933               0.425526948               0.000000000              -0.393359288               0.450351299               0.000000000              -0.415429644               0.475175649               0.000000000              -0.437500000               0.500000000               0.000000000              -0.073890841               0.110585458               0.000000000              -0.092710163               0.134923867               0.000000000              -0.111529486               0.159262276               0.000000000              -0.130348808               0.183600685               0.000000000              -0.149168131               0.207939094               0.000000000              -0.167987453               0.232277503               0.000000000              -0.186806776               0.256615912               0.000000000              -0.205626098               0.280954320               0.000000000              -0.224445420               0.305292729               0.000000000              -0.243264743               0.329631138               0.000000000              -0.262084065               0.353969547               0.000000000              -0.280903388               0.378307956               0.000000000              -0.299722710               0.402646365               0.000000000              -0.318542033               0.426984773               0.000000000              -0.337361355               0.451323182               0.000000000              -0.356180678               0.475661591               0.000000000              -0.375000000               0.500000000               0.000000000              -0.062695766               0.117295528               0.000000000              -0.078308531               0.141214558               0.000000000              -0.093921295               0.165133587               0.000000000              -0.109534060               0.189052617               0.000000000              -0.125146824               0.212971646               0.000000000              -0.140759589               0.236890676               0.000000000              -0.156372354               0.260809705               0.000000000              -0.171985118               0.284728735               0.000000000              -0.187597883               0.308647764               0.000000000              -0.203210648               0.332566794               0.000000000              -0.218823412               0.356485823               0.000000000              -0.234436177               0.380404853               0.000000000              -0.250048941               0.404323882               0.000000000              -0.265661706               0.428242912               0.000000000              -0.281274471               0.452161941               0.000000000              -0.296887235               0.476080971               0.000000000              -0.312500000               0.500000000               0.000000000              -0.050896897               0.122875978               0.000000000              -0.063340840               0.146446229               0.000000000              -0.075784784               0.170016481               0.000000000              -0.088228728               0.193586732               0.000000000              -0.100672672               0.217156983               0.000000000              -0.113116616               0.240727235               0.000000000              -0.125560560               0.264297486               0.000000000              -0.138004504               0.287867738               0.000000000              -0.150448448               0.311437989               0.000000000              -0.162892392               0.335008240               0.000000000              -0.175336336               0.358578492               0.000000000              -0.187780280               0.382148743               0.000000000              -0.200224224               0.405718994               0.000000000              -0.212668168               0.429289246               0.000000000              -0.225112112               0.452859497               0.000000000              -0.237556056               0.476429749               0.000000000              -0.250000000               0.500000000               0.000000000              -0.038607862               0.127273065               0.000000000              -0.047913621               0.150568498               0.000000000              -0.057219379               0.173863932               0.000000000              -0.066525138               0.197159365               0.000000000              -0.075830897               0.220454798               0.000000000              -0.085136655               0.243750232               0.000000000              -0.094442414               0.267045665               0.000000000              -0.103748172               0.290341099               0.000000000              -0.113053931               0.313636532               0.000000000              -0.122359690               0.336931966               0.000000000              -0.131665448               0.360227399               0.000000000              -0.140971207               0.383522833               0.000000000              -0.150276966               0.406818266               0.000000000              -0.159582724               0.430113700               0.000000000              -0.168888483               0.453409133               0.000000000              -0.178194241               0.476704567               0.000000000              -0.187500000               0.500000000               0.000000000              -0.025947013               0.130444442               0.000000000              -0.032137825               0.153541665               0.000000000              -0.038328636               0.176638887               0.000000000              -0.044519448               0.199736109               0.000000000              -0.050710260               0.222833332               0.000000000              -0.056901071               0.245930554               0.000000000              -0.063091883               0.269027776               0.000000000              -0.069282695               0.292124999               0.000000000              -0.075473506               0.315222221               0.000000000              -0.081664318               0.338319444               0.000000000              -0.087855130               0.361416666               0.000000000              -0.094045942               0.384513888               0.000000000              -0.100236753               0.407611111               0.000000000              -0.106427565               0.430708333               0.000000000              -0.112618377               0.453805555               0.000000000              -0.118809188               0.476902778               0.000000000              -0.125000000               0.500000000               0.000000000              -0.013036280               0.132359569               0.000000000              -0.016127762               0.155337096               0.000000000              -0.019219245               0.178314623               0.000000000              -0.022310727               0.201292150               0.000000000              -0.025402210               0.224269676               0.000000000              -0.028493692               0.247247203               0.000000000              -0.031585175               0.270224730               0.000000000              -0.034676657               0.293202257               0.000000000              -0.037768140               0.316179784               0.000000000              -0.040859622               0.339157311               0.000000000              -0.043951105               0.362134838               0.000000000              -0.047042587               0.385112365               0.000000000              -0.050134070               0.408089892               0.000000000              -0.053225552               0.431067419               0.000000000              -0.056317035               0.454044946               0.000000000              -0.059408517               0.477022473               0.000000000              -0.062500000               0.500000000               0.000000000               0.000000000               0.133000000               0.000000000               0.000000000               0.155937500               0.000000000               0.000000000               0.178875000               0.000000000               0.000000000               0.201812500               0.000000000               0.000000000               0.224750000               0.000000000               0.000000000               0.247687500               0.000000000               0.000000000               0.270625000               0.000000000               0.000000000               0.293562500               0.000000000               0.000000000               0.316500000               0.000000000               0.000000000               0.339437500               0.000000000               0.000000000               0.362375000               0.000000000               0.000000000               0.385312500               0.000000000               0.000000000               0.408250000               0.000000000               0.000000000               0.431187500               0.000000000               0.000000000               0.454125000               0.000000000               0.000000000               0.477062500               0.000000000               0.000000000               0.500000000               0.000000000 </DataArray>
</Points>
<Cells>
<DataArray type="Int32"                                    Name="connectivity"                                                      NumberOfComponents=" 1" format="ascii">
         0          1         18         17          1          2         19         18          2          3         20         19          3          4         21         20          4          5         22         21          5          6         23         22          6          7         24         23          7          8         25         24          8          9         26         25          9         10         27         26         10         11         28         27         11         12         29         28         12         13         30         29         13         14         31         30         14         15         32         31         15         16         33         32         17         18         35         34         18         19         36         35         19         20         37         36         20         21         38         37         21         22         39         38         22         23         40         39         23         24         41         40         24         25         42         41         25         26         43         42         26         27         44         43         27         28         45         44         28         29         46         45         29         30         47         46         30         31         48         47         31         32         49         48         32         33         50         49         34         35         52         51         35         36         53         52         36         37         54         53         37         38         55         54         38         39         56         55         39         40         57         56         40         41         58         57         41         42         59         58         42         43         60         59         43         44         61         60         44         45         62         61         45         46         63         62         46         47         64         63         47         48         65         64         48         49         66         65         49         50         67         66         51         52         69         68         52         53         70         69         53         54         71         70         54         55         72         71         55         56         73         72         56         57         74         73         57         58         75         74         58         59         76         75         59         60         77         76         60         61         78         77         61         62         79         78         62         63         80         79         63         64         81         80         64         65         82         81         65         66         83         82         66         67         84         83         68         69         86         85         69         70         87         86         70         71         88         87         71         72         89         88         72         73         90         89         73         74         91         90         74         75         92         91         75         76         93         92         76         77         94         93         77         78         95         94         78         79         96         95         79         80         97         96         80         81         98         97         81         82         99         98         82         83        100         99         83         84        101        100         85         86        103        102         86         87        104        103         87         88        105        104         88         89        106        105         89         90        107        106         90         91        108        107         91         92        109        108         92         93        110        109         93         94        111        110         94         95        112        111         95         96        113        112         96         97        114        113         97         98        115        114         98         99        116        115         99        100        117        116        100        101        118        117        102        103        120        119        103        104        121        120        104        105        122        121        105        106        123        122        106        107        124        123        107        108        125        124        108        109        126        125        109        110        127        126        110        111        128        127        111        112        129        128        112        113        130        129        113        114        131        130        114        115        132        131        115        116        133        132        116        117        134        133        117        118        135        134        119        120        137        136        120        121        138        137        121        122        139        138        122        123        140        139        123        124        141        140        124        125        142        141        125        126        143        142        126        127        144        143        127        128        145        144        128        129        146        145        129        130        147        146        130        131        148        147        131        132        149        148        132        133        150        149        133        134        151        150        134        135        152        151        136        137        154        153        137        138        155        154        138        139        156        155        139        140        157        156        140        141        158        157        141        142        159        158        142        143        160        159        143        144        161        160        144        145        162        161        145        146        163        162        146        147        164        163        147        148        165        164        148        149        166        165        149        150        167        166        150        151        168        167        151        152        169        168        153        154        171        170        154        155        172        171        155        156        173        172        156        157        174        173        157        158        175        174        158        159        176        175        159        160        177        176        160        161        178        177        161        162        179        178        162        163        180        179        163        164        181        180        164        165        182        181        165        166        183        182        166        167        184        183        167        168        185        184        168        169        186        185        170        171        188        187        171        172        189        188        172        173        190        189        173        174        191        190        174        175        192        191        175        176        193        192        176        177        194        193        177        178        195        194        178        179        196        195        179        180        197        196        180        181        198        197        181        182        199        198        182        183        200        199        183        184        201        200        184        185        202        201        185        186        203        202        187        188        205        204        188        189        206        205        189        190        207        206        190        191        208        207        191        192        209        208        192        193        210        209        193        194        211        210        194        195        212        211        195        196        213        212        196        197        214        213        197        198        215        214        198        199        216        215        199        200        217        216        200        201        218        217        201        202        219        218        202        203        220        219        204        205        222        221        205        206        223        222        206        207        224        223        207        208        225        224        208        209        226        225        209        210        227        226        210        211        228        227        211        212        229        228        212        213        230        229        213        214        231        230        214        215        232        231        215        216        233        232        216        217        234        233        217        218        235        234        218        219        236        235        219        220        237        236        221        222        239        238        222        223        240        239        223        224        241        240        224        225        242        241        225        226        243        242        226        227        244        243        227        228        245        244        228        229        246        245        229        230        247        246        230        231        248        247        231        232        249        248        232        233        250        249        233        234        251        250        234        235        252        251        235        236        253        252        236        237        254        253        238        239        256        255        239        240        257        256        240        241        258        257        241        242        259        258        242        243        260        259        243        244        261        260        244        245        262        261        245        246        263        262        246        247        264        263        247        248        265        264        248        249        266        265        249        250        267        266        250        251        268        267        251        252        269        268        252        253        270        269        253        254        271        270        255        256        273        272        256        257        274        273        257        258        275        274        258        259        276        275        259        260        277        276        260        261        278        277        261        262        279        278        262        263        280        279        263        264        281        280        264        265        282        281        265        266        283        282        266        267        284        283        267        268        285        284        268        269        286        285        269        270        287        286        270        271        288        287        306        307          1          0        307        308          2          1        308        309          3          2        309        310          4          3        310        311          5          4        311        312          6          5        312        313          7          6        313        314          8          7        314        315          9          8        315        316         10          9        316        317         11         10        317        318         12         11        318        319         13         12        319        320         14         13        320        321         15         14        321        322         16         15        323        324        307        306        324        325        308        307        325        326        309        308        326        327        310        309        327        328        311        310        328        329        312        311        329        330        313        312        330        331        314        313        331        332        315        314        332        333        316        315        333        334        317        316        334        335        318        317        335        336        319        318        336        337        320        319        337        338        321        320        338        339        322        321        340        341        324        323        341        342        325        324        342        343        326        325        343        344        327        326        344        345        328        327        345        346        329        328        346        347        330        329        347        348        331        330        348        349        332        331        349        350        333        332        350        351        334        333        351        352        335        334        352        353        336        335        353        354        337        336        354        355        338        337        355        356        339        338        357        358        341        340        358        359        342        341        359        360        343        342        360        361        344        343        361        362        345        344        362        363        346        345        363        364        347        346        364        365        348        347        365        366        349        348        366        367        350        349        367        368        351        350        368        369        352        351        369        370        353        352        370        371        354        353        371        372        355        354        372        373        356        355        374        375        358        357        375        376        359        358        376        377        360        359        377        378        361        360        378        379        362        361        379        380        363        362        380        381        364        363        381        382        365        364        382        383        366        365        383        384        367        366        384        385        368        367        385        386        369        368        386        387        370        369        387        388        371        370        388        389        372        371        389        390        373        372        391        392        375        374        392        393        376        375        393        394        377        376        394        395        378        377        395        396        379        378        396        397        380        379        397        398        381        380        398        399        382        381        399        400        383        382        400        401        384        383        401        402        385        384        402        403        386        385        403        404        387        386        404        405        388        387        405        406        389        388        406        407        390        389        408        409        392        391        409        410        393        392        410        411        394        393        411        412        395        394        412        413        396        395        413        414        397        396        414        415        398        397        415        416        399        398        416        417        400        399        417        418        401        400        418        419        402        401        419        420        403        402        420        421        404        403        421        422        405        404        422        423        406        405        423        424        407        406        425        426        409        408        426        427        410        409        427        428        411        410        428        429        412        411        429        430        413        412        430        431        414        413        431        432        415        414        432        433        416        415        433        434        417        416        434        435        418        417        435        436        419        418        436        437        420        419        437        438        421        420        438        439        422        421        439        440        423        422        440        441        424        423        442        443        426        425        443        444        427        426        444        445        428        427        445        446        429        428        446        447        430        429        447        448        431        430        448        449        432        431        449        450        433        432        450        451        434        433        451        452        435        434        452        453        436        435        453        454        437        436        454        455        438        437        455        456        439        438        456        457        440        439        457        458        441        440        459        460        443        442        460        461        444        443        461        462        445        444        462        463        446        445        463        464        447        446        464        465        448        447        465        466        449        448        466        467        450        449        467        468        451        450        468        469        452        451        469        470        453        452        470        471        454        453        471        472        455        454        472        473        456        455        473        474        457        456        474        475        458        457        476        477        460        459        477        478        461        460        478        479        462        461        479        480        463        462        480        481        464        463        481        482        465        464        482        483        466        465        483        484        467        466        484        485        468        467        485        486        469        468        486        487        470        469        487        488        471        470        488        489        472        471        489        490        473        472        490        491        474        473        491        492        475        474        493        494        477        476        494        495        478        477        495        496        479        478        496        497        480        479        497        498        481        480        498        499        482        481        499        500        483        482        500        501        484        483        501        502        485        484        502        503        486        485        503        504        487        486        504        505        488        487        505        506        489        488        506        507        490        489        507        508        491        490        508        509        492        491        510        511        494        493        511        512        495        494        512        513        496        495        513        514        497        496        514        515        498        497        515        516        499        498        516        517        500        499        517        518        501        500        518        519        502        501        519        520        503        502        520        521        504        503        521        522        505        504        522        523        506        505        523        524        507        506        524        525        508        507        525        526        509        508        527        528        511        510        528        529        512        511        529        530        513        512        530        531        514        513        531        532        515        514        532        533        516        515        533        534        517        516        534        535        518        517        535        536        519        518        536        537        520        519        537        538        521        520        538        539        522        521        539        540        523        522        540        541        524        523        541        542        525        524        542        543        526        525        544        545        528        527        545        546        529        528        546        547        530        529        547        548        531        530        548        549        532        531        549        550        533        532        550        551        534        533        551        552        535        534        552        553        536        535        553        554        537        536        554        555        538        537        555        556        539        538        556        557        540        539        557        558        541        540        558        559        542        541        559        560        543        542        561        562        545        544        562        563        546        545        563        564        547        546        564        565        548        547        565        566        549        548        566        567        550        549        567        568        551        550        568        569        552        551        569        570        553        552        570        571        554        553        571        572        555        554        572        573        556        555        573        574        557        556        574        575        558        557        575        576        559        558        576        577        560        559        578        579        596        595        579        580        597        596        580        581        598        597        581        582        599        598        582        583        600        599        583        584        601        600        584        585        602        601        585        586        603        602        586        587        604        603        587        588        605        604        588        589        606        605        589        590        607        606        590        591        608        607        591        592        609        608        592        593        610        609        593        594        611        610        595        596        613        612        596        597        614        613        597        598        615        614        598        599        616        615        599        600        617        616        600        601        618        617        601        602        619        618        602        603        620        619        603        604        621        620        604        605        622        621        605        606        623        622        606        607        624        623        607        608        625        624        608        609        626        625        609        610        627        626        610        611        628        627        612        613        630        629        613        614        631        630        614        615        632        631        615        616        633        632        616        617        634        633        617        618        635        634        618        619        636        635        619        620        637        636        620        621        638        637        621        622        639        638        622        623        640        639        623        624        641        640        624        625        642        641        625        626        643        642        626        627        644        643        627        628        645        644        629        630        647        646        630        631        648        647        631        632        649        648        632        633        650        649        633        634        651        650        634        635        652        651        635        636        653        652        636        637        654        653        637        638        655        654        638        639        656        655        639        640        657        656        640        641        658        657        641        642        659        658        642        643        660        659        643        644        661        660        644        645        662        661        646        647        664        663        647        648        665        664        648        649        666        665        649        650        667        666        650        651        668        667        651        652        669        668        652        653        670        669        653        654        671        670        654        655        672        671        655        656        673        672        656        657        674        673        657        658        675        674        658        659        676        675        659        660        677        676        660        661        678        677        661        662        679        678        663        664        681        680        664        665        682        681        665        666        683        682        666        667        684        683        667        668        685        684        668        669        686        685        669        670        687        686        670        671        688        687        671        672        689        688        672        673        690        689        673        674        691        690        674        675        692        691        675        676        693        692        676        677        694        693        677        678        695        694        678        679        696        695        680        681        698        697        681        682        699        698        682        683        700        699        683        684        701        700        684        685        702        701        685        686        703        702        686        687        704        703        687        688        705        704        688        689        706        705        689        690        707        706        690        691        708        707        691        692        709        708        692        693        710        709        693        694        711        710        694        695        712        711        695        696        713        712        697        698        715        714        698        699        716        715        699        700        717        716        700        701        718        717        701        702        719        718        702        703        720        719        703        704        721        720        704        705        722        721        705        706        723        722        706        707        724        723        707        708        725        724        708        709        726        725        709        710        727        726        710        711        728        727        711        712        729        728        712        713        730        729        714        715        732        731        715        716        733        732        716        717        734        733        717        718        735        734        718        719        736        735        719        720        737        736        720        721        738        737        721        722        739        738        722        723        740        739        723        724        741        740        724        725        742        741        725        726        743        742        726        727        744        743        727        728        745        744        728        729        746        745        729        730        747        746        731        732        749        748        732        733        750        749        733        734        751        750        734        735        752        751        735        736        753        752        736        737        754        753        737        738        755        754        738        739        756        755        739        740        757        756        740        741        758        757        741        742        759        758        742        743        760        759        743        744        761        760        744        745        762        761        745        746        763        762        746        747        764        763        748        749        766        765        749        750        767        766        750        751        768        767        751        752        769        768        752        753        770        769        753        754        771        770        754        755        772        771        755        756        773        772        756        757        774        773        757        758        775        774        758        759        776        775        759        760        777        776        760        761        778        777        761        762        779        778        762        763        780        779        763        764        781        780        765        766        783        782        766        767        784        783        767        768        785        784        768        769        786        785        769        770        787        786        770        771        788        787        771        772        789        788        772        773        790        789        773        774        791        790        774        775        792        791        775        776        793        792        776        777        794        793        777        778        795        794        778        779        796        795        779        780        797        796        780        781        798        797        782        783        800        799        783        784        801        800        784        785        802        801        785        786        803        802        786        787        804        803        787        788        805        804        788        789        806        805        789        790        807        806        790        791        808        807        791        792        809        808        792        793        810        809        793        794        811        810        794        795        812        811        795        796        813        812        796        797        814        813        797        798        815        814        799        800        817        816        800        801        818        817        801        802        819        818        802        803        820        819        803        804        821        820        804        805        822        821        805        806        823        822        806        807        824        823        807        808        825        824        808        809        826        825        809        810        827        826        810        811        828        827        811        812        829        828        812        813        830        829        813        814        831        830        814        815        832        831        816        817        834        833        817        818        835        834        818        819        836        835        819        820        837        836        820        821        838        837        821        822        839        838        822        823        840        839        823        824        841        840        824        825        842        841        825        826        843        842        826        827        844        843        827        828        845        844        828        829        846        845        829        830        847        846        830        831        848        847        831        832        849        848        833        834        562        561        834        835        563        562        835        836        564        563        836        837        565        564        837        838        566        565        838        839        567        566        839        840        568        567        840        841        569        568        841        842        570        569        842        843        571        570        843        844        572        571        844        845        573        572        845        846        574        573        846        847        575        574        847        848        576        575        848        849        577        576        884        885        579        578        885        886        580        579        886        887        581        580        887        888        582        581        888        889        583        582        889        890        584        583        890        891        585        584        891        892        586        585        892        893        587        586        893        894        588        587        894        895        589        588        895        896        590        589        896        897        591        590        897        898        592        591        898        899        593        592        899        900        594        593        901        902        885        884        902        903        886        885        903        904        887        886        904        905        888        887        905        906        889        888        906        907        890        889        907        908        891        890        908        909        892        891        909        910        893        892        910        911        894        893        911        912        895        894        912        913        896        895        913        914        897        896        914        915        898        897        915        916        899        898        916        917        900        899        918        919        902        901        919        920        903        902        920        921        904        903        921        922        905        904        922        923        906        905        923        924        907        906        924        925        908        907        925        926        909        908        926        927        910        909        927        928        911        910        928        929        912        911        929        930        913        912        930        931        914        913        931        932        915        914        932        933        916        915        933        934        917        916        935        936        919        918        936        937        920        919        937        938        921        920        938        939        922        921        939        940        923        922        940        941        924        923        941        942        925        924        942        943        926        925        943        944        927        926        944        945        928        927        945        946        929        928        946        947        930        929        947        948        931        930        948        949        932        931        949        950        933        932        950        951        934        933        952        953        936        935        953        954        937        936        954        955        938        937        955        956        939        938        956        957        940        939        957        958        941        940        958        959        942        941        959        960        943        942        960        961        944        943        961        962        945        944        962        963        946        945        963        964        947        946        964        965        948        947        965        966        949        948        966        967        950        949        967        968        951        950        969        970        953        952        970        971        954        953        971        972        955        954        972        973        956        955        973        974        957        956        974        975        958        957        975        976        959        958        976        977        960        959        977        978        961        960        978        979        962        961        979        980        963        962        980        981        964        963        981        982        965        964        982        983        966        965        983        984        967        966        984        985        968        967        986        987        970        969        987        988        971        970        988        989        972        971        989        990        973        972        990        991        974        973        991        992        975        974        992        993        976        975        993        994        977        976        994        995        978        977        995        996        979        978        996        997        980        979        997        998        981        980        998        999        982        981        999       1000        983        982       1000       1001        984        983       1001       1002        985        984       1003       1004        987        986       1004       1005        988        987       1005       1006        989        988       1006       1007        990        989       1007       1008        991        990       1008       1009        992        991       1009       1010        993        992       1010       1011        994        993       1011       1012        995        994       1012       1013        996        995       1013       1014        997        996       1014       1015        998        997       1015       1016        999        998       1016       1017       1000        999       1017       1018       1001       1000       1018       1019       1002       1001       1020       1021       1004       1003       1021       1022       1005       1004       1022       1023       1006       1005       1023       1024       1007       1006       1024       1025       1008       1007       1025       1026       1009       1008       1026       1027       1010       1009       1027       1028       1011       1010       1028       1029       1012       1011       1029       1030       1013       1012       1030       1031       1014       1013       1031       1032       1015       1014       1032       1033       1016       1015       1033       1034       1017       1016       1034       1035       1018       1017       1035       1036       1019       1018       1037       1038       1021       1020       1038       1039       1022       1021       1039       1040       1023       1022       1040       1041       1024       1023       1041       1042       1025       1024       1042       1043       1026       1025       1043       1044       1027       1026       1044       1045       1028       1027       1045       1046       1029       1028       1046       1047       1030       1029       1047       1048       1031       1030       1048       1049       1032       1031       1049       1050       1033       1032       1050       1051       1034       1033       1051       1052       1035       1034       1052       1053       1036       1035       1054       1055       1038       1037       1055       1056       1039       1038       1056       1057       1040       1039       1057       1058       1041       1040       1058       1059       1042       1041       1059       1060       1043       1042       1060       1061       1044       1043       1061       1062       1045       1044       1062       1063       1046       1045       1063       1064       1047       1046       1064       1065       1048       1047       1065       1066       1049       1048       1066       1067       1050       1049       1067       1068       1051       1050       1068       1069       1052       1051       1069       1070       1053       1052       1071       1072       1055       1054       1072       1073       1056       1055       1073       1074       1057       1056       1074       1075       1058       1057       1075       1076       1059       1058       1076       1077       1060       1059       1077       1078       1061       1060       1078       1079       1062       1061       1079       1080       1063       1062       1080       1081       1064       1063       1081       1082       1065       1064       1082       1083       1066       1065       1083       1084       1067       1066       1084       1085       1068       1067       1085       1086       1069       1068       1086       1087       1070       1069       1088       1089       1072       1071       1089       1090       1073       1072       1090       1091       1074       1073       1091       1092       1075       1074       1092       1093       1076       1075       1093       1094       1077       1076       1094       1095       1078       1077       1095       1096       1079       1078       1096       1097       1080       1079       1097       1098       1081       1080       1098       1099       1082       1081       1099       1100       1083       1082       1100       1101       1084       1083       1101       1102       1085       1084       1102       1103       1086       1085       1103       1104       1087       1086       1105       1106       1089       1088       1106       1107       1090       1089       1107       1108       1091       1090       1108       1109       1092       1091       1109       1110       1093       1092       1110       1111       1094       1093       1111       1112       1095       1094       1112       1113       1096       1095       1113       1114       1097       1096       1114       1115       1098       1097       1115       1116       1099       1098       1116       1117       1100       1099       1117       1118       1101       1100       1118       1119       1102       1101       1119       1120       1103       1102       1120       1121       1104       1103       1122       1123       1106       1105       1123       1124       1107       1106       1124       1125       1108       1107       1125       1126       1109       1108       1126       1127       1110       1109       1127       1128       1111       1110       1128       1129       1112       1111       1129       1130       1113       1112       1130       1131       1114       1113       1131       1132       1115       1114       1132       1133       1116       1115       1133       1134       1117       1116       1134       1135       1118       1117       1135       1136       1119       1118       1136       1137       1120       1119       1137       1138       1121       1120        272        273       1123       1122        273        274       1124       1123        274        275       1125       1124        275        276       1126       1125        276        277       1127       1126        277        278       1128       1127        278        279       1129       1128        279        280       1130       1129        280        281       1131       1130        281        282       1132       1131        282        283       1133       1132        283        284       1134       1133        284        285       1135       1134        285        286       1136       1135        286        287       1137       1136        287        288       1138       1137 </DataArray>
<DataArray type="Int32"                                    Name="offsets"                                                      NumberOfComponents=" 1" format="ascii">
         4          8         12         16         20         24         28         32         36         40         44         48         52         56         60         64         68         72         76         80         84         88         92         96        100        104        108        112        116        120        124        128        132        136        140        144        148        152        156        160        164        168        172        176        180        184        188        192        196        200        204        208        212        216        220        224        228        232        236        240        244        248        252        256        260        264        268        272        276        280        284        288        292        296        300        304        308        312        316        320        324        328        332        336        340        344        348        352        356        360        364        368        372        376        380        384        388        392        396        400        404        408        412        416        420        424        428        432        436        440        444        448        452        456        460        464        468        472        476        480        484        488        492        496        500        504        508        512        516        520        524        528        532        536        540        544        548        552        556        560        564        568        572        576        580        584        588        592        596        600        604        608        612        616        620        624        628        632        636        640        644        648        652        656        660        664        668        672        676        680        684        688        692        696        700        704        708        712        716        720        724        728        732        736        740        744        748        752        756        760        764        768        772        776        780        784        788        792        796        800        804        808        812        816        820        824        828        832        836        840        844        848        852        856        860        864        868        872        876        880        884        888        892        896        900        904        908        912        916        920        924        928        932        936        940        944        948        952        956        960        964        968        972        976        980        984        988        992        996       1000       1004       1008       1012       1016       1020       1024       1028       1032       1036       1040       1044       1048       1052       1056       1060       1064       1068       1072       1076       1080       1084       1088       1092       1096       1100       1104       1108       1112       1116       1120       1124       1128       1132       1136       1140       1144       1148       1152       1156       1160       1164       1168       1172       1176       1180       1184       1188       1192       1196       1200       1204       1208       1212       1216       1220       1224       1228       1232       1236       1240       1244       1248       1252       1256       1260       1264       1268       1272       1276       1280       1284       1288       1292       1296       1300       1304       1308       1312       1316       1320       1324       1328       1332       1336       1340       1344       1348       1352       1356       1360       1364       1368       1372       1376       1380       1384       1388       1392       1396       1400       1404       1408       1412       1416       1420       1424       1428       1432       1436       1440       1444       1448       1452       1456       1460       1464       1468       1472       1476       1480       1484       1488       1492       1496       1500       1504       1508       1512       1516       1520       1524       1528       1532       1536       1540       1544       1548       1552       1556       1560       1564       1568       1572       1576       1580       1584       1588       1592       1596       1600       1604       1608       1612       1616       1620       1624       1628       1632       1636       1640       1644       1648       1652       1656       1660       1664       1668       1672       1676       1680       1684       1688       1692       1696       1700       1704       1708       1712       1716       1720       1724       1728       1732       1736       1740       1744       1748       1752       1756       1760       1764       1768       1772       1776       1780       1784       1788       1792       1796       1800       1804       1808       1812       1816       1820       1824       1828       1832       1836       1840       1844       1848       1852       1856       1860       1864       1868       1872       1876       1880       1884       1888       1892       1896       1900       1904       1908       1912       1916       1920       1924       1928       1932       1936       1940       1944       1948       1952       1956       1960       1964       1968       1972       1976       1980       1984       1988       1992       1996       2000       2004       2008       2012       2016       2020       2024       2028       2032       2036       2040       2044       2048       2052       2056       2060       2064       2068       2072       2076       2080       2084       2088       2092       2096       2100       2104       2108       2112       2116       2120       2124       2128       2132       2136       2140       2144       2148       2152       2156       2160       2164       2168       2172       2176       2180       2184       2188       2192       2196       2200       2204       2208       2212       2216       2220       2224       2228       2232       2236       2240       2244       2248       2252       2256       2260       2264       2268       2272       2276       2280       2284       2288       2292       2296       2300       2304       2308       2312       2316       2320       2324       2328       2332       2336       2340       2344       2348       2352       2356       2360       2364       2368       2372       2376       2380       2384       2388       2392       2396       2400       2404       2408       2412       2416       2420       2424       2428       2432       2436       2440       2444       2448       2452       2456       2460       2464       2468       2472       2476       2480       2484       2488       2492       2496       2500       2504       2508       2512       2516       2520       2524       2528       2532       2536       2540       2544       2548       2552       2556       2560       2564       2568       2572       2576       2580       2584       2588       2592       2596       2600       2604       2608       2612       2616       2620       2624       2628       2632       2636       2640       2644       2648       2652       2656       2660       2664       2668       2672       2676       2680       2684       2688       2692       2696       2700       2704       2708       2712       2716       2720       2724       2728       2732       2736       2740       2744       2748       2752       2756       2760       2764       2768       2772       2776       2780       2784       2788       2792       2796       2800       2804       2808       2812       2816       2820       2824       2828       2832       2836       2840       2844       2848       2852       2856       2860       2864       2868       2872       2876       2880       2884       2888       2892       2896       2900       2904       2908       2912       2916       2920       2924       2928       2932       2936       2940       2944       2948       2952       2956       2960       2964       2968       2972       2976       2980       2984       2988       2992       2996       3000       3004       3008       3012       3016       3020       3024       3028       3032       3036       3040       3044       3048       3052       3056       3060       3064       3068       3072       3076       3080       3084       3088       3092       3096       3100       3104       3108       3112       3116       3120       3124       3128       3132       3136       3140       3144       3148       3152       3156       3160       3164       3168       3172       3176       3180       3184       3188       3192       3196       3200       3204       3208       3212       3216       3220       3224       3228       3232       3236       3240       3244       3248       3252       3256       3260       3264       3268       3272       3276       3280       3284       3288       3292       3296       3300       3304       3308       3312       3316       3320       3324       3328       3332       3336       3340       3344       3348       3352       3356       3360       3364       3368       3372       3376       3380       3384       3388       3392       3396       3400       3404       3408       3412       3416       3420       3424       3428       3432       3436       3440       3444       3448       3452       3456       3460       3464       3468       3472       3476       3480       3484       3488       3492       3496       3500       3504       3508       3512       3516       3520       3524       3528       3532       3536       3540       3544       3548       3552       3556       3560       3564       3568       3572       3576       3580       3584       3588       3592       3596       3600       3604       3608       3612       3616       3620       3624       3628       3632       3636       3640       3644       3648       3652       3656       3660       3664       3668       3672       3676       3680       3684       3688       3692       3696       3700       3704       3708       3712       3716       3720       3724       3728       3732       3736       3740       3744       3748       3752       3756       3760       3764       3768       3772       3776       3780       3784       3788       3792       3796       3800       3804       3808       3812       3816       3820       3824       3828       3832       3836       3840       3844       3848       3852       3856       3860       3864       3868       3872       3876       3880       3884       3888       3892       3896       3900       3904       3908       3912       3916       3920       3924       3928       3932       3936       3940       3944       3948       3952       3956       3960       3964       3968       3972       3976       3980       3984       3988       3992       3996       4000       4004       4008       4012       4016       4020       4024       4028       4032       4036       4040       4044       4048       4052       4056       4060       4064       4068       4072       4076       4080       4084       4088       4092       4096 </DataArray>
<DataArray type="UInt8"                                    Name="types"                                                      NumberOfComponents=" 1" format="ascii">
         9          9          9          9          9          9          9          9          9          9          9          9          9          9          9          9          9          9          9          9          9          9          9          9          9          9          9          9          9          9          9          9          9          9          9          9          9          9          9          9          9          9          9          9          9          9          9          9          9          9          9          9          9          9          9          9          9          9          9          9          9          9          9          9          9          9          9          9          9          9          9          9          9          9          9          9          9          9          9          9          9          9          9          9          9          9          9          9          9          9          9          9          9          9          9          9          9          9          9          9          9          9          9          9          9          9          9          9          9          9          9          9          9          9          9          9          9          9          9          9          9          9          9          9          9          9          9          9          9          9          9          9          9          9          9          9          9          9          9          9          9          9          9          9          9          9          9          9          9          9          9          9          9          9          9          9          9          9          9          9          9          9          9          9          9          9          9          9          9          9          9          9          9          9          9          9          9          9          9          9          9          9          9          9          9          9          9          9          9          9          9          9          9          9          9          9          9          9          9          9          9          9          9          9          9          9          9          9          9          9          9          9          9          9          9          9          9          9          9          9          9          9          9          9          9          9          9          9          9          9          9          9          9          9          9          9          9          9          9          9          9          9          9          9          9          9          9          9          9          9          9          9          9          9          9          9          9          9          9          9          9          9          9          9          9          9          9          9          9          9          9          9          9          9          9          9          9          9          9          9          9          9          9          9          9          9          9          9          9          9          9          9          9          9          9          9          9          9          9          9          9          9          9          9          9          9          9          9          9          9          9          9          9          9          9          9          9          9          9          9          9          9          9          9          9          9          9          9          9          9          9          9          9          9          9          9          9          9          9          9          9          9          9          9          9          9          9          9          9          9          9          9          9          9          9          9          9          9          9          9          9          9          9          9          9          9          9          9          9          9          9          9          9          9          9          9          9          9          9          9          9          9          9          9          9          9          9          9          9          9          9          9          9          9          9          9          9          9          9          9          9          9          9          9          9          9          9          9          9          9          9          9          9          9          9          9          9          9          9          9          9          9          9          9          9          9          9          9          9          9          9          9          9          9          9          9          9          9          9          9          9          9          9          9          9          9          9          9          9          9          9          9          9          9          9          9          9          9          9          9          9          9          9          9          9          9          9          9          9          9          9          9          9          9          9          9          9          9          9          9          9          9          9          9          9          9          9          9          9          9          9          9          9          9          9          9          9          9          9          9          9          9          9          9          9          9          9          9          9          9          9          9          9          9          9          9          9          9          9          9          9          9          9          9          9          9          9          9          9          9          9          9          9          9          9          9          9          9          9          9          9          9          9          9          9          9          9          9          9          9          9          9          9          9          9          9          9          9          9          9          9          9          9          9          9          9          9          9          9          9          9          9          9          9          9          9          9          9          9          9          9          9          9          9          9          9          9          9          9          9          9          9          9          9          9          9          9          9          9          9          9          9          9          9          9          9          9          9          9          9          9          9          9          9          9          9          9          9          9          9          9          9          9          9          9          9          9          9          9          9          9          9          9          9          9          9          9          9          9          9          9          9          9          9          9          9          9          9          9          9          9          9          9          9          9          9          9          9          9          9          9          9          9          9          9          9          9          9          9          9          9          9          9          9          9          9          9          9          9          9          9          9          9          9          9          9          9          9          9          9          9          9          9          9          9          9          9          9          9          9          9          9          9          9          9          9          9          9          9          9          9          9          9          9          9          9          9          9          9          9          9          9          9          9          9          9          9          9          9          9          9          9          9          9          9          9          9          9          9          9          9          9          9          9          9          9          9          9          9          9          9          9          9          9          9          9          9          9          9          9          9          9          9          9          9          9          9          9          9          9          9          9          9          9          9          9          9          9          9          9          9          9          9          9          9          9          9          9          9          9          9          9          9          9          9          9          9          9          9          9          9          9          9          9          9          9          9          9          9          9          9          9          9          9          9          9          9          9          9          9          9          9          9          9          9          9          9          9          9          9          9          9          9          9          9          9          9          9          9          9          9          9          9          9          9          9          9          9          9          9          9          9          9          9          9          9          9          9          9          9          9          9          9          9          9          9          9          9          9          9          9          9          9          9          9          9          9          9          9          9          9          9          9          9          9          9          9          9          9          9          9          9          9          9          9          9          9          9          9          9          9          9          9          9          9          9          9          9          9          9          9          9          9          9          9          9          9          9          9          9          9          9          9          9          9          9          9          9          9          9          9          9          9          9          9          9          9          9          9          9          9          9          9          9          9          9          9          9          9          9          9          9          9          9          9          9          9          9          9          9          9          9          9          9          9          9          9          9          9          9          9          9          9          9          9          9          9          9          9          9          9          9          9          9          9          9          9          9          9          9          9          9          9          9          9          9          9          9          9          9          9          9          9          9          9          9          9          9          9          9          9          9          9          9          9          9          9          9          9          9          9          9          9          9 </DataArray>
</Cells>
<CellData>
<DataArray type="Int32"                                    Name="material"                                                      NumberOfComponents=" 1" format="ascii">
         1          1          1          1          1          1          1          1          1          1          1          1          1          1          1          1          1          1          1          1          1          1          1          1          1          1          1          1          1          1          1          1          1          1          1          1          1          1          1          1          1          1          1          1          1          1          1          1          1          1          1          1          1          1          1          1          1          1          1          1          1          1          1          1          1          1          1          1          1          1          1          1          1          1          1          1          1          1          1          1          1          1          1          1          1          1          1          1          1          1          1          1          1          1          1          1          1          1          1          1          1          1          1          1          1          1          1          1          1          1          1          1          1          1          1          1          1          1          1          1          1          1          1          1          1          1          1          1          1          1          1          1          1          1          1          1          1          1          1          1          1          1          1          1          1          1          1          1          1          1          1          1          1          1          1          1          1          1          1          1          1          1          1          1          1          1          1          1          1          1          1          1          1          1          1          1          1          1          1          1          1          1          1          1          1          1          1          1          1          1          1          1          1          1          1          1          1          1          1          1          1          1          1          1          1          1          1          1          1          1          1          1          1          1          1          1          1          1          1          1          1          1          1          1          1          1          1          1          1          1          1          1          1          1          1          1          1          1          1          1          1          1          1          1          1          1          1          1          1          1          1          1          1          1          1          1          1          1          1          1          1          1          1          1          1          1          1          1          1          1          1          1          1          1          1          1          1          1          1          1          1          1          1          1          1          1          1          1          1          1          1          1          1          1          1          1          1          1          1          1          1          1          1          1          1          1          1          1          1          1          1          1          1          1          1          1          1          1          1          1          1          1          1          1          1          1          1          1          1          1          1          1          1          1          1          1          1          1          1          1          1          1          1          1          1          1          1          1          1          1          1          1          1          1          1          1          1          1          1          1          1          1          1          1          1          1          1          1          1          1          1          1          1          1          1          1          1          1          1          1          1          1          1          1          1          1          1          1          1          1          1          1          1          1          1          1          1          1          1          1          1          1          1          1          1          1          1          1          1          1          1          1          1          1          1          1          1          1          1          1          1          1          1          1          1          1          1          1          1          1          1          1          1          1          1          1          1          1          1          1          1          1          1          1          1          1          1          1          1          1          1          1          1          1          1          1          1          1          1          1          1          1          1          1          1          1          1          1          1          1          1          1          1          1          1          1          1          1          1          1          1          1          1          1          1          1          1          1          1          1          1          1          1          1          1          1          1          1          1          1          1          1          1          1          1          1          1          1          1          1          1          1          1          1          1          1          1          1          1          1          1          1          1          1          1          1          1          1          1          1          1          1          1          1          1          1          1          1          1          1          1          1          1          1          1          1          1          1          1          1          1          1          1          1          1          1          1          1          1          1          1          1          1          1          1          1          1          1          1          1          1          1          1          1          1          1          1          1          1          1          1          1          1          1          1          1          1          1          1          1          1          1          1          1          1          1          1          1          1          1          1          1          1          1          1          1          1          1          1          1          1          1          1          1          1          1          1          1          1          1          1          1          1          1          1          1          1          1          1          1          1          1          1          1          1          1          1          1          1          1          1          1          1          1          1          1          1          1          1          1          1          1          1          1          1          1          1          1          1          1          1          1          1          1          1          1          1          1          1          1          1          1          1          1          1          1          1          1          1          1          1          1          1          1          1          1          1          1          1          1          1          1          1          1          1          1          1          1          1          1          1          1          1          1          1          1          1          1          1          1          1          1          1          1          1          1          1          1          1          1          1          1          1          1          1          1          1          1          1          1          1          1          1          1          1          1          1          1          1          1          1          1          1          1          1          1          1          1          1          1          1          1          1          1          1          1          1          1          1          1          1          1          1          1          1          1          1          1          1          1          1          1          1          1          1          1          1          1          1          1          1          1          1          1          1          1          1          1          1          1          1          1          1          1          1          1          1          1          1          1          1          1          1          1          1          1          1          1          1          1          1          1          1          1          1          1          1          1          1          1          1          1          1          1          1          1          1          1          1          1          1          1          1          1          1          1          1          1          1          1          1          1          1          1          1          1          1          1          1          1          1          1          1          1          1          1          1          1          1          1          1          1          1          1          1          1          1          1          1          1          1          1          1          1          1          1          1          1          1          1          1          1          1          1          1          1          1          1          1          1          1          1          1          1          1          1          1          1          1          1          1          1          1          1          1          1          1          1          1          1          1          1          1          1          1          1          1          1          1          1          1          1          1          1          1          1          1          1          1          1          1          1          1          1          1          1          1          1          1          1          1          1          1          1          1          1          1          1          1          1          1          1          1          1          1          1          1          1          1          1          1          1          1          1          1          1          1          1          1          1          1          1          1          1          1          1          1          1          1          1          1          1          1          1          1          1          1          1          1          1          1          1          1          1          1          1          1          1          1          1          1          1          1          1          1          1          1          1          1          1          1          1          1          1          1          1          1          1          1          1          1          1          1          1 </DataArray>
</CellData>
<PointData>
<DataArray type="Float64"                                    Name="u"                                                      NumberOfComponents=" 3" format="ascii">
              0.000002017               0.000000000               1.000000000               0.000000575               0.000000000               1.000000000               0.000000075               0.000000000               1.000000000               0.000000022               0.000000000               1.000000000               0.000000055               0.000000000               1.000000000               0.000000038               0.000000000               1.000000000              -0.000000069               0.000000000               1.000000000              -0.000000175               0.000000000               1.000000000              -0.000000166               0.000000000               1.000000000              -0.000000041               0.000000000               1.000000000               0.000000141               0.000000000               1.000000000               0.000000322               0.000000000               1.000000000               0.000000425               0.000000000               1.000000000               0.000000333               0.000000000               1.000000000              -0.000000051               0.000000000               1.000000000              -0.000000794               0.000000000               1.000000000              -0.000001963               0.000000000               1.000000000               0.000001925               0.000003730               1.000000000               0.000000541               0.000003449               1.000000000               0.000000099               0.000003443               1.000000000               0.000000042               0.000003728               1.000000000               0.000000047               0.000004195               1.000000000              -0.000000018               0.000004821               1.000000000              -0.000000092               0.000005338               1.000000000              -0.000000101               0.000005591               1.000000000              -0.000000107               0.000005854               1.000000000              -0.000000100               0.000006062               1.000000000              -0.000000050               0.000006284               1.000000000              -0.000000052               0.000006645               1.000000000              -0.000000175               0.000007180               1.000000000              -0.000000484               0.000007951               1.000000000              -0.000001087               0.000008977               1.000000000              -0.000002050               0.000010246               1.000000000              -0.000003427               0.000011740               1.000000000               0.000001817               0.000007470               1.000000000               0.000000554               0.000006867               1.000000000               0.000000149               0.000006887               1.000000000               0.000000062               0.000007415               1.000000000               0.000000055               0.000008415               1.000000000              -0.000000027               0.000009609               1.000000000              -0.000000137               0.000010586               1.000000000              -0.000000198               0.000011178               1.000000000              -0.000000249               0.000011830               1.000000000              -0.000000311               0.000012441               1.000000000              -0.000000489               0.000013110               1.000000000              -0.000000886               0.000014042               1.000000000              -0.000001523               0.000015295               1.000000000              -0.000002434               0.000016964               1.000000000              -0.000003680               0.000019096               1.000000000              -0.000005307               0.000021707               1.000000000              -0.000007351               0.000024799               1.000000000               0.000001617               0.000011138               1.000000000               0.000000553               0.000010202               1.000000000               0.000000283               0.000010263               1.000000000               0.000000206               0.000011131               1.000000000               0.000000061               0.000012619               1.000000000              -0.000000133               0.000014356               1.000000000              -0.000000271               0.000015825               1.000000000              -0.000000325               0.000016905               1.000000000              -0.000000445               0.000018162               1.000000000              -0.000000799               0.000019458               1.000000000              -0.000001453               0.000020992               1.000000000              -0.000002481               0.000022891               1.000000000              -0.000003925               0.000025239               1.000000000              -0.000005747               0.000028137               1.000000000              -0.000007977               0.000031645               1.000000000              -0.000010633               0.000035816               1.000000000              -0.000013694               0.000040701               1.000000000               0.000001351               0.000014721               1.000000000               0.000000648               0.000013438               1.000000000               0.000000540               0.000013590               1.000000000               0.000000394               0.000014914               1.000000000               0.000000090               0.000016902               1.000000000              -0.000000210               0.000019261               1.000000000              -0.000000516               0.000021228               1.000000000              -0.000000829               0.000023041               1.000000000              -0.000001318               0.000025146               1.000000000              -0.000002118               0.000027561               1.000000000              -0.000003322               0.000030389               1.000000000              -0.000005061               0.000033780               1.000000000              -0.000007306               0.000037776               1.000000000              -0.000010022               0.000042435               1.000000000              -0.000013244               0.000047795               1.000000000              -0.000016941               0.000053900               1.000000000              -0.000021060               0.000060779               1.000000000               0.000001170               0.000018280               1.000000000               0.000000900               0.000016623               1.000000000               0.000000875               0.000016943               1.000000000               0.000000636               0.000018770               1.000000000               0.000000140               0.000021451               1.000000000              -0.000000469               0.000024455               1.000000000              -0.000001015               0.000027261               1.000000000              -0.000001555               0.000030143               1.000000000              -0.000002433               0.000033509               1.000000000              -0.000003785               0.000037463               1.000000000              -0.000005707               0.000041989               1.000000000              -0.000008227               0.000047273               1.000000000              -0.000011289               0.000053307               1.000000000              -0.000014878               0.000060121               1.000000000              -0.000018999               0.000067729               1.000000000              -0.000023624               0.000076100               1.000000000              -0.000028688               0.000085225               1.000000000               0.000000987               0.000021765               1.000000000               0.000001248               0.000019722               1.000000000               0.000001317               0.000020397               1.000000000               0.000000825               0.000022811               1.000000000               0.000000037               0.000026293               1.000000000              -0.000000724               0.000030323               1.000000000              -0.000001430               0.000034385               1.000000000              -0.000002316               0.000038632               1.000000000              -0.000003702               0.000043714               1.000000000              -0.000005703               0.000049481               1.000000000              -0.000008363               0.000056052               1.000000000              -0.000011684               0.000063466               1.000000000              -0.000015539               0.000071786               1.000000000              -0.000019943               0.000080973               1.000000000              -0.000024919               0.000090981               1.000000000              -0.000030378               0.000101784               1.000000000              -0.000036283               0.000113314               1.000000000               0.000000882               0.000025160               1.000000000               0.000001705               0.000022793               1.000000000               0.000001689               0.000023922               1.000000000               0.000000960               0.000027179               1.000000000              -0.000000040               0.000031727               1.000000000              -0.000001063               0.000037009               1.000000000              -0.000002081               0.000042452               1.000000000              -0.000003360               0.000048438               1.000000000              -0.000005248               0.000055500               1.000000000              -0.000007869               0.000063355               1.000000000              -0.000011193               0.000072137               1.000000000              -0.000015145               0.000081997               1.000000000              -0.000019675               0.000092818               1.000000000              -0.000024839               0.000104620               1.000000000              -0.000030557               0.000117327               1.000000000              -0.000036785               0.000130874               1.000000000              -0.000043484               0.000145211               1.000000000               0.000000819               0.000028348               1.000000000               0.000002179               0.000025904               1.000000000               0.000001996               0.000027622               1.000000000               0.000000960               0.000031832               1.000000000              -0.000000352               0.000037654               1.000000000              -0.000001658               0.000044317               1.000000000              -0.000002826               0.000051424               1.000000000              -0.000004403               0.000059416               1.000000000              -0.000006829               0.000068549               1.000000000              -0.000010031               0.000078711               1.000000000              -0.000013883               0.000090003               1.000000000              -0.000018344               0.000102580               1.000000000              -0.000023471               0.000116328               1.000000000              -0.000029224               0.000131179               1.000000000              -0.000035509               0.000147177               1.000000000              -0.000042327               0.000164123               1.000000000              -0.000049486               0.000181736               1.000000000               0.000000696               0.000031474               1.000000000               0.000002470               0.000029186               1.000000000               0.000002422               0.000030582               1.000000000               0.000001436               0.000034403               1.000000000               0.000000095               0.000039955               1.000000000              -0.000001258               0.000046583               1.000000000              -0.000002347               0.000053755               1.000000000              -0.000003413               0.000061585               1.000000000              -0.000005084               0.000070351               1.000000000              -0.000007415               0.000080043               1.000000000              -0.000010224               0.000090672               1.000000000              -0.000013595               0.000102334               1.000000000              -0.000017459               0.000115124               1.000000000              -0.000021795               0.000128958               1.000000000              -0.000026616               0.000143811               1.000000000              -0.000031889               0.000159735               1.000000000              -0.000037592               0.000176670               1.000000000               0.000000634               0.000034518               1.000000000               0.000002632               0.000032498               1.000000000               0.000002659               0.000033640               1.000000000               0.000001846               0.000037118               1.000000000               0.000000649               0.000042371               1.000000000              -0.000000660               0.000048773               1.000000000              -0.000001726               0.000055906               1.000000000              -0.000002548               0.000063688               1.000000000              -0.000003630               0.000072250               1.000000000              -0.000005234               0.000081652               1.000000000              -0.000007223               0.000091851               1.000000000              -0.000009656               0.000102862               1.000000000              -0.000012439               0.000114812               1.000000000              -0.000015541               0.000127743               1.000000000              -0.000019006               0.000141585               1.000000000              -0.000022822               0.000156376               1.000000000              -0.000027050               0.000172089               1.000000000               0.000000538               0.000037292               1.000000000               0.000002558               0.000035657               1.000000000               0.000002751               0.000036746               1.000000000               0.000002193               0.000039954               1.000000000               0.000001171               0.000044799               1.000000000              -0.000000011               0.000050854               1.000000000              -0.000001059               0.000057835               1.000000000              -0.000001831               0.000065584               1.000000000              -0.000002565               0.000074072               1.000000000              -0.000003551               0.000083344               1.000000000              -0.000004860               0.000093336               1.000000000              -0.000006447               0.000103979               1.000000000              -0.000008326               0.000115339               1.000000000              -0.000010412               0.000127531               1.000000000              -0.000012699               0.000140562               1.000000000              -0.000015201               0.000154391               1.000000000              -0.000017972               0.000169016               1.000000000               0.000000403               0.000039698               1.000000000               0.000002324               0.000038619               1.000000000               0.000002669               0.000039734               1.000000000               0.000002274               0.000042660               1.000000000               0.000001491               0.000047100               1.000000000               0.000000523               0.000052836               1.000000000              -0.000000423               0.000059689               1.000000000              -0.000001175               0.000067377               1.000000000              -0.000001722               0.000075804               1.000000000              -0.000002305               0.000084930               1.000000000              -0.000003077               0.000094787               1.000000000              -0.000003997               0.000105239               1.000000000              -0.000005125               0.000116309               1.000000000              -0.000006421               0.000128036               1.000000000              -0.000007785               0.000140489               1.000000000              -0.000009247               0.000153695               1.000000000              -0.000010764               0.000167654               1.000000000               0.000000285               0.000041668               1.000000000               0.000001927               0.000041179               1.000000000               0.000002295               0.000042332               1.000000000               0.000002091               0.000045089               1.000000000               0.000001578               0.000049279               1.000000000               0.000000822               0.000054738               1.000000000               0.000000014               0.000061340               1.000000000              -0.000000657               0.000068859               1.000000000              -0.000001069               0.000077177               1.000000000              -0.000001382               0.000086226               1.000000000              -0.000001797               0.000095985               1.000000000              -0.000002280               0.000106391               1.000000000              -0.000002858               0.000117374               1.000000000              -0.000003540               0.000128854               1.000000000              -0.000004273               0.000140976               1.000000000              -0.000005003               0.000153762               1.000000000              -0.000005666               0.000167218               1.000000000               0.000000179               0.000043120               1.000000000               0.000001363               0.000043099               1.000000000               0.000001696               0.000044372               1.000000000               0.000001635               0.000047071               1.000000000               0.000001302               0.000051066               1.000000000               0.000000778               0.000056323               1.000000000               0.000000229               0.000062685               1.000000000              -0.000000254               0.000070013               1.000000000              -0.000000579               0.000078202               1.000000000              -0.000000760               0.000087183               1.000000000              -0.000000940               0.000096881               1.000000000              -0.000001151               0.000107227               1.000000000              -0.000001385               0.000118139               1.000000000              -0.000001676               0.000129507               1.000000000              -0.000002025               0.000141459               1.000000000              -0.000002363               0.000153973               1.000000000              -0.000002653               0.000167037               1.000000000               0.000000080               0.000044027               1.000000000               0.000000706               0.000044317               1.000000000               0.000000925               0.000045682               1.000000000               0.000000884               0.000048356               1.000000000               0.000000719               0.000052243               1.000000000               0.000000490               0.000057348               1.000000000               0.000000191               0.000063532               1.000000000              -0.000000071               0.000070746               1.000000000              -0.000000242               0.000078882               1.000000000              -0.000000325               0.000087775               1.000000000              -0.000000382               0.000097382               1.000000000              -0.000000449               0.000107654               1.000000000              -0.000000523               0.000118471               1.000000000              -0.000000627               0.000129777               1.000000000              -0.000000761               0.000141597               1.000000000              -0.000000897               0.000153906               1.000000000              -0.000001054               0.000166751               1.000000000              -0.000000000               0.000044344               1.000000000              -0.000000000               0.000044750               1.000000000               0.000000000               0.000046127               1.000000000               0.000000000               0.000048784               1.000000000               0.000000000               0.000052658               1.000000000               0.000000000               0.000057711               1.000000000               0.000000000               0.000063848               1.000000000              -0.000000000               0.000071007               1.000000000              -0.000000000               0.000079078               1.000000000              -0.000000000               0.000087938               1.000000000              -0.000000000               0.000097541               1.000000000              -0.000000000               0.000107782               1.000000000              -0.000000000               0.000118541               1.000000000              -0.000000000               0.000129815               1.000000000               0.000000000               0.000141569               1.000000000              -0.000000000               0.000153791               1.000000000              -0.000000000               0.000166565               1.000000000               0.000002017               0.000000000               1.000000000               0.000000575               0.000000000               1.000000000               0.000000075               0.000000000               1.000000000               0.000000022               0.000000000               1.000000000               0.000000055               0.000000000               1.000000000               0.000000038               0.000000000               1.000000000              -0.000000069               0.000000000               1.000000000              -0.000000175               0.000000000               1.000000000              -0.000000166               0.000000000               1.000000000              -0.000000041               0.000000000               1.000000000               0.000000141               0.000000000               1.000000000               0.000000322               0.000000000               1.000000000               0.000000425               0.000000000               1.000000000               0.000000333               0.000000000               1.000000000              -0.000000051               0.000000000               1.000000000              -0.000000794               0.000000000               1.000000000              -0.000001963               0.000000000               1.000000000               0.000001925              -0.000003730               1.000000000               0.000000541              -0.000003449               1.000000000               0.000000099              -0.000003443               1.000000000               0.000000042              -0.000003728               1.000000000               0.000000047              -0.000004195               1.000000000              -0.000000018              -0.000004821               1.000000000              -0.000000092              -0.000005338               1.000000000              -0.000000101              -0.000005591               1.000000000              -0.000000107              -0.000005854               1.000000000              -0.000000100              -0.000006062               1.000000000              -0.000000050              -0.000006284               1.000000000              -0.000000052              -0.000006645               1.000000000              -0.000000175              -0.000007180               1.000000000              -0.000000484              -0.000007951               1.000000000              -0.000001087              -0.000008977               1.000000000              -0.000002050              -0.000010246               1.000000000              -0.000003427              -0.000011740               1.000000000               0.000001817              -0.000007470               1.000000000               0.000000554              -0.000006867               1.000000000               0.000000149              -0.000006887               1.000000000               0.000000062              -0.000007415               1.000000000               0.000000055              -0.000008415               1.000000000              -0.000000027              -0.000009609               1.000000000              -0.000000137              -0.000010586               1.000000000              -0.000000198              -0.000011178               1.000000000              -0.000000249              -0.000011830               1.000000000              -0.000000311              -0.000012441               1.000000000              -0.000000489              -0.000013110               1.000000000              -0.000000886              -0.000014042               1.000000000              -0.000001523              -0.000015295               1.000000000              -0.000002434              -0.000016964               1.000000000              -0.000003680              -0.000019096               1.000000000              -0.000005307              -0.000021707               1.000000000              -0.000007351              -0.000024799               1.000000000               0.000001617              -0.000011138               1.000000000               0.000000553              -0.000010202               1.000000000               0.000000283              -0.000010263               1.000000000               0.000000206              -0.000011131               1.000000000               0.000000061              -0.000012619               1.000000000              -0.000000133              -0.000014356               1.000000000              -0.000000271              -0.000015825               1.000000000              -0.000000325              -0.000016905               1.000000000              -0.000000445              -0.000018162               1.000000000              -0.000000799              -0.000019458               1.000000000              -0.000001453              -0.000020992               1.000000000              -0.000002481              -0.000022891               1.000000000              -0.000003925              -0.000025239               1.000000000              -0.000005747              -0.000028137               1.000000000              -0.000007977              -0.000031645               1.000000000              -0.000010633              -0.000035816               1.000000000              -0.000013694              -0.000040701               1.000000000               0.000001351              -0.000014721               1.000000000               0.000000648              -0.000013438               1.000000000               0.000000540              -0.000013590               1.000000000               0.000000394              -0.000014914               1.000000000               0.000000090              -0.000016902               1.000000000              -0.000000210              -0.000019261               1.000000000              -0.000000516              -0.000021228               1.000000000              -0.000000829              -0.000023041               1.000000000              -0.000001318              -0.000025146               1.000000000              -0.000002118              -0.000027561               1.000000000              -0.000003322              -0.000030389               1.000000000              -0.000005061              -0.000033780               1.000000000              -0.000007306              -0.000037776               1.000000000              -0.000010022              -0.000042435               1.000000000              -0.000013244              -0.000047795               1.000000000              -0.000016941              -0.000053900               1.000000000              -0.000021060              -0.000060779               1.000000000               0.000001170              -0.000018280               1.000000000               0.000000900              -0.000016623               1.000000000               0.000000875              -0.000016943               1.000000000               0.000000636              -0.000018770               1.000000000               0.000000140              -0.000021451               1.000000000              -0.000000469              -0.000024455               1.000000000              -0.000001015              -0.000027261               1.000000000              -0.000001555              -0.000030143               1.000000000              -0.000002433              -0.000033509               1.000000000              -0.000003785              -0.000037463               1.000000000              -0.000005707              -0.000041989               1.000000000              -0.000008227              -0.000047273               1.000000000              -0.000011289              -0.000053307               1.000000000              -0.000014878              -0.000060121               1.000000000              -0.000018999              -0.000067729               1.000000000              -0.000023624              -0.000076100               1.000000000              -0.000028688              -0.000085225               1.000000000               0.000000987              -0.000021765               1.000000000               0.000001248              -0.000019722               1.000000000               0.000001317              -0.000020397               1.000000000               0.000000825              -0.000022811               1.000000000               0.000000037              -0.000026293               1.000000000              -0.000000724              -0.000030323               1.000000000              -0.000001430              -0.000034385               1.000000000              -0.000002316              -0.000038632               1.000000000              -0.000003702              -0.000043714               1.000000000              -0.000005703              -0.000049481               1.000000000              -0.000008363              -0.000056052               1.000000000              -0.000011684              -0.000063466               1.000000000              -0.000015539              -0.000071786               1.000000000              -0.000019943              -0.000080973               1.000000000              -0.000024919              -0.000090981               1.000000000              -0.000030378              -0.000101784               1.000000000              -0.000036283              -0.000113314               1.000000000               0.000000882              -0.000025160               1.000000000               0.000001705              -0.000022793               1.000000000               0.000001689              -0.000023922               1.000000000               0.000000960              -0.000027179               1.000000000              -0.000000040              -0.000031727               1.000000000              -0.000001063              -0.000037009               1.000000000              -0.000002081              -0.000042452               1.000000000              -0.000003360              -0.000048438               1.000000000              -0.000005248              -0.000055500               1.000000000              -0.000007869              -0.000063355               1.000000000              -0.000011193              -0.000072137               1.000000000              -0.000015145              -0.000081997               1.000000000              -0.000019675              -0.000092818               1.000000000              -0.000024839              -0.000104620               1.000000000              -0.000030557              -0.000117327               1.000000000              -0.000036785              -0.000130874               1.000000000              -0.000043484              -0.000145211               1.000000000               0.000000819              -0.000028348               1.000000000               0.000002179              -0.000025904               1.000000000               0.000001996              -0.000027622               1.000000000               0.000000960              -0.000031832               1.000000000              -0.000000352              -0.000037654               1.000000000              -0.000001658              -0.000044317               1.000000000              -0.000002826              -0.000051424               1.000000000              -0.000004403              -0.000059416               1.000000000              -0.000006829              -0.000068549               1.000000000              -0.000010031              -0.000078711               1.000000000              -0.000013883              -0.000090003               1.000000000              -0.000018344              -0.000102580               1.000000000              -0.000023471              -0.000116328               1.000000000              -0.000029224              -0.000131179               1.000000000              -0.000035509              -0.000147177               1.000000000              -0.000042327              -0.000164123               1.000000000              -0.000049486              -0.000181736               1.000000000               0.000000696              -0.000031474               1.000000000               0.000002470              -0.000029186               1.000000000               0.000002422              -0.000030582               1.000000000               0.000001436              -0.000034403               1.000000000               0.000000095              -0.000039955               1.000000000              -0.000001258              -0.000046583               1.000000000              -0.000002347              -0.000053755               1.000000000              -0.000003413              -0.000061585               1.000000000              -0.000005084              -0.000070351               1.000000000              -0.000007415              -0.000080043               1.000000000              -0.000010224              -0.000090672               1.000000000              -0.000013595              -0.000102334               1.000000000              -0.000017459              -0.000115124               1.000000000              -0.000021795              -0.000128958               1.000000000              -0.000026616              -0.000143811               1.000000000              -0.000031889              -0.000159735               1.000000000              -0.000037592              -0.000176670               1.000000000               0.000000634              -0.000034518               1.000000000               0.000002632              -0.000032498               1.000000000               0.000002659              -0.000033640               1.000000000               0.000001846              -0.000037118               1.000000000               0.000000649              -0.000042371               1.000000000              -0.000000660              -0.000048773               1.000000000              -0.000001726              -0.000055906               1.000000000              -0.000002548              -0.000063688               1.000000000              -0.000003630              -0.000072250               1.000000000              -0.000005234              -0.000081652               1.000000000              -0.000007223              -0.000091851               1.000000000              -0.000009656              -0.000102862               1.000000000              -0.000012439              -0.000114812               1.000000000              -0.000015541              -0.000127743               1.000000000              -0.000019006              -0.000141585               1.000000000              -0.000022822              -0.000156376               1.000000000              -0.000027050              -0.000172089               1.000000000               0.000000538              -0.000037292               1.000000000               0.000002558              -0.000035657               1.000000000               0.000002751              -0.000036746               1.000000000               0.000002193              -0.000039954               1.000000000               0.000001171              -0.000044799               1.000000000              -0.000000011              -0.000050854               1.000000000              -0.000001059              -0.000057835               1.000000000              -0.000001831              -0.000065584               1.000000000              -0.000002565              -0.000074072               1.000000000              -0.000003551              -0.000083344               1.000000000              -0.000004860              -0.000093336               1.000000000              -0.000006447              -0.000103979               1.000000000              -0.000008326              -0.000115339               1.000000000              -0.000010412              -0.000127531               1.000000000              -0.000012699              -0.000140562               1.000000000              -0.000015201              -0.000154391               1.000000000              -0.000017972              -0.000169016               1.000000000               0.000000403              -0.000039698               1.000000000               0.000002324              -0.000038619               1.000000000               0.000002669              -0.000039734               1.000000000               0.000002274              -0.000042660               1.000000000               0.000001491              -0.000047100               1.000000000               0.000000523              -0.000052836               1.000000000              -0.000000423              -0.000059689               1.000000000              -0.000001175              -0.000067377               1.000000000              -0.000001722              -0.000075804               1.000000000              -0.000002305              -0.000084930               1.000000000              -0.000003077              -0.000094787               1.000000000              -0.000003997              -0.000105239               1.000000000              -0.000005125              -0.000116309               1.000000000              -0.000006421              -0.000128036               1.000000000              -0.000007785              -0.000140489               1.000000000              -0.000009247              -0.000153695               1.000000000              -0.000010764              -0.000167654               1.000000000               0.000000285              -0.000041668               1.000000000               0.000001927              -0.000041179               1.000000000               0.000002295              -0.000042332               1.000000000               0.000002091              -0.000045089               1.000000000               0.000001578              -0.000049279               1.000000000               0.000000822              -0.000054738               1.000000000               0.000000014              -0.000061340               1.000000000              -0.000000657              -0.000068859               1.000000000              -0.000001069              -0.000077177               1.000000000              -0.000001382              -0.000086226               1.000000000              -0.000001797              -0.000095985               1.000000000              -0.000002280              -0.000106391               1.000000000              -0.000002858              -0.000117374               1.000000000              -0.000003540              -0.000128854               1.000000000              -0.000004273              -0.000140976               1.000000000              -0.000005003              -0.000153762               1.000000000              -0.000005666              -0.000167218               1.000000000               0.000000179              -0.000043120               1.000000000               0.000001363              -0.000043099               1.000000000               0.000001696              -0.000044372               1.000000000               0.000001635              -0.000047071               1.000000000               0.000001302              -0.000051066               1.000000000               0.000000778              -0.000056323               1.000000000               0.000000229              -0.000062685               1.000000000              -0.000000254              -0.000070013               1.000000000              -0.000000579              -0.000078202               1.000000000              -0.000000760              -0.000087183               1.000000000              -0.000000940              -0.000096881               1.000000000              -0.000001151              -0.000107227               1.000000000              -0.000001385              -0.000118139               1.000000000              -0.000001676              -0.000129507               1.000000000              -0.000002025              -0.000141459               1.000000000              -0.000002363              -0.000153973               1.000000000              -0.000002653              -0.000167037               1.000000000               0.000000080              -0.000044027               1.000000000               0.000000706              -0.000044317               1.000000000               0.000000925              -0.000045682               1.000000000               0.000000884              -0.000048356               1.000000000               0.000000719              -0.000052243               1.000000000               0.000000490              -0.000057348               1.000000000               0.000000191              -0.000063532               1.000000000              -0.000000071              -0.000070746               1.000000000              -0.000000242              -0.000078882               1.000000000              -0.000000325              -0.000087775               1.000000000              -0.000000382              -0.000097382               1.000000000              -0.000000449              -0.000107654               1.000000000              -0.000000523              -0.000118471               1.000000000              -0.000000627              -0.000129777               1.000000000              -0.000000761              -0.000141597               1.000000000              -0.000000897              -0.000153906               1.000000000              -0.000001054              -0.000166751               1.000000000              -0.000000000              -0.000044344               1.000000000              -0.000000000              -0.000044750               1.000000000              -0.000000000              -0.000046127               1.000000000               0.000000000              -0.000048784               1.000000000               0.000000000              -0.000052658               1.000000000              -0.000000000              -0.000057711               1.000000000               0.000000000              -0.000063848               1.000000000               0.000000000              -0.000071007               1.000000000              -0.000000000              -0.000079078               1.000000000              -0.000000000              -0.000087938               1.000000000              -0.000000000              -0.000097541               1.000000000              -0.000000000              -0.000107782               1.000000000              -0.000000000              -0.000118541               1.000000000              -0.000000000              -0.000129815               1.000000000               0.000000000              -0.000141569               1.000000000               0.000000000              -0.000153791               1.000000000              -0.000000000              -0.000166565               1.000000000              -0.000002017               0.000000000               1.000000000              -0.000000575               0.000000000               1.000000000              -0.000000075               0.000000000               1.000000000              -0.000000022               0.000000000               1.000000000              -0.000000055               0.000000000               1.000000000              -0.000000038               0.000000000               1.000000000               0.000000069              -0.000000000               1.000000000               0.000000175              -0.000000000               1.000000000               0.000000166               0.000000000               1.000000000               0.000000041               0.000000000               1.000000000              -0.000000141               0.000000000               1.000000000              -0.000000322               0.000000000               1.000000000              -0.000000425              -0.000000000               1.000000000              -0.000000333              -0.000000000               1.000000000               0.000000051              -0.000000000               1.000000000               0.000000794              -0.000000000               1.000000000               0.000001963              -0.000000000               1.000000000              -0.000001925              -0.000003730               1.000000000              -0.000000541              -0.000003449               1.000000000              -0.000000099              -0.000003443               1.000000000              -0.000000042              -0.000003728               1.000000000              -0.000000047              -0.000004195               1.000000000               0.000000018              -0.000004821               1.000000000               0.000000092              -0.000005338               1.000000000               0.000000101              -0.000005591               1.000000000               0.000000107              -0.000005854               1.000000000               0.000000100              -0.000006062               1.000000000               0.000000050              -0.000006284               1.000000000               0.000000052              -0.000006645               1.000000000               0.000000175              -0.000007180               1.000000000               0.000000484              -0.000007951               1.000000000               0.000001087              -0.000008977               1.000000000               0.000002050              -0.000010246               1.000000000               0.000003427              -0.000011740               1.000000000              -0.000001817              -0.000007470               1.000000000              -0.000000554              -0.000006867               1.000000000              -0.000000149              -0.000006887               1.000000000              -0.000000062              -0.000007415               1.000000000              -0.000000055              -0.000008415               1.000000000               0.000000027              -0.000009609               1.000000000               0.000000137              -0.000010586               1.000000000               0.000000198              -0.000011178               1.000000000               0.000000249              -0.000011830               1.000000000               0.000000311              -0.000012441               1.000000000               0.000000489              -0.000013110               1.000000000               0.000000886              -0.000014042               1.000000000               0.000001523              -0.000015295               1.000000000               0.000002434              -0.000016964               1.000000000               0.000003680              -0.000019096               1.000000000               0.000005307              -0.000021707               1.000000000               0.000007351              -0.000024799               1.000000000              -0.000001617              -0.000011138               1.000000000              -0.000000553              -0.000010202               1.000000000              -0.000000283              -0.000010263               1.000000000              -0.000000206              -0.000011131               1.000000000              -0.000000061              -0.000012619               1.000000000               0.000000133              -0.000014356               1.000000000               0.000000271              -0.000015825               1.000000000               0.000000325              -0.000016905               1.000000000               0.000000445              -0.000018162               1.000000000               0.000000799              -0.000019458               1.000000000               0.000001453              -0.000020992               1.000000000               0.000002481              -0.000022891               1.000000000               0.000003925              -0.000025239               1.000000000               0.000005747              -0.000028137               1.000000000               0.000007977              -0.000031645               1.000000000               0.000010633              -0.000035816               1.000000000               0.000013694              -0.000040701               1.000000000              -0.000001351              -0.000014721               1.000000000              -0.000000648              -0.000013438               1.000000000              -0.000000540              -0.000013590               1.000000000              -0.000000394              -0.000014914               1.000000000              -0.000000090              -0.000016902               1.000000000               0.000000210              -0.000019261               1.000000000               0.000000516              -0.000021228               1.000000000               0.000000829              -0.000023041               1.000000000               0.000001318              -0.000025146               1.000000000               0.000002118              -0.000027561               1.000000000               0.000003322              -0.000030389               1.000000000               0.000005061              -0.000033780               1.000000000               0.000007306              -0.000037776               1.000000000               0.000010022              -0.000042435               1.000000000               0.000013244              -0.000047795               1.000000000               0.000016941              -0.000053900               1.000000000               0.000021060              -0.000060779               1.000000000              -0.000001170              -0.000018280               1.000000000              -0.000000900              -0.000016623               1.000000000              -0.000000875              -0.000016943               1.000000000              -0.000000636              -0.000018770               1.000000000              -0.000000140              -0.000021451               1.000000000               0.000000469              -0.000024455               1.000000000               0.000001015              -0.000027261               1.000000000               0.000001555              -0.000030143               1.000000000               0.000002433              -0.000033509               1.000000000               0.000003785              -0.000037463               1.000000000               0.000005707              -0.000041989               1.000000000               0.000008227              -0.000047273               1.000000000               0.000011289              -0.000053307               1.000000000               0.000014878              -0.000060121               1.000000000               0.000018999              -0.000067729               1.000000000               0.000023624              -0.000076100               1.000000000               0.000028688              -0.000085225               1.000000000              -0.000000987              -0.000021765               1.000000000              -0.000001248              -0.000019722               1.000000000              -0.000001317              -0.000020397               1.000000000              -0.000000825              -0.000022811               1.000000000              -0.000000037              -0.000026293               1.000000000               0.000000724              -0.000030323               1.000000000               0.000001430              -0.000034385               1.000000000               0.000002316              -0.000038632               1.000000000               0.000003702              -0.000043714               1.000000000               0.000005703              -0.000049481               1.000000000               0.000008363              -0.000056052               1.000000000               0.000011684              -0.000063466               1.000000000               0.000015539              -0.000071786               1.000000000               0.000019943              -0.000080973               1.000000000               0.000024919              -0.000090981               1.000000000               0.000030378              -0.000101784               1.000000000               0.000036283              -0.000113314               1.000000000              -0.000000882              -0.000025160               1.000000000              -0.000001705              -0.000022793               1.000000000              -0.000001689              -0.000023922               1.000000000              -0.000000960              -0.000027179               1.000000000               0.000000040              -0.000031727               1.000000000               0.000001063              -0.000037009               1.000000000               0.000002081              -0.000042452               1.000000000               0.000003360              -0.000048438               1.000000000               0.000005248              -0.000055500               1.000000000               0.000007869              -0.000063355               1.000000000               0.000011193              -0.000072137               1.000000000               0.000015145              -0.000081997               1.000000000               0.000019675              -0.000092818               1.000000000               0.000024839              -0.000104620               1.000000000               0.000030557              -0.000117327               1.000000000               0.000036785              -0.000130874               1.000000000               0.000043484              -0.000145211               1.000000000              -0.000000819              -0.000028348               1.000000000              -0.000002179              -0.000025904               1.000000000              -0.000001996              -0.000027622               1.000000000              -0.000000960              -0.000031832               1.000000000               0.000000352              -0.000037654               1.000000000               0.000001658              -0.000044317               1.000000000               0.000002826              -0.000051424               1.000000000               0.000004403              -0.000059416               1.000000000               0.000006829              -0.000068549               1.000000000               0.000010031              -0.000078711               1.000000000               0.000013883              -0.000090003               1.000000000               0.000018344              -0.000102580               1.000000000               0.000023471              -0.000116328               1.000000000               0.000029224              -0.000131179               1.000000000               0.000035509              -0.000147177               1.000000000               0.000042327              -0.000164123               1.000000000               0.000049486              -0.000181736               1.000000000              -0.000000696              -0.000031474               1.000000000              -0.000002470              -0.000029186               1.000000000              -0.000002422              -0.000030582               1.000000000              -0.000001436              -0.000034403               1.000000000              -0.000000095              -0.000039955               1.000000000               0.000001258              -0.000046583               1.000000000               0.000002347              -0.000053755               1.000000000               0.000003413              -0.000061585               1.000000000               0.000005084              -0.000070351               1.000000000               0.000007415              -0.000080043               1.000000000               0.000010224              -0.000090672               1.000000000               0.000013595              -0.000102334               1.000000000               0.000017459              -0.000115124               1.000000000               0.000021795              -0.000128958               1.000000000               0.000026616              -0.000143811               1.000000000               0.000031889              -0.000159735               1.000000000               0.000037592              -0.000176670               1.000000000              -0.000000634              -0.000034518               1.000000000              -0.000002632              -0.000032498               1.000000000              -0.000002659              -0.000033640               1.000000000              -0.000001846              -0.000037118               1.000000000              -0.000000649              -0.000042371               1.000000000               0.000000660              -0.000048773               1.000000000               0.000001726              -0.000055906               1.000000000               0.000002548              -0.000063688               1.000000000               0.000003630              -0.000072250               1.000000000               0.000005234              -0.000081652               1.000000000               0.000007223              -0.000091851               1.000000000               0.000009656              -0.000102862               1.000000000               0.000012439              -0.000114812               1.000000000               0.000015541              -0.000127743               1.000000000               0.000019006              -0.000141585               1.000000000               0.000022822              -0.000156376               1.000000000               0.000027050              -0.000172089               1.000000000              -0.000000538              -0.000037292               1.000000000              -0.000002558              -0.000035657               1.000000000              -0.000002751              -0.000036746               1.000000000              -0.000002193              -0.000039954               1.000000000              -0.000001171              -0.000044799               1.000000000               0.000000011              -0.000050854               1.000000000               0.000001059              -0.000057835               1.000000000               0.000001831              -0.000065584               1.000000000               0.000002565              -0.000074072               1.000000000               0.000003551              -0.000083344               1.000000000               0.000004860              -0.000093336               1.000000000               0.000006447              -0.000103979               1.000000000               0.000008326              -0.000115339               1.000000000               0.000010412              -0.000127531               1.000000000               0.000012699              -0.000140562               1.000000000               0.000015201              -0.000154391               1.000000000               0.000017972              -0.000169016               1.000000000              -0.000000403              -0.000039698               1.000000000              -0.000002324              -0.000038619               1.000000000              -0.000002669              -0.000039734               1.000000000              -0.000002274              -0.000042660               1.000000000              -0.000001491              -0.000047100               1.000000000              -0.000000523              -0.000052836               1.000000000               0.000000423              -0.000059689               1.000000000               0.000001175              -0.000067377               1.000000000               0.000001722              -0.000075804               1.000000000               0.000002305              -0.000084930               1.000000000               0.000003077              -0.000094787               1.000000000               0.000003997              -0.000105239               1.000000000               0.000005125              -0.000116309               1.000000000               0.000006421              -0.000128036               1.000000000               0.000007785              -0.000140489               1.000000000               0.000009247              -0.000153695               1.000000000               0.000010764              -0.000167654               1.000000000              -0.000000285              -0.000041668               1.000000000              -0.000001927              -0.000041179               1.000000000              -0.000002295              -0.000042332               1.000000000              -0.000002091              -0.000045089               1.000000000              -0.000001578              -0.000049279               1.000000000              -0.000000822              -0.000054738               1.000000000              -0.000000014              -0.000061340               1.000000000               0.000000657              -0.000068859               1.000000000               0.000001069              -0.000077177               1.000000000               0.000001382              -0.000086226               1.000000000               0.000001797              -0.000095985               1.000000000               0.000002280              -0.000106391               1.000000000               0.000002858              -0.000117374               1.000000000               0.000003540              -0.000128854               1.000000000               0.000004273              -0.000140976               1.000000000               0.000005003              -0.000153762               1.000000000               0.000005666              -0.000167218               1.000000000              -0.000000179              -0.000043120               1.000000000              -0.000001363              -0.000043099               1.000000000              -0.000001696              -0.000044372               1.000000000              -0.000001635              -0.000047071               1.000000000              -0.000001302              -0.000051066               1.000000000              -0.000000778              -0.000056323               1.000000000              -0.000000229              -0.000062685               1.000000000               0.000000254              -0.000070013               1.000000000               0.000000579              -0.000078202               1.000000000               0.000000760              -0.000087183               1.000000000               0.000000940              -0.000096881               1.000000000               0.000001151              -0.000107227               1.000000000               0.000001385              -0.000118139               1.000000000               0.000001676              -0.000129507               1.000000000               0.000002025              -0.000141459               1.000000000               0.000002363              -0.000153973               1.000000000               0.000002653              -0.000167037               1.000000000              -0.000000080              -0.000044027               1.000000000              -0.000000706              -0.000044317               1.000000000              -0.000000925              -0.000045682               1.000000000              -0.000000884              -0.000048356               1.000000000              -0.000000719              -0.000052243               1.000000000              -0.000000490              -0.000057348               1.000000000              -0.000000191              -0.000063532               1.000000000               0.000000071              -0.000070746               1.000000000               0.000000242              -0.000078882               1.000000000               0.000000325              -0.000087775               1.000000000               0.000000382              -0.000097382               1.000000000               0.000000449              -0.000107654               1.000000000               0.000000523              -0.000118471               1.000000000               0.000000627              -0.000129777               1.000000000               0.000000761              -0.000141597               1.000000000               0.000000897              -0.000153906               1.000000000               0.000001054              -0.000166751               1.000000000              -0.000000000              -0.000044344               1.000000000              -0.000000000              -0.000044750               1.000000000              -0.000000000              -0.000046127               1.000000000               0.000000000              -0.000048784               1.000000000               0.000000000              -0.000052658               1.000000000              -0.000000000              -0.000057711               1.000000000               0.000000000              -0.000063848               1.000000000               0.000000000              -0.000071007               1.000000000              -0.000000000              -0.000079078               1.000000000              -0.000000000              -0.000087938               1.000000000              -0.000000000              -0.000097541               1.000000000              -0.000000000              -0.000107782               1.000000000              -0.000000000              -0.000118541               1.000000000              -0.000000000              -0.000129815               1.000000000               0.000000000              -0.000141569               1.000000000               0.000000000              -0.000153791               1.000000000              -0.000000000              -0.000166565               1.000000000              -0.000002017               0.000000000               1.000000000              -0.000000575               0.000000000               1.000000000              -0.000000075               0.000000000               1.000000000              -0.000000022               0.000000000               1.000000000              -0.000000055               0.000000000               1.000000000              -0.000000038               0.000000000               1.000000000               0.000000069              -0.000000000               1.000000000               0.000000175              -0.000000000               1.000000000               0.000000166               0.000000000               1.000000000               0.000000041               0.000000000               1.000000000              -0.000000141               0.000000000               1.000000000              -0.000000322               0.000000000               1.000000000              -0.000000425              -0.000000000               1.000000000              -0.000000333              -0.000000000               1.000000000               0.000000051              -0.000000000               1.000000000               0.000000794              -0.000000000               1.000000000               0.000001963              -0.000000000               1.000000000              -0.000001925               0.000003730               1.000000000              -0.000000541               0.000003449               1.000000000              -0.000000099               0.000003443               1.000000000              -0.000000042               0.000003728               1.000000000              -0.000000047               0.000004195               1.000000000               0.000000018               0.000004821               1.000000000               0.000000092               0.000005338               1.000000000               0.000000101               0.000005591               1.000000000               0.000000107               0.000005854               1.000000000               0.000000100               0.000006062               1.000000000               0.000000050               0.000006284               1.000000000               0.000000052               0.000006645               1.000000000               0.000000175               0.000007180               1.000000000               0.000000484               0.000007951               1.000000000               0.000001087               0.000008977               1.000000000               0.000002050               0.000010246               1.000000000               0.000003427               0.000011740               1.000000000              -0.000001817               0.000007470               1.000000000              -0.000000554               0.000006867               1.000000000              -0.000000149               0.000006887               1.000000000              -0.000000062               0.000007415               1.000000000              -0.000000055               0.000008415               1.000000000               0.000000027               0.000009609               1.000000000               0.000000137               0.000010586               1.000000000               0.000000198               0.000011178               1.000000000               0.000000249               0.000011830               1.000000000               0.000000311               0.000012441               1.000000000               0.000000489               0.000013110               1.000000000               0.000000886               0.000014042               1.000000000               0.000001523               0.000015295               1.000000000               0.000002434               0.000016964               1.000000000               0.000003680               0.000019096               1.000000000               0.000005307               0.000021707               1.000000000               0.000007351               0.000024799               1.000000000              -0.000001617               0.000011138               1.000000000              -0.000000553               0.000010202               1.000000000              -0.000000283               0.000010263               1.000000000              -0.000000206               0.000011131               1.000000000              -0.000000061               0.000012619               1.000000000               0.000000133               0.000014356               1.000000000               0.000000271               0.000015825               1.000000000               0.000000325               0.000016905               1.000000000               0.000000445               0.000018162               1.000000000               0.000000799               0.000019458               1.000000000               0.000001453               0.000020992               1.000000000               0.000002481               0.000022891               1.000000000               0.000003925               0.000025239               1.000000000               0.000005747               0.000028137               1.000000000               0.000007977               0.000031645               1.000000000               0.000010633               0.000035816               1.000000000               0.000013694               0.000040701               1.000000000              -0.000001351               0.000014721               1.000000000              -0.000000648               0.000013438               1.000000000              -0.000000540               0.000013590               1.000000000              -0.000000394               0.000014914               1.000000000              -0.000000090               0.000016902               1.000000000               0.000000210               0.000019261               1.000000000               0.000000516               0.000021228               1.000000000               0.000000829               0.000023041               1.000000000               0.000001318               0.000025146               1.000000000               0.000002118               0.000027561               1.000000000               0.000003322               0.000030389               1.000000000               0.000005061               0.000033780               1.000000000               0.000007306               0.000037776               1.000000000               0.000010022               0.000042435               1.000000000               0.000013244               0.000047795               1.000000000               0.000016941               0.000053900               1.000000000               0.000021060               0.000060779               1.000000000              -0.000001170               0.000018280               1.000000000              -0.000000900               0.000016623               1.000000000              -0.000000875               0.000016943               1.000000000              -0.000000636               0.000018770               1.000000000              -0.000000140               0.000021451               1.000000000               0.000000469               0.000024455               1.000000000               0.000001015               0.000027261               1.000000000               0.000001555               0.000030143               1.000000000               0.000002433               0.000033509               1.000000000               0.000003785               0.000037463               1.000000000               0.000005707               0.000041989               1.000000000               0.000008227               0.000047273               1.000000000               0.000011289               0.000053307               1.000000000               0.000014878               0.000060121               1.000000000               0.000018999               0.000067729               1.000000000               0.000023624               0.000076100               1.000000000               0.000028688               0.000085225               1.000000000              -0.000000987               0.000021765               1.000000000              -0.000001248               0.000019722               1.000000000              -0.000001317               0.000020397               1.000000000              -0.000000825               0.000022811               1.000000000              -0.000000037               0.000026293               1.000000000               0.000000724               0.000030323               1.000000000               0.000001430               0.000034385               1.000000000               0.000002316               0.000038632               1.000000000               0.000003702               0.000043714               1.000000000               0.000005703               0.000049481               1.000000000               0.000008363               0.000056052               1.000000000               0.000011684               0.000063466               1.000000000               0.000015539               0.000071786               1.000000000               0.000019943               0.000080973               1.000000000               0.000024919               0.000090981               1.000000000               0.000030378               0.000101784               1.000000000               0.000036283               0.000113314               1.000000000              -0.000000882               0.000025160               1.000000000              -0.000001705               0.000022793               1.000000000              -0.000001689               0.000023922               1.000000000              -0.000000960               0.000027179               1.000000000               0.000000040               0.000031727               1.000000000               0.000001063               0.000037009               1.000000000               0.000002081               0.000042452               1.000000000               0.000003360               0.000048438               1.000000000               0.000005248               0.000055500               1.000000000               0.000007869               0.000063355               1.000000000               0.000011193               0.000072137               1.000000000               0.000015145               0.000081997               1.000000000               0.000019675               0.000092818               1.000000000               0.000024839               0.000104620               1.000000000               0.000030557               0.000117327               1.000000000               0.000036785               0.000130874               1.000000000               0.000043484               0.000145211               1.000000000              -0.000000819               0.000028348               1.000000000              -0.000002179               0.000025904               1.000000000              -0.000001996               0.000027622               1.000000000              -0.000000960               0.000031832               1.000000000               0.000000352               0.000037654               1.000000000               0.000001658               0.000044317               1.000000000               0.000002826               0.000051424               1.000000000               0.000004403               0.000059416               1.000000000               0.000006829               0.000068549               1.000000000               0.000010031               0.000078711               1.000000000               0.000013883               0.000090003               1.000000000               0.000018344               0.000102580               1.000000000               0.000023471               0.000116328               1.000000000               0.000029224               0.000131179               1.000000000               0.000035509               0.000147177               1.000000000               0.000042327               0.000164123               1.000000000               0.000049486               0.000181736               1.000000000              -0.000000696               0.000031474               1.000000000              -0.000002470               0.000029186               1.000000000              -0.000002422               0.000030582               1.000000000              -0.000001436               0.000034403               1.000000000              -0.000000095               0.000039955               1.000000000               0.000001258               0.000046583               1.000000000               0.000002347               0.000053755               1.000000000               0.000003413               0.000061585               1.000000000               0.000005084               0.000070351               1.000000000               0.000007415               0.000080043               1.000000000               0.000010224               0.000090672               1.000000000               0.000013595               0.000102334               1.000000000               0.000017459               0.000115124               1.000000000               0.000021795               0.000128958               1.000000000               0.000026616               0.000143811               1.000000000               0.000031889               0.000159735               1.000000000               0.000037592               0.000176670               1.000000000              -0.000000634               0.000034518               1.000000000              -0.000002632               0.000032498               1.000000000              -0.000002659               0.000033640               1.000000000              -0.000001846               0.000037118               1.000000000              -0.000000649               0.000042371               1.000000000               0.000000660               0.000048773               1.000000000               0.000001726               0.000055906               1.000000000               0.000002548               0.000063688               1.000000000               0.000003630               0.000072250               1.000000000               0.000005234               0.000081652               1.000000000               0.000007223               0.000091851               1.000000000               0.000009656               0.000102862               1.000000000               0.000012439               0.000114812               1.000000000               0.000015541               0.000127743               1.000000000               0.000019006               0.000141585               1.000000000               0.000022822               0.000156376               1.000000000               0.000027050               0.000172089               1.000000000              -0.000000538               0.000037292               1.000000000              -0.000002558               0.000035657               1.000000000              -0.000002751               0.000036746               1.000000000              -0.000002193               0.000039954               1.000000000              -0.000001171               0.000044799               1.000000000               0.000000011               0.000050854               1.000000000               0.000001059               0.000057835               1.000000000               0.000001831               0.000065584               1.000000000               0.000002565               0.000074072               1.000000000               0.000003551               0.000083344               1.000000000               0.000004860               0.000093336               1.000000000               0.000006447               0.000103979               1.000000000               0.000008326               0.000115339               1.000000000               0.000010412               0.000127531               1.000000000               0.000012699               0.000140562               1.000000000               0.000015201               0.000154391               1.000000000               0.000017972               0.000169016               1.000000000              -0.000000403               0.000039698               1.000000000              -0.000002324               0.000038619               1.000000000              -0.000002669               0.000039734               1.000000000              -0.000002274               0.000042660               1.000000000              -0.000001491               0.000047100               1.000000000              -0.000000523               0.000052836               1.000000000               0.000000423               0.000059689               1.000000000               0.000001175               0.000067377               1.000000000               0.000001722               0.000075804               1.000000000               0.000002305               0.000084930               1.000000000               0.000003077               0.000094787               1.000000000               0.000003997               0.000105239               1.000000000               0.000005125               0.000116309               1.000000000               0.000006421               0.000128036               1.000000000               0.000007785               0.000140489               1.000000000               0.000009247               0.000153695               1.000000000               0.000010764               0.000167654               1.000000000              -0.000000285               0.000041668               1.000000000              -0.000001927               0.000041179               1.000000000              -0.000002295               0.000042332               1.000000000              -0.000002091               0.000045089               1.000000000              -0.000001578               0.000049279               1.000000000              -0.000000822               0.000054738               1.000000000              -0.000000014               0.000061340               1.000000000               0.000000657               0.000068859               1.000000000               0.000001069               0.000077177               1.000000000               0.000001382               0.000086226               1.000000000               0.000001797               0.000095985               1.000000000               0.000002280               0.000106391               1.000000000               0.000002858               0.000117374               1.000000000               0.000003540               0.000128854               1.000000000               0.000004273               0.000140976               1.000000000               0.000005003               0.000153762               1.000000000               0.000005666               0.000167218               1.000000000              -0.000000179               0.000043120               1.000000000              -0.000001363               0.000043099               1.000000000              -0.000001696               0.000044372               1.000000000              -0.000001635               0.000047071               1.000000000              -0.000001302               0.000051066               1.000000000              -0.000000778               0.000056323               1.000000000              -0.000000229               0.000062685               1.000000000               0.000000254               0.000070013               1.000000000               0.000000579               0.000078202               1.000000000               0.000000760               0.000087183               1.000000000               0.000000940               0.000096881               1.000000000               0.000001151               0.000107227               1.000000000               0.000001385               0.000118139               1.000000000               0.000001676               0.000129507               1.000000000               0.000002025               0.000141459               1.000000000               0.000002363               0.000153973               1.000000000               0.000002653               0.000167037               1.000000000              -0.000000080               0.000044027               1.000000000              -0.000000706               0.000044317               1.000000000              -0.000000925               0.000045682               1.000000000              -0.000000884               0.000048356               1.000000000              -0.000000719               0.000052243               1.000000000              -0.000000490               0.000057348               1.000000000              -0.000000191               0.000063532               1.000000000               0.000000071               0.000070746               1.000000000               0.000000242               0.000078882               1.000000000               0.000000325               0.000087775               1.000000000               0.000000382               0.000097382               1.000000000               0.000000449               0.000107654               1.000000000               0.000000523               0.000118471               1.000000000               0.000000627               0.000129777               1.000000000               0.000000761               0.000141597               1.000000000               0.000000897               0.000153906               1.000000000               0.000001054               0.000166751               1.000000000              -0.000000000               0.000044344               1.000000000              -0.000000000               0.000044750               1.000000000               0.000000000               0.000046127               1.000000000               0.000000000               0.000048784               1.000000000               0.000000000               0.000052658               1.000000000               0.000000000               0.000057711               1.000000000               0.000000000               0.000063848               1.000000000              -0.000000000               0.000071007               1.000000000              -0.000000000               0.000079078               1.000000000              -0.000000000               0.000087938               1.000000000              -0.000000000               0.000097541               1.000000000              -0.000000000               0.000107782               1.000000000              -0.000000000               0.000118541               1.000000000              -0.000000000               0.000129815               1.000000000               0.000000000               0.000141569               1.000000000              -0.000000000               0.000153791               1.000000000              -0.000000000               0.000166565               1.000000000 </DataArray>
<DataArray type="Float64"                                    Name="defo"                                                      NumberOfComponents=" 3" format="ascii">
              0.000002017               0.000000000               1.000000000               0.000000575               0.000000000               1.000000000               0.000000075               0.000000000               1.000000000               0.000000022               0.000000000               1.000000000               0.000000055               0.000000000               1.000000000               0.000000038               0.000000000               1.000000000              -0.000000069               0.000000000               1.000000000              -0.000000175               0.000000000               1.000000000              -0.000000166               0.000000000               1.000000000              -0.000000041               0.000000000               1.000000000               0.000000141               0.000000000               1.000000000               0.000000322               0.000000000               1.000000000               0.000000425               0.000000000               1.000000000               0.000000333               0.000000000               1.000000000              -0.000000051               0.000000000               1.000000000              -0.000000794               0.000000000               1.000000000              -0.000001963               0.000000000               1.000000000               0.000001925               0.000003730               1.000000000               0.000000541               0.000003449               1.000000000               0.000000099               0.000003443               1.000000000               0.000000042               0.000003728               1.000000000               0.000000047               0.000004195               1.000000000              -0.000000018               0.000004821               1.000000000              -0.000000092               0.000005338               1.000000000              -0.000000101               0.000005591               1.000000000              -0.000000107               0.000005854               1.000000000              -0.000000100               0.000006062               1.000000000              -0.000000050               0.000006284               1.000000000              -0.000000052               0.000006645               1.000000000              -0.000000175               0.000007180               1.000000000              -0.000000484               0.000007951               1.000000000              -0.000001087               0.000008977               1.000000000              -0.000002050               0.000010246               1.000000000              -0.000003427               0.000011740               1.000000000               0.000001817               0.000007470               1.000000000               0.000000554               0.000006867               1.000000000               0.000000149               0.000006887               1.000000000               0.000000062               0.000007415               1.000000000               0.000000055               0.000008415               1.000000000              -0.000000027               0.000009609               1.000000000              -0.000000137               0.000010586               1.000000000              -0.000000198               0.000011178               1.000000000              -0.000000249               0.000011830               1.000000000              -0.000000311               0.000012441               1.000000000              -0.000000489               0.000013110               1.000000000              -0.000000886               0.000014042               1.000000000              -0.000001523               0.000015295               1.000000000              -0.000002434               0.000016964               1.000000000              -0.000003680               0.000019096               1.000000000              -0.000005307               0.000021707               1.000000000              -0.000007351               0.000024799               1.000000000               0.000001617               0.000011138               1.000000000               0.000000553               0.000010202               1.000000000               0.000000283               0.000010263               1.000000000               0.000000206               0.000011131               1.000000000               0.000000061               0.000012619               1.000000000              -0.000000133               0.000014356               1.000000000              -0.000000271               0.000015825               1.000000000              -0.000000325               0.000016905               1.000000000              -0.000000445               0.000018162               1.000000000              -0.000000799               0.000019458               1.000000000              -0.000001453               0.000020992               1.000000000              -0.000002481               0.000022891               1.000000000              -0.000003925               0.000025239               1.000000000              -0.000005747               0.000028137               1.000000000              -0.000007977               0.000031645               1.000000000              -0.000010633               0.000035816               1.000000000              -0.000013694               0.000040701               1.000000000               0.000001351               0.000014721               1.000000000               0.000000648               0.000013438               1.000000000               0.000000540               0.000013590               1.000000000               0.000000394               0.000014914               1.000000000               0.000000090               0.000016902               1.000000000              -0.000000210               0.000019261               1.000000000              -0.000000516               0.000021228               1.000000000              -0.000000829               0.000023041               1.000000000              -0.000001318               0.000025146               1.000000000              -0.000002118               0.000027561               1.000000000              -0.000003322               0.000030389               1.000000000              -0.000005061               0.000033780               1.000000000              -0.000007306               0.000037776               1.000000000              -0.000010022               0.000042435               1.000000000              -0.000013244               0.000047795               1.000000000              -0.000016941               0.000053900               1.000000000              -0.000021060               0.000060779               1.000000000               0.000001170               0.000018280               1.000000000               0.000000900               0.000016623               1.000000000               0.000000875               0.000016943               1.000000000               0.000000636               0.000018770               1.000000000               0.000000140               0.000021451               1.000000000              -0.000000469               0.000024455               1.000000000              -0.000001015               0.000027261               1.000000000              -0.000001555               0.000030143               1.000000000              -0.000002433               0.000033509               1.000000000              -0.000003785               0.000037463               1.000000000              -0.000005707               0.000041989               1.000000000              -0.000008227               0.000047273               1.000000000              -0.000011289               0.000053307               1.000000000              -0.000014878               0.000060121               1.000000000              -0.000018999               0.000067729               1.000000000              -0.000023624               0.000076100               1.000000000              -0.000028688               0.000085225               1.000000000               0.000000987               0.000021765               1.000000000               0.000001248               0.000019722               1.000000000               0.000001317               0.000020397               1.000000000               0.000000825               0.000022811               1.000000000               0.000000037               0.000026293               1.000000000              -0.000000724               0.000030323               1.000000000              -0.000001430               0.000034385               1.000000000              -0.000002316               0.000038632               1.000000000              -0.000003702               0.000043714               1.000000000              -0.000005703               0.000049481               1.000000000              -0.000008363               0.000056052               1.000000000              -0.000011684               0.000063466               1.000000000              -0.000015539               0.000071786               1.000000000              -0.000019943               0.000080973               1.000000000              -0.000024919               0.000090981               1.000000000              -0.000030378               0.000101784               1.000000000              -0.000036283               0.000113314               1.000000000               0.000000882               0.000025160               1.000000000               0.000001705               0.000022793               1.000000000               0.000001689               0.000023922               1.000000000               0.000000960               0.000027179               1.000000000              -0.000000040               0.000031727               1.000000000              -0.000001063               0.000037009               1.000000000              -0.000002081               0.000042452               1.000000000              -0.000003360               0.000048438               1.000000000              -0.000005248               0.000055500               1.000000000              -0.000007869               0.000063355               1.000000000              -0.000011193               0.000072137               1.000000000              -0.000015145               0.000081997               1.000000000              -0.000019675               0.000092818               1.000000000              -0.000024839               0.000104620               1.000000000              -0.000030557               0.000117327               1.000000000              -0.000036785               0.000130874               1.000000000              -0.000043484               0.000145211               1.000000000               0.000000819               0.000028348               1.000000000               0.000002179               0.000025904               1.000000000               0.000001996               0.000027622               1.000000000               0.000000960               0.000031832               1.000000000              -0.000000352               0.000037654               1.000000000              -0.000001658               0.000044317               1.000000000              -0.000002826               0.000051424               1.000000000              -0.000004403               0.000059416               1.000000000              -0.000006829               0.000068549               1.000000000              -0.000010031               0.000078711               1.000000000              -0.000013883               0.000090003               1.000000000              -0.000018344               0.000102580               1.000000000              -0.000023471               0.000116328               1.000000000              -0.000029224               0.000131179               1.000000000              -0.000035509               0.000147177               1.000000000              -0.000042327               0.000164123               1.000000000              -0.000049486               0.000181736               1.000000000               0.000000696               0.000031474               1.000000000               0.000002470               0.000029186               1.000000000               0.000002422               0.000030582               1.000000000               0.000001436               0.000034403               1.000000000               0.000000095               0.000039955               1.000000000              -0.000001258               0.000046583               1.000000000              -0.000002347               0.000053755               1.000000000              -0.000003413               0.000061585               1.000000000              -0.000005084               0.000070351               1.000000000              -0.000007415               0.000080043               1.000000000              -0.000010224               0.000090672               1.000000000              -0.000013595               0.000102334               1.000000000              -0.000017459               0.000115124               1.000000000              -0.000021795               0.000128958               1.000000000              -0.000026616               0.000143811               1.000000000              -0.000031889               0.000159735               1.000000000              -0.000037592               0.000176670               1.000000000               0.000000634               0.000034518               1.000000000               0.000002632               0.000032498               1.000000000               0.000002659               0.000033640               1.000000000               0.000001846               0.000037118               1.000000000               0.000000649               0.000042371               1.000000000              -0.000000660               0.000048773               1.000000000              -0.000001726               0.000055906               1.000000000              -0.000002548               0.000063688               1.000000000              -0.000003630               0.000072250               1.000000000              -0.000005234               0.000081652               1.000000000              -0.000007223               0.000091851               1.000000000              -0.000009656               0.000102862               1.000000000              -0.000012439               0.000114812               1.000000000              -0.000015541               0.000127743               1.000000000              -0.000019006               0.000141585               1.000000000              -0.000022822               0.000156376               1.000000000              -0.000027050               0.000172089               1.000000000               0.000000538               0.000037292               1.000000000               0.000002558               0.000035657               1.000000000               0.000002751               0.000036746               1.000000000               0.000002193               0.000039954               1.000000000               0.000001171               0.000044799               1.000000000              -0.000000011               0.000050854               1.000000000              -0.000001059               0.000057835               1.000000000              -0.000001831               0.000065584               1.000000000              -0.000002565               0.000074072               1.000000000              -0.000003551               0.000083344               1.000000000              -0.000004860               0.000093336               1.000000000              -0.000006447               0.000103979               1.000000000              -0.000008326               0.000115339               1.000000000              -0.000010412               0.000127531               1.000000000              -0.000012699               0.000140562               1.000000000              -0.000015201               0.000154391               1.000000000              -0.000017972               0.000169016               1.000000000               0.000000403               0.000039698               1.000000000               0.000002324               0.000038619               1.000000000               0.000002669               0.000039734               1.000000000               0.000002274               0.000042660               1.000000000               0.000001491               0.000047100               1.000000000               0.000000523               0.000052836               1.000000000              -0.000000423               0.000059689               1.000000000              -0.000001175               0.000067377               1.000000000              -0.000001722               0.000075804               1.000000000              -0.000002305               0.000084930               1.000000000              -0.000003077               0.000094787               1.000000000              -0.000003997               0.000105239               1.000000000              -0.000005125               0.000116309               1.000000000              -0.000006421               0.000128036               1.000000000              -0.000007785               0.000140489               1.000000000              -0.000009247               0.000153695               1.000000000              -0.000010764               0.000167654               1.000000000               0.000000285               0.000041668               1.000000000               0.000001927               0.000041179               1.000000000               0.000002295               0.000042332               1.000000000               0.000002091               0.000045089               1.000000000               0.000001578               0.000049279               1.000000000               0.000000822               0.000054738               1.000000000               0.000000014               0.000061340               1.000000000              -0.000000657               0.000068859               1.000000000              -0.000001069               0.000077177               1.000000000              -0.000001382               0.000086226               1.000000000              -0.000001797               0.000095985               1.000000000              -0.000002280               0.000106391               1.000000000              -0.000002858               0.000117374               1.000000000              -0.000003540               0.000128854               1.000000000              -0.000004273               0.000140976               1.000000000              -0.000005003               0.000153762               1.000000000              -0.000005666               0.000167218               1.000000000               0.000000179               0.000043120               1.000000000               0.000001363               0.000043099               1.000000000               0.000001696               0.000044372               1.000000000               0.000001635               0.000047071               1.000000000               0.000001302               0.000051066               1.000000000               0.000000778               0.000056323               1.000000000               0.000000229               0.000062685               1.000000000              -0.000000254               0.000070013               1.000000000              -0.000000579               0.000078202               1.000000000              -0.000000760               0.000087183               1.000000000              -0.000000940               0.000096881               1.000000000              -0.000001151               0.000107227               1.000000000              -0.000001385               0.000118139               1.000000000              -0.000001676               0.000129507               1.000000000              -0.000002025               0.000141459               1.000000000              -0.000002363               0.000153973               1.000000000              -0.000002653               0.000167037               1.000000000               0.000000080               0.000044027               1.000000000               0.000000706               0.000044317               1.000000000               0.000000925               0.000045682               1.000000000               0.000000884               0.000048356               1.000000000               0.000000719               0.000052243               1.000000000               0.000000490               0.000057348               1.000000000               0.000000191               0.000063532               1.000000000              -0.000000071               0.000070746               1.000000000              -0.000000242               0.000078882               1.000000000              -0.000000325               0.000087775               1.000000000              -0.000000382               0.000097382               1.000000000              -0.000000449               0.000107654               1.000000000              -0.000000523               0.000118471               1.000000000              -0.000000627               0.000129777               1.000000000              -0.000000761               0.000141597               1.000000000              -0.000000897               0.000153906               1.000000000              -0.000001054               0.000166751               1.000000000              -0.000000000               0.000044344               1.000000000              -0.000000000               0.000044750               1.000000000               0.000000000               0.000046127               1.000000000               0.000000000               0.000048784               1.000000000               0.000000000               0.000052658               1.000000000               0.000000000               0.000057711               1.000000000               0.000000000               0.000063848               1.000000000              -0.000000000               0.000071007               1.000000000              -0.000000000               0.000079078               1.000000000              -0.000000000               0.000087938               1.000000000              -0.000000000               0.000097541               1.000000000              -0.000000000               0.000107782               1.000000000              -0.000000000               0.000118541               1.000000000              -0.000000000               0.000129815               1.000000000               0.000000000               0.000141569               1.000000000              -0.000000000               0.000153791               1.000000000              -0.000000000               0.000166565               1.000000000               0.000002017               0.000000000               1.000000000               0.000000575               0.000000000               1.000000000               0.000000075               0.000000000               1.000000000               0.000000022               0.000000000               1.000000000               0.000000055               0.000000000               1.000000000               0.000000038               0.000000000               1.000000000              -0.000000069               0.000000000               1.000000000              -0.000000175               0.000000000               1.000000000              -0.000000166               0.000000000               1.000000000              -0.000000041               0.000000000               1.000000000               0.000000141               0.000000000               1.000000000               0.000000322               0.000000000               1.000000000               0.000000425               0.000000000               1.000000000               0.000000333               0.000000000               1.000000000              -0.000000051               0.000000000               1.000000000              -0.000000794               0.000000000               1.000000000              -0.000001963               0.000000000               1.000000000               0.000001925              -0.000003730               1.000000000               0.000000541              -0.000003449               1.000000000               0.000000099              -0.000003443               1.000000000               0.000000042              -0.000003728               1.000000000               0.000000047              -0.000004195               1.000000000              -0.000000018              -0.000004821               1.000000000              -0.000000092              -0.000005338               1.000000000              -0.000000101              -0.000005591               1.000000000              -0.000000107              -0.000005854               1.000000000              -0.000000100              -0.000006062               1.000000000              -0.000000050              -0.000006284               1.000000000              -0.000000052              -0.000006645               1.000000000              -0.000000175              -0.000007180               1.000000000              -0.000000484              -0.000007951               1.000000000              -0.000001087              -0.000008977               1.000000000              -0.000002050              -0.000010246               1.000000000              -0.000003427              -0.000011740               1.000000000               0.000001817              -0.000007470               1.000000000               0.000000554              -0.000006867               1.000000000               0.000000149              -0.000006887               1.000000000               0.000000062              -0.000007415               1.000000000               0.000000055              -0.000008415               1.000000000              -0.000000027              -0.000009609               1.000000000              -0.000000137              -0.000010586               1.000000000              -0.000000198              -0.000011178               1.000000000              -0.000000249              -0.000011830               1.000000000              -0.000000311              -0.000012441               1.000000000              -0.000000489              -0.000013110               1.000000000              -0.000000886              -0.000014042               1.000000000              -0.000001523              -0.000015295               1.000000000              -0.000002434              -0.000016964               1.000000000              -0.000003680              -0.000019096               1.000000000              -0.000005307              -0.000021707               1.000000000              -0.000007351              -0.000024799               1.000000000               0.000001617              -0.000011138               1.000000000               0.000000553              -0.000010202               1.000000000               0.000000283              -0.000010263               1.000000000               0.000000206              -0.000011131               1.000000000               0.000000061              -0.000012619               1.000000000              -0.000000133              -0.000014356               1.000000000              -0.000000271              -0.000015825               1.000000000              -0.000000325              -0.000016905               1.000000000              -0.000000445              -0.000018162               1.000000000              -0.000000799              -0.000019458               1.000000000              -0.000001453              -0.000020992               1.000000000              -0.000002481              -0.000022891               1.000000000              -0.000003925              -0.000025239               1.000000000              -0.000005747              -0.000028137               1.000000000              -0.000007977              -0.000031645               1.000000000              -0.000010633              -0.000035816               1.000000000              -0.000013694              -0.000040701               1.000000000               0.000001351              -0.000014721               1.000000000               0.000000648              -0.000013438               1.000000000               0.000000540              -0.000013590               1.000000000               0.000000394              -0.000014914               1.000000000               0.000000090              -0.000016902               1.000000000              -0.000000210              -0.000019261               1.000000000              -0.000000516              -0.000021228               1.000000000              -0.000000829              -0.000023041               1.000000000              -0.000001318              -0.000025146               1.000000000              -0.000002118              -0.000027561               1.000000000              -0.000003322              -0.000030389               1.000000000              -0.000005061              -0.000033780               1.000000000              -0.000007306              -0.000037776               1.000000000              -0.000010022              -0.000042435               1.000000000              -0.000013244              -0.000047795               1.000000000              -0.000016941              -0.000053900               1.000000000              -0.000021060              -0.000060779               1.000000000               0.000001170              -0.000018280               1.000000000               0.000000900              -0.000016623               1.000000000               0.000000875              -0.000016943               1.000000000               0.000000636              -0.000018770               1.000000000               0.000000140              -0.000021451               1.000000000              -0.000000469              -0.000024455               1.000000000              -0.000001015              -0.000027261               1.000000000              -0.000001555              -0.000030143               1.000000000              -0.000002433              -0.000033509               1.000000000              -0.000003785              -0.000037463               1.000000000              -0.000005707              -0.000041989               1.000000000              -0.000008227              -0.000047273               1.000000000              -0.000011289              -0.000053307               1.000000000              -0.000014878              -0.000060121               1.000000000              -0.000018999              -0.000067729               1.000000000              -0.000023624              -0.000076100               1.000000000              -0.000028688              -0.000085225               1.000000000               0.000000987              -0.000021765               1.000000000               0.000001248              -0.000019722               1.000000000               0.000001317              -0.000020397               1.000000000               0.000000825              -0.000022811               1.000000000               0.000000037              -0.000026293               1.000000000              -0.000000724              -0.000030323               1.000000000              -0.000001430              -0.000034385               1.000000000              -0.000002316              -0.000038632               1.000000000              -0.000003702              -0.000043714               1.000000000              -0.000005703              -0.000049481               1.000000000              -0.000008363              -0.000056052               1.000000000              -0.000011684              -0.000063466               1.000000000              -0.000015539              -0.000071786               1.000000000              -0.000019943              -0.000080973               1.000000000              -0.000024919              -0.000090981               1.000000000              -0.000030378              -0.000101784               1.000000000              -0.000036283              -0.000113314               1.000000000               0.000000882              -0.000025160               1.000000000               0.000001705              -0.000022793               1.000000000               0.000001689              -0.000023922               1.000000000               0.000000960              -0.000027179               1.000000000              -0.000000040              -0.000031727               1.000000000              -0.000001063              -0.000037009               1.000000000              -0.000002081              -0.000042452               1.000000000              -0.000003360              -0.000048438               1.000000000              -0.000005248              -0.000055500               1.000000000              -0.000007869              -0.000063355               1.000000000              -0.000011193              -0.000072137               1.000000000              -0.000015145              -0.000081997               1.000000000              -0.000019675              -0.000092818               1.000000000              -0.000024839              -0.000104620               1.000000000              -0.000030557              -0.000117327               1.000000000              -0.000036785              -0.000130874               1.000000000              -0.000043484              -0.000145211               1.000000000               0.000000819              -0.000028348               1.000000000               0.000002179              -0.000025904               1.000000000               0.000001996              -0.000027622               1.000000000               0.000000960              -0.000031832               1.000000000              -0.000000352              -0.000037654               1.000000000              -0.000001658              -0.000044317               1.000000000              -0.000002826              -0.000051424               1.000000000              -0.000004403              -0.000059416               1.000000000              -0.000006829              -0.000068549               1.000000000              -0.000010031              -0.000078711               1.000000000              -0.000013883              -0.000090003               1.000000000              -0.000018344              -0.000102580               1.000000000              -0.000023471              -0.000116328               1.000000000              -0.000029224              -0.000131179               1.000000000              -0.000035509              -0.000147177               1.000000000              -0.000042327              -0.000164123               1.000000000              -0.000049486              -0.000181736               1.000000000               0.000000696              -0.000031474               1.000000000               0.000002470              -0.000029186               1.000000000               0.000002422              -0.000030582               1.000000000               0.000001436              -0.000034403               1.000000000               0.000000095              -0.000039955               1.000000000              -0.000001258              -0.000046583               1.000000000              -0.000002347              -0.000053755               1.000000000              -0.000003413              -0.000061585               1.000000000              -0.000005084              -0.000070351               1.000000000              -0.000007415              -0.000080043               1.000000000              -0.000010224              -0.000090672               1.000000000              -0.000013595              -0.000102334               1.000000000              -0.000017459              -0.000115124               1.000000000              -0.000021795              -0.000128958               1.000000000              -0.000026616              -0.000143811               1.000000000              -0.000031889              -0.000159735               1.000000000              -0.000037592              -0.000176670               1.000000000               0.000000634              -0.000034518               1.000000000               0.000002632              -0.000032498               1.000000000               0.000002659              -0.000033640               1.000000000               0.000001846              -0.000037118               1.000000000               0.000000649              -0.000042371               1.000000000              -0.000000660              -0.000048773               1.000000000              -0.000001726              -0.000055906               1.000000000              -0.000002548              -0.000063688               1.000000000              -0.000003630              -0.000072250               1.000000000              -0.000005234              -0.000081652               1.000000000              -0.000007223              -0.000091851               1.000000000              -0.000009656              -0.000102862               1.000000000              -0.000012439              -0.000114812               1.000000000              -0.000015541              -0.000127743               1.000000000              -0.000019006              -0.000141585               1.000000000              -0.000022822              -0.000156376               1.000000000              -0.000027050              -0.000172089               1.000000000               0.000000538              -0.000037292               1.000000000               0.000002558              -0.000035657               1.000000000               0.000002751              -0.000036746               1.000000000               0.000002193              -0.000039954               1.000000000               0.000001171              -0.000044799               1.000000000              -0.000000011              -0.000050854               1.000000000              -0.000001059              -0.000057835               1.000000000              -0.000001831              -0.000065584               1.000000000              -0.000002565              -0.000074072               1.000000000              -0.000003551              -0.000083344               1.000000000              -0.000004860              -0.000093336               1.000000000              -0.000006447              -0.000103979               1.000000000              -0.000008326              -0.000115339               1.000000000              -0.000010412              -0.000127531               1.000000000              -0.000012699              -0.000140562               1.000000000              -0.000015201              -0.000154391               1.000000000              -0.000017972              -0.000169016               1.000000000               0.000000403              -0.000039698               1.000000000               0.000002324              -0.000038619               1.000000000               0.000002669              -0.000039734               1.000000000               0.000002274              -0.000042660               1.000000000               0.000001491              -0.000047100               1.000000000               0.000000523              -0.000052836               1.000000000              -0.000000423              -0.000059689               1.000000000              -0.000001175              -0.000067377               1.000000000              -0.000001722              -0.000075804               1.000000000              -0.000002305              -0.000084930               1.000000000              -0.000003077              -0.000094787               1.000000000              -0.000003997              -0.000105239               1.000000000              -0.000005125              -0.000116309               1.000000000              -0.000006421              -0.000128036               1.000000000              -0.000007785              -0.000140489               1.000000000              -0.000009247              -0.000153695               1.000000000              -0.000010764              -0.000167654               1.000000000               0.000000285              -0.000041668               1.000000000               0.000001927              -0.000041179               1.000000000               0.000002295              -0.000042332               1.000000000               0.000002091              -0.000045089               1.000000000               0.000001578              -0.000049279               1.000000000               0.000000822              -0.000054738               1.000000000               0.000000014              -0.000061340               1.000000000              -0.000000657              -0.000068859               1.000000000              -0.000001069              -0.000077177               1.000000000              -0.000001382              -0.000086226               1.000000000              -0.000001797              -0.000095985               1.000000000              -0.000002280              -0.000106391               1.000000000              -0.000002858              -0.000117374               1.000000000              -0.000003540              -0.000128854               1.000000000              -0.000004273              -0.000140976               1.000000000              -0.000005003              -0.000153762               1.000000000              -0.000005666              -0.000167218               1.000000000               0.000000179              -0.000043120               1.000000000               0.000001363              -0.000043099               1.000000000               0.000001696              -0.000044372               1.000000000               0.000001635              -0.000047071               1.000000000               0.000001302              -0.000051066               1.000000000               0.000000778              -0.000056323               1.000000000               0.000000229              -0.000062685               1.000000000              -0.000000254              -0.000070013               1.000000000              -0.000000579              -0.000078202               1.000000000              -0.000000760              -0.000087183               1.000000000              -0.000000940              -0.000096881               1.000000000              -0.000001151              -0.000107227               1.000000000              -0.000001385              -0.000118139               1.000000000              -0.000001676              -0.000129507               1.000000000              -0.000002025              -0.000141459               1.000000000              -0.000002363              -0.000153973               1.000000000              -0.000002653              -0.000167037               1.000000000               0.000000080              -0.000044027               1.000000000               0.000000706              -0.000044317               1.000000000               0.000000925              -0.000045682               1.000000000               0.000000884              -0.000048356               1.000000000               0.000000719              -0.000052243               1.000000000               0.000000490              -0.000057348               1.000000000               0.000000191              -0.000063532               1.000000000              -0.000000071              -0.000070746               1.000000000              -0.000000242              -0.000078882               1.000000000              -0.000000325              -0.000087775               1.000000000              -0.000000382              -0.000097382               1.000000000              -0.000000449              -0.000107654               1.000000000              -0.000000523              -0.000118471               1.000000000              -0.000000627              -0.000129777               1.000000000              -0.000000761              -0.000141597               1.000000000              -0.000000897              -0.000153906               1.000000000              -0.000001054              -0.000166751               1.000000000              -0.000000000              -0.000044344               1.000000000              -0.000000000              -0.000044750               1.000000000              -0.000000000              -0.000046127               1.000000000               0.000000000              -0.000048784               1.000000000               0.000000000              -0.000052658               1.000000000              -0.000000000              -0.000057711               1.000000000               0.000000000              -0.000063848               1.000000000               0.000000000              -0.000071007               1.000000000              -0.000000000              -0.000079078               1.000000000              -0.000000000              -0.000087938               1.000000000              -0.000000000              -0.000097541               1.000000000              -0.000000000              -0.000107782               1.000000000              -0.000000000              -0.000118541               1.000000000              -0.000000000              -0.000129815               1.000000000               0.000000000              -0.000141569               1.000000000               0.000000000              -0.000153791               1.000000000              -0.000000000              -0.000166565               1.000000000              -0.000002017               0.000000000               1.000000000              -0.000000575               0.000000000               1.000000000              -0.000000075               0.000000000               1.000000000              -0.000000022               0.000000000               1.000000000              -0.000000055               0.000000000               1.000000000              -0.000000038               0.000000000               1.000000000               0.000000069              -0.000000000               1.000000000               0.000000175              -0.000000000               1.000000000               0.000000166               0.000000000               1.000000000               0.000000041               0.000000000               1.000000000              -0.000000141               0.000000000               1.000000000              -0.000000322               0.000000000               1.000000000              -0.000000425              -0.000000000               1.000000000              -0.000000333              -0.000000000               1.000000000               0.000000051              -0.000000000               1.000000000               0.000000794              -0.000000000               1.000000000               0.000001963              -0.000000000               1.000000000              -0.000001925              -0.000003730               1.000000000              -0.000000541              -0.000003449               1.000000000              -0.000000099              -0.000003443               1.000000000              -0.000000042              -0.000003728               1.000000000              -0.000000047              -0.000004195               1.000000000               0.000000018              -0.000004821               1.000000000               0.000000092              -0.000005338               1.000000000               0.000000101              -0.000005591               1.000000000               0.000000107              -0.000005854               1.000000000               0.000000100              -0.000006062               1.000000000               0.000000050              -0.000006284               1.000000000               0.000000052              -0.000006645               1.000000000               0.000000175              -0.000007180               1.000000000               0.000000484              -0.000007951               1.000000000               0.000001087              -0.000008977               1.000000000               0.000002050              -0.000010246               1.000000000               0.000003427              -0.000011740               1.000000000              -0.000001817              -0.000007470               1.000000000              -0.000000554              -0.000006867               1.000000000              -0.000000149              -0.000006887               1.000000000              -0.000000062              -0.000007415               1.000000000              -0.000000055              -0.000008415               1.000000000               0.000000027              -0.000009609               1.000000000               0.000000137              -0.000010586               1.000000000               0.000000198              -0.000011178               1.000000000               0.000000249              -0.000011830               1.000000000               0.000000311              -0.000012441               1.000000000               0.000000489              -0.000013110               1.000000000               0.000000886              -0.000014042               1.000000000               0.000001523              -0.000015295               1.000000000               0.000002434              -0.000016964               1.000000000               0.000003680              -0.000019096               1.000000000               0.000005307              -0.000021707               1.000000000               0.000007351              -0.000024799               1.000000000              -0.000001617              -0.000011138               1.000000000              -0.000000553              -0.000010202               1.000000000              -0.000000283              -0.000010263               1.000000000              -0.000000206              -0.000011131               1.000000000              -0.000000061              -0.000012619               1.000000000               0.000000133              -0.000014356               1.000000000               0.000000271              -0.000015825               1.000000000               0.000000325              -0.000016905               1.000000000               0.000000445              -0.000018162               1.000000000               0.000000799              -0.000019458               1.000000000               0.000001453              -0.000020992               1.000000000               0.000002481              -0.000022891               1.000000000               0.000003925              -0.000025239               1.000000000               0.000005747              -0.000028137               1.000000000               0.000007977              -0.000031645               1.000000000               0.000010633              -0.000035816               1.000000000               0.000013694              -0.000040701               1.000000000              -0.000001351              -0.000014721               1.000000000              -0.000000648              -0.000013438               1.000000000              -0.000000540              -0.000013590               1.000000000              -0.000000394              -0.000014914               1.000000000              -0.000000090              -0.000016902               1.000000000               0.000000210              -0.000019261               1.000000000               0.000000516              -0.000021228               1.000000000               0.000000829              -0.000023041               1.000000000               0.000001318              -0.000025146               1.000000000               0.000002118              -0.000027561               1.000000000               0.000003322              -0.000030389               1.000000000               0.000005061              -0.000033780               1.000000000               0.000007306              -0.000037776               1.000000000               0.000010022              -0.000042435               1.000000000               0.000013244              -0.000047795               1.000000000               0.000016941              -0.000053900               1.000000000               0.000021060              -0.000060779               1.000000000              -0.000001170              -0.000018280               1.000000000              -0.000000900              -0.000016623               1.000000000              -0.000000875              -0.000016943               1.000000000              -0.000000636              -0.000018770               1.000000000              -0.000000140              -0.000021451               1.000000000               0.000000469              -0.000024455               1.000000000               0.000001015              -0.000027261               1.000000000               0.000001555              -0.000030143               1.000000000               0.000002433              -0.000033509               1.000000000               0.000003785              -0.000037463               1.000000000               0.000005707              -0.000041989               1.000000000               0.000008227              -0.000047273               1.000000000               0.000011289              -0.000053307               1.000000000               0.000014878              -0.000060121               1.000000000               0.000018999              -0.000067729               1.000000000               0.000023624              -0.000076100               1.000000000               0.000028688              -0.000085225               1.000000000              -0.000000987              -0.000021765               1.000000000              -0.000001248              -0.000019722               1.000000000              -0.000001317              -0.000020397               1.000000000              -0.000000825              -0.000022811               1.000000000              -0.000000037              -0.000026293               1.000000000               0.000000724              -0.000030323               1.000000000               0.000001430              -0.000034385               1.000000000               0.000002316              -0.000038632               1.000000000               0.000003702              -0.000043714               1.000000000               0.000005703              -0.000049481               1.000000000               0.000008363              -0.000056052               1.000000000               0.000011684              -0.000063466               1.000000000               0.000015539              -0.000071786               1.000000000               0.000019943              -0.000080973               1.000000000               0.000024919              -0.000090981               1.000000000               0.000030378              -0.000101784               1.000000000               0.000036283              -0.000113314               1.000000000              -0.000000882              -0.000025160               1.000000000              -0.000001705              -0.000022793               1.000000000              -0.000001689              -0.000023922               1.000000000              -0.000000960              -0.000027179               1.000000000               0.000000040              -0.000031727               1.000000000               0.000001063              -0.000037009               1.000000000               0.000002081              -0.000042452               1.000000000               0.000003360              -0.000048438               1.000000000               0.000005248              -0.000055500               1.000000000               0.000007869              -0.000063355               1.000000000               0.000011193              -0.000072137               1.000000000               0.000015145              -0.000081997               1.000000000               0.000019675              -0.000092818               1.000000000               0.000024839              -0.000104620               1.000000000               0.000030557              -0.000117327               1.000000000               0.000036785              -0.000130874               1.000000000               0.000043484              -0.000145211               1.000000000              -0.000000819              -0.000028348               1.000000000              -0.000002179              -0.000025904               1.000000000              -0.000001996              -0.000027622               1.000000000              -0.000000960              -0.000031832               1.000000000               0.000000352              -0.000037654               1.000000000               0.000001658              -0.000044317               1.000000000               0.000002826              -0.000051424               1.000000000               0.000004403              -0.000059416               1.000000000               0.000006829              -0.000068549               1.000000000               0.000010031              -0.000078711               1.000000000               0.000013883              -0.000090003               1.000000000               0.000018344              -0.000102580               1.000000000               0.000023471              -0.000116328               1.000000000               0.000029224              -0.000131179               1.000000000               0.000035509              -0.000147177               1.000000000               0.000042327              -0.000164123               1.000000000               0.000049486              -0.000181736               1.000000000              -0.000000696              -0.000031474               1.000000000              -0.000002470              -0.000029186               1.000000000              -0.000002422              -0.000030582               1.000000000              -0.000001436              -0.000034403               1.000000000              -0.000000095              -0.000039955               1.000000000               0.000001258              -0.000046583               1.000000000               0.000002347              -0.000053755               1.000000000               0.000003413              -0.000061585               1.000000000               0.000005084              -0.000070351               1.000000000               0.000007415              -0.000080043               1.000000000               0.000010224              -0.000090672               1.000000000               0.000013595              -0.000102334               1.000000000               0.000017459              -0.000115124               1.000000000               0.000021795              -0.000128958               1.000000000               0.000026616              -0.000143811               1.000000000               0.000031889              -0.000159735               1.000000000               0.000037592              -0.000176670               1.000000000              -0.000000634              -0.000034518               1.000000000              -0.000002632              -0.000032498               1.000000000              -0.000002659              -0.000033640               1.000000000              -0.000001846              -0.000037118               1.000000000              -0.000000649              -0.000042371               1.000000000               0.000000660              -0.000048773               1.000000000               0.000001726              -0.000055906               1.000000000               0.000002548              -0.000063688               1.000000000               0.000003630              -0.000072250               1.000000000               0.000005234              -0.000081652               1.000000000               0.000007223              -0.000091851               1.000000000               0.000009656              -0.000102862               1.000000000               0.000012439              -0.000114812               1.000000000               0.000015541              -0.000127743               1.000000000               0.000019006              -0.000141585               1.000000000               0.000022822              -0.000156376               1.000000000               0.000027050              -0.000172089               1.000000000              -0.000000538              -0.000037292               1.000000000              -0.000002558              -0.000035657               1.000000000              -0.000002751              -0.000036746               1.000000000              -0.000002193              -0.000039954               1.000000000              -0.000001171              -0.000044799               1.000000000               0.000000011              -0.000050854               1.000000000               0.000001059              -0.000057835               1.000000000               0.000001831              -0.000065584               1.000000000               0.000002565              -0.000074072               1.000000000               0.000003551              -0.000083344               1.000000000               0.000004860              -0.000093336               1.000000000               0.000006447              -0.000103979               1.000000000               0.000008326              -0.000115339               1.000000000               0.000010412              -0.000127531               1.000000000               0.000012699              -0.000140562               1.000000000               0.000015201              -0.000154391               1.000000000               0.000017972              -0.000169016               1.000000000              -0.000000403              -0.000039698               1.000000000              -0.000002324              -0.000038619               1.000000000              -0.000002669              -0.000039734               1.000000000              -0.000002274              -0.000042660               1.000000000              -0.000001491              -0.000047100               1.000000000              -0.000000523              -0.000052836               1.000000000               0.000000423              -0.000059689               1.000000000               0.000001175              -0.000067377               1.000000000               0.000001722              -0.000075804               1.000000000               0.000002305              -0.000084930               1.000000000               0.000003077              -0.000094787               1.000000000               0.000003997              -0.000105239               1.000000000               0.000005125              -0.000116309               1.000000000               0.000006421              -0.000128036               1.000000000               0.000007785              -0.000140489               1.000000000               0.000009247              -0.000153695               1.000000000               0.000010764              -0.000167654               1.000000000              -0.000000285              -0.000041668               1.000000000              -0.000001927              -0.000041179               1.000000000              -0.000002295              -0.000042332               1.000000000              -0.000002091              -0.000045089               1.000000000              -0.000001578              -0.000049279               1.000000000              -0.000000822              -0.000054738               1.000000000              -0.000000014              -0.000061340               1.000000000               0.000000657              -0.000068859               1.000000000               0.000001069              -0.000077177               1.000000000               0.000001382              -0.000086226               1.000000000               0.000001797              -0.000095985               1.000000000               0.000002280              -0.000106391               1.000000000               0.000002858              -0.000117374               1.000000000               0.000003540              -0.000128854               1.000000000               0.000004273              -0.000140976               1.000000000               0.000005003              -0.000153762               1.000000000               0.000005666              -0.000167218               1.000000000              -0.000000179              -0.000043120               1.000000000              -0.000001363              -0.000043099               1.000000000              -0.000001696              -0.000044372               1.000000000              -0.000001635              -0.000047071               1.000000000              -0.000001302              -0.000051066               1.000000000              -0.000000778              -0.000056323               1.000000000              -0.000000229              -0.000062685               1.000000000               0.000000254              -0.000070013               1.000000000               0.000000579              -0.000078202               1.000000000               0.000000760              -0.000087183               1.000000000               0.000000940              -0.000096881               1.000000000               0.000001151              -0.000107227               1.000000000               0.000001385              -0.000118139               1.000000000               0.000001676              -0.000129507               1.000000000               0.000002025              -0.000141459               1.000000000               0.000002363              -0.000153973               1.000000000               0.000002653              -0.000167037               1.000000000              -0.000000080              -0.000044027               1.000000000              -0.000000706              -0.000044317               1.000000000              -0.000000925              -0.000045682               1.000000000              -0.000000884              -0.000048356               1.000000000              -0.000000719              -0.000052243               1.000000000              -0.000000490              -0.000057348               1.000000000              -0.000000191              -0.000063532               1.000000000               0.000000071              -0.000070746               1.000000000               0.000000242              -0.000078882               1.000000000               0.000000325              -0.000087775               1.000000000               0.000000382              -0.000097382               1.000000000               0.000000449              -0.000107654               1.000000000               0.000000523              -0.000118471               1.000000000               0.000000627              -0.000129777               1.000000000               0.000000761              -0.000141597               1.000000000               0.000000897              -0.000153906               1.000000000               0.000001054              -0.000166751               1.000000000              -0.000000000              -0.000044344               1.000000000              -0.000000000              -0.000044750               1.000000000              -0.000000000              -0.000046127               1.000000000               0.000000000              -0.000048784               1.000000000               0.000000000              -0.000052658               1.000000000              -0.000000000              -0.000057711               1.000000000               0.000000000              -0.000063848               1.000000000               0.000000000              -0.000071007               1.000000000              -0.000000000              -0.000079078               1.000000000              -0.000000000              -0.000087938               1.000000000              -0.000000000              -0.000097541               1.000000000              -0.000000000              -0.000107782               1.000000000              -0.000000000              -0.000118541               1.000000000              -0.000000000              -0.000129815               1.000000000               0.000000000              -0.000141569               1.000000000               0.000000000              -0.000153791               1.000000000              -0.000000000              -0.000166565               1.000000000              -0.000002017               0.000000000               1.000000000              -0.000000575               0.000000000               1.000000000              -0.000000075               0.000000000               1.000000000              -0.000000022               0.000000000               1.000000000              -0.000000055               0.000000000               1.000000000              -0.000000038               0.000000000               1.000000000               0.000000069              -0.000000000               1.000000000               0.000000175              -0.000000000               1.000000000               0.000000166               0.000000000               1.000000000               0.000000041               0.000000000               1.000000000              -0.000000141               0.000000000               1.000000000              -0.000000322               0.000000000               1.000000000              -0.000000425              -0.000000000               1.000000000              -0.000000333              -0.000000000               1.000000000               0.000000051              -0.000000000               1.000000000               0.000000794              -0.000000000               1.000000000               0.000001963              -0.000000000               1.000000000              -0.000001925               0.000003730               1.000000000              -0.000000541               0.000003449               1.000000000              -0.000000099               0.000003443               1.000000000              -0.000000042               0.000003728               1.000000000              -0.000000047               0.000004195               1.000000000               0.000000018               0.000004821               1.000000000               0.000000092               0.000005338               1.000000000               0.000000101               0.000005591               1.000000000               0.000000107               0.000005854               1.000000000               0.000000100               0.000006062               1.000000000               0.000000050               0.000006284               1.000000000               0.000000052               0.000006645               1.000000000               0.000000175               0.000007180               1.000000000               0.000000484               0.000007951               1.000000000               0.000001087               0.000008977               1.000000000               0.000002050               0.000010246               1.000000000               0.000003427               0.000011740               1.000000000              -0.000001817               0.000007470               1.000000000              -0.000000554               0.000006867               1.000000000              -0.000000149               0.000006887               1.000000000              -0.000000062               0.000007415               1.000000000              -0.000000055               0.000008415               1.000000000               0.000000027               0.000009609               1.000000000               0.000000137               0.000010586               1.000000000               0.000000198               0.000011178               1.000000000               0.000000249               0.000011830               1.000000000               0.000000311               0.000012441               1.000000000               0.000000489               0.000013110               1.000000000               0.000000886               0.000014042               1.000000000               0.000001523               0.000015295               1.000000000               0.000002434               0.000016964               1.000000000               0.000003680               0.000019096               1.000000000               0.000005307               0.000021707               1.000000000               0.000007351               0.000024799               1.000000000              -0.000001617               0.000011138               1.000000000              -0.000000553               0.000010202               1.000000000              -0.000000283               0.000010263               1.000000000              -0.000000206               0.000011131               1.000000000              -0.000000061               0.000012619               1.000000000               0.000000133               0.000014356               1.000000000               0.000000271               0.000015825               1.000000000               0.000000325               0.000016905               1.000000000               0.000000445               0.000018162               1.000000000               0.000000799               0.000019458               1.000000000               0.000001453               0.000020992               1.000000000               0.000002481               0.000022891               1.000000000               0.000003925               0.000025239               1.000000000               0.000005747               0.000028137               1.000000000               0.000007977               0.000031645               1.000000000               0.000010633               0.000035816               1.000000000               0.000013694               0.000040701               1.000000000              -0.000001351               0.000014721               1.000000000              -0.000000648               0.000013438               1.000000000              -0.000000540               0.000013590               1.000000000              -0.000000394               0.000014914               1.000000000              -0.000000090               0.000016902               1.000000000               0.000000210               0.000019261               1.000000000               0.000000516               0.000021228               1.000000000               0.000000829               0.000023041               1.000000000               0.000001318               0.000025146               1.000000000               0.000002118               0.000027561               1.000000000               0.000003322               0.000030389               1.000000000               0.000005061               0.000033780               1.000000000               0.000007306               0.000037776               1.000000000               0.000010022               0.000042435               1.000000000               0.000013244               0.000047795               1.000000000               0.000016941               0.000053900               1.000000000               0.000021060               0.000060779               1.000000000              -0.000001170               0.000018280               1.000000000              -0.000000900               0.000016623               1.000000000              -0.000000875               0.000016943               1.000000000              -0.000000636               0.000018770               1.000000000              -0.000000140               0.000021451               1.000000000               0.000000469               0.000024455               1.000000000               0.000001015               0.000027261               1.000000000               0.000001555               0.000030143               1.000000000               0.000002433               0.000033509               1.000000000               0.000003785               0.000037463               1.000000000               0.000005707               0.000041989               1.000000000               0.000008227               0.000047273               1.000000000               0.000011289               0.000053307               1.000000000               0.000014878               0.000060121               1.000000000               0.000018999               0.000067729               1.000000000               0.000023624               0.000076100               1.000000000               0.000028688               0.000085225               1.000000000              -0.000000987               0.000021765               1.000000000              -0.000001248               0.000019722               1.000000000              -0.000001317               0.000020397               1.000000000              -0.000000825               0.000022811               1.000000000              -0.000000037               0.000026293               1.000000000               0.000000724               0.000030323               1.000000000               0.000001430               0.000034385               1.000000000               0.000002316               0.000038632               1.000000000               0.000003702               0.000043714               1.000000000               0.000005703               0.000049481               1.000000000               0.000008363               0.000056052               1.000000000               0.000011684               0.000063466               1.000000000               0.000015539               0.000071786               1.000000000               0.000019943               0.000080973               1.000000000               0.000024919               0.000090981               1.000000000               0.000030378               0.000101784               1.000000000               0.000036283               0.000113314               1.000000000              -0.000000882               0.000025160               1.000000000              -0.000001705               0.000022793               1.000000000              -0.000001689               0.000023922               1.000000000              -0.000000960               0.000027179               1.000000000               0.000000040               0.000031727               1.000000000               0.000001063               0.000037009               1.000000000               0.000002081               0.000042452               1.000000000               0.000003360               0.000048438               1.000000000               0.000005248               0.000055500               1.000000000               0.000007869               0.000063355               1.000000000               0.000011193               0.000072137               1.000000000               0.000015145               0.000081997               1.000000000               0.000019675               0.000092818               1.000000000               0.000024839               0.000104620               1.000000000               0.000030557               0.000117327               1.000000000               0.000036785               0.000130874               1.000000000               0.000043484               0.000145211               1.000000000              -0.000000819               0.000028348               1.000000000              -0.000002179               0.000025904               1.000000000              -0.000001996               0.000027622               1.000000000              -0.000000960               0.000031832               1.000000000               0.000000352               0.000037654               1.000000000               0.000001658               0.000044317               1.000000000               0.000002826               0.000051424               1.000000000               0.000004403               0.000059416               1.000000000               0.000006829               0.000068549               1.000000000               0.000010031               0.000078711               1.000000000               0.000013883               0.000090003               1.000000000               0.000018344               0.000102580               1.000000000               0.000023471               0.000116328               1.000000000               0.000029224               0.000131179               1.000000000               0.000035509               0.000147177               1.000000000               0.000042327               0.000164123               1.000000000               0.000049486               0.000181736               1.000000000              -0.000000696               0.000031474               1.000000000              -0.000002470               0.000029186               1.000000000              -0.000002422               0.000030582               1.000000000              -0.000001436               0.000034403               1.000000000              -0.000000095               0.000039955               1.000000000               0.000001258               0.000046583               1.000000000               0.000002347               0.000053755               1.000000000               0.000003413               0.000061585               1.000000000               0.000005084               0.000070351               1.000000000               0.000007415               0.000080043               1.000000000               0.000010224               0.000090672               1.000000000               0.000013595               0.000102334               1.000000000               0.000017459               0.000115124               1.000000000               0.000021795               0.000128958               1.000000000               0.000026616               0.000143811               1.000000000               0.000031889               0.000159735               1.000000000               0.000037592               0.000176670               1.000000000              -0.000000634               0.000034518               1.000000000              -0.000002632               0.000032498               1.000000000              -0.000002659               0.000033640               1.000000000              -0.000001846               0.000037118               1.000000000              -0.000000649               0.000042371               1.000000000               0.000000660               0.000048773               1.000000000               0.000001726               0.000055906               1.000000000               0.000002548               0.000063688               1.000000000               0.000003630               0.000072250               1.000000000               0.000005234               0.000081652               1.000000000               0.000007223               0.000091851               1.000000000               0.000009656               0.000102862               1.000000000               0.000012439               0.000114812               1.000000000               0.000015541               0.000127743               1.000000000               0.000019006               0.000141585               1.000000000               0.000022822               0.000156376               1.000000000               0.000027050               0.000172089               1.000000000              -0.000000538               0.000037292               1.000000000              -0.000002558               0.000035657               1.000000000              -0.000002751               0.000036746               1.000000000              -0.000002193               0.000039954               1.000000000              -0.000001171               0.000044799               1.000000000               0.000000011               0.000050854               1.000000000               0.000001059               0.000057835               1.000000000               0.000001831               0.000065584               1.000000000               0.000002565               0.000074072               1.000000000               0.000003551               0.000083344               1.000000000               0.000004860               0.000093336               1.000000000               0.000006447               0.000103979               1.000000000               0.000008326               0.000115339               1.000000000               0.000010412               0.000127531               1.000000000               0.000012699               0.000140562               1.000000000               0.000015201               0.000154391               1.000000000               0.000017972               0.000169016               1.000000000              -0.000000403               0.000039698               1.000000000              -0.000002324               0.000038619               1.000000000              -0.000002669               0.000039734               1.000000000              -0.000002274               0.000042660               1.000000000              -0.000001491               0.000047100               1.000000000              -0.000000523               0.000052836               1.000000000               0.000000423               0.000059689               1.000000000               0.000001175               0.000067377               1.000000000               0.000001722               0.000075804               1.000000000               0.000002305               0.000084930               1.000000000               0.000003077               0.000094787               1.000000000               0.000003997               0.000105239               1.000000000               0.000005125               0.000116309               1.000000000               0.000006421               0.000128036               1.000000000               0.000007785               0.000140489               1.000000000               0.000009247               0.000153695               1.000000000               0.000010764               0.000167654               1.000000000              -0.000000285               0.000041668               1.000000000              -0.000001927               0.000041179               1.000000000              -0.000002295               0.000042332               1.000000000              -0.000002091               0.000045089               1.000000000              -0.000001578               0.000049279               1.000000000              -0.000000822               0.000054738               1.000000000              -0.000000014               0.000061340               1.000000000               0.000000657               0.000068859               1.000000000               0.000001069               0.000077177               1.000000000               0.000001382               0.000086226               1.000000000               0.000001797               0.000095985               1.000000000               0.000002280               0.000106391               1.000000000               0.000002858               0.000117374               1.000000000               0.000003540               0.000128854               1.000000000               0.000004273               0.000140976               1.000000000               0.000005003               0.000153762               1.000000000               0.000005666               0.000167218               1.000000000              -0.000000179               0.000043120               1.000000000              -0.000001363               0.000043099               1.000000000              -0.000001696               0.000044372               1.000000000              -0.000001635               0.000047071               1.000000000              -0.000001302               0.000051066               1.000000000              -0.000000778               0.000056323               1.000000000              -0.000000229               0.000062685               1.000000000               0.000000254               0.000070013               1.000000000               0.000000579               0.000078202               1.000000000               0.000000760               0.000087183               1.000000000               0.000000940               0.000096881               1.000000000               0.000001151               0.000107227               1.000000000               0.000001385               0.000118139               1.000000000               0.000001676               0.000129507               1.000000000               0.000002025               0.000141459               1.000000000               0.000002363               0.000153973               1.000000000               0.000002653               0.000167037               1.000000000              -0.000000080               0.000044027               1.000000000              -0.000000706               0.000044317               1.000000000              -0.000000925               0.000045682               1.000000000              -0.000000884               0.000048356               1.000000000              -0.000000719               0.000052243               1.000000000              -0.000000490               0.000057348               1.000000000              -0.000000191               0.000063532               1.000000000               0.000000071               0.000070746               1.000000000               0.000000242               0.000078882               1.000000000               0.000000325               0.000087775               1.000000000               0.000000382               0.000097382               1.000000000               0.000000449               0.000107654               1.000000000               0.000000523               0.000118471               1.000000000               0.000000627               0.000129777               1.000000000               0.000000761               0.000141597               1.000000000               0.000000897               0.000153906               1.000000000               0.000001054               0.000166751               1.000000000              -0.000000000               0.000044344               1.000000000              -0.000000000               0.000044750               1.000000000               0.000000000               0.000046127               1.000000000               0.000000000               0.000048784               1.000000000               0.000000000               0.000052658               1.000000000               0.000000000               0.000057711               1.000000000               0.000000000               0.000063848               1.000000000              -0.000000000               0.000071007               1.000000000              -0.000000000               0.000079078               1.000000000              -0.000000000               0.000087938               1.000000000              -0.000000000               0.000097541               1.000000000              -0.000000000               0.000107782               1.000000000              -0.000000000               0.000118541               1.000000000              -0.000000000               0.000129815               1.000000000               0.000000000               0.000141569               1.000000000              -0.000000000               0.000153791               1.000000000              -0.000000000               0.000166565               1.000000000 </DataArray>
<DataArray type="Float64"                                    Name="stress"                                                      NumberOfComponents="10" format="ascii">
              0.000072900               0.000711773              -0.000000000              -0.000061634               0.000257800               0.000196166               0.000000000               0.000000000               0.000000000               0.000000000               0.000096307               0.000608810              -0.000000000              -0.000039986               0.000216263               0.000176277               0.000000000               0.000000000               0.000000000               0.000000000               0.000147987               0.000533328              -0.000000000              -0.000011171               0.000181498               0.000170327               0.000000000               0.000000000               0.000000000               0.000000000               0.000166531               0.000504571               0.000000000              -0.000000622               0.000168396               0.000167774               0.000000000               0.000000000               0.000000000               0.000000000               0.000165492               0.000498336               0.000000000              -0.000000233               0.000166188               0.000165955               0.000000000               0.000000000               0.000000000               0.000000000               0.000160208               0.000502947              -0.000000000              -0.000002790               0.000168578               0.000165787               0.000000000               0.000000000               0.000000000               0.000000000               0.000156628               0.000499144               0.000000000              -0.000003658               0.000167599               0.000163941               0.000000000               0.000000000               0.000000000               0.000000000               0.000156632               0.000482222               0.000000000              -0.000001541               0.000161253               0.000159712               0.000000000               0.000000000               0.000000000               0.000000000               0.000160566               0.000466127               0.000000000               0.000001946               0.000154725               0.000156672               0.000000000               0.000000000               0.000000000               0.000000000               0.000163301               0.000450148               0.000000000               0.000004969               0.000148391               0.000153361               0.000000000               0.000000000               0.000000000               0.000000000               0.000160905               0.000436272               0.000000000               0.000005805               0.000143487               0.000149293               0.000000000               0.000000000               0.000000000               0.000000000               0.000152484               0.000429167              -0.000000000               0.000003536               0.000141876               0.000145411               0.000000000               0.000000000               0.000000000               0.000000000               0.000136461               0.000429522              -0.000000000              -0.000002517               0.000144012               0.000141494               0.000000000               0.000000000               0.000000000               0.000000000               0.000111273               0.000437604               0.000000000              -0.000012973               0.000150191               0.000137218               0.000000000               0.000000000               0.000000000               0.000000000               0.000078954               0.000453326               0.000000000              -0.000027058               0.000160127               0.000133068               0.000000000               0.000000000               0.000000000               0.000000000               0.000041195               0.000475344              -0.000000000              -0.000043970               0.000173103               0.000129133               0.000000000               0.000000000               0.000000000               0.000000000               0.000024087               0.000495732              -0.000000000              -0.000052934               0.000182887               0.000129953               0.000000000               0.000000000               0.000000000               0.000000000               0.000079817               0.000705650              -0.000056896              -0.000058275               0.000254639               0.000196364               0.000000000               0.000000000               0.000000000               0.000000000               0.000100677               0.000603833              -0.000038603              -0.000037725               0.000213851               0.000176126               0.000000000               0.000000000               0.000000000               0.000000000               0.000148610               0.000531246              -0.000017242              -0.000010677               0.000180639               0.000169962               0.000000000               0.000000000               0.000000000               0.000000000               0.000164366               0.000502742              -0.000005150              -0.000001205               0.000167981               0.000166775               0.000000000               0.000000000               0.000000000               0.000000000               0.000163033               0.000498709               0.000001370              -0.000001201               0.000166635               0.000165434               0.000000000               0.000000000               0.000000000               0.000000000               0.000159112               0.000501854               0.000000684              -0.000003065               0.000168304               0.000165240               0.000000000               0.000000000               0.000000000               0.000000000               0.000159446               0.000497458              -0.000006706              -0.000002390               0.000166614               0.000164224               0.000000000               0.000000000               0.000000000               0.000000000               0.000158907               0.000482990              -0.000010317              -0.000000784               0.000161256               0.000160473               0.000000000               0.000000000               0.000000000               0.000000000               0.000157677               0.000469822              -0.000011145               0.000000401               0.000156472               0.000156873               0.000000000               0.000000000               0.000000000               0.000000000               0.000157326               0.000458629              -0.000013441               0.000001668               0.000152319               0.000153987               0.000000000               0.000000000               0.000000000               0.000000000               0.000152771               0.000450009              -0.000013671               0.000001038               0.000149656               0.000150693               0.000000000               0.000000000               0.000000000               0.000000000               0.000142090               0.000447084              -0.000012702              -0.000002602               0.000149894               0.000147292               0.000000000               0.000000000               0.000000000               0.000000000               0.000126551               0.000451130              -0.000011072              -0.000008935               0.000153353               0.000144419               0.000000000               0.000000000               0.000000000               0.000000000               0.000103539               0.000461783              -0.000008245              -0.000018896               0.000160225               0.000141329               0.000000000               0.000000000               0.000000000               0.000000000               0.000073271               0.000478759              -0.000005180              -0.000032368               0.000170374               0.000138006               0.000000000               0.000000000               0.000000000               0.000000000               0.000038135               0.000501909              -0.000002376              -0.000048438               0.000183447               0.000135009               0.000000000               0.000000000               0.000000000               0.000000000               0.000022969               0.000523319              -0.000002254              -0.000056801               0.000193371               0.000136570               0.000000000               0.000000000               0.000000000               0.000000000               0.000094293               0.000679330              -0.000107263              -0.000049556               0.000242960               0.000193404               0.000000000               0.000000000               0.000000000               0.000000000               0.000107332               0.000584099              -0.000072226              -0.000032763               0.000205619               0.000172856               0.000000000               0.000000000               0.000000000               0.000000000               0.000145627               0.000521647              -0.000031930              -0.000010596               0.000177413               0.000166817               0.000000000               0.000000000               0.000000000               0.000000000               0.000158475               0.000500655              -0.000008460              -0.000003154               0.000167935               0.000164781               0.000000000               0.000000000               0.000000000               0.000000000               0.000159092               0.000499764               0.000002596              -0.000002811               0.000167523               0.000164712               0.000000000               0.000000000               0.000000000               0.000000000               0.000156439               0.000500143              -0.000000267              -0.000003853               0.000167997               0.000164144               0.000000000               0.000000000               0.000000000               0.000000000               0.000158274               0.000495442              -0.000013106              -0.000002577               0.000166005               0.000163427               0.000000000               0.000000000               0.000000000               0.000000000               0.000159518               0.000489309              -0.000019137              -0.000001344               0.000163549               0.000162205               0.000000000               0.000000000               0.000000000               0.000000000               0.000157395               0.000487693              -0.000019976              -0.000001938               0.000163209               0.000161271               0.000000000               0.000000000               0.000000000               0.000000000               0.000151657               0.000489143              -0.000023605              -0.000004272               0.000164470               0.000160198               0.000000000               0.000000000               0.000000000               0.000000000               0.000139412               0.000494430              -0.000024700              -0.000009524               0.000167983               0.000158459               0.000000000               0.000000000               0.000000000               0.000000000               0.000122925               0.000503790              -0.000023702              -0.000016877               0.000173554               0.000156677               0.000000000               0.000000000               0.000000000               0.000000000               0.000105867               0.000518289              -0.000021523              -0.000025086               0.000181123               0.000156038               0.000000000               0.000000000               0.000000000               0.000000000               0.000085152               0.000536944              -0.000017428              -0.000035186               0.000190708               0.000155522               0.000000000               0.000000000               0.000000000               0.000000000               0.000059303               0.000559315              -0.000012225              -0.000047676               0.000202328               0.000154653               0.000000000               0.000000000               0.000000000               0.000000000               0.000030302               0.000586580              -0.000006315              -0.000061959               0.000216178               0.000154219               0.000000000               0.000000000               0.000000000               0.000000000               0.000019689               0.000610619              -0.000005568              -0.000068944               0.000226519               0.000157575               0.000000000               0.000000000               0.000000000               0.000000000               0.000114627               0.000634570              -0.000149486              -0.000036336               0.000223633               0.000187297               0.000000000               0.000000000               0.000000000               0.000000000               0.000116821               0.000552741              -0.000098476              -0.000025285               0.000192673               0.000167389               0.000000000               0.000000000               0.000000000               0.000000000               0.000142049               0.000508982              -0.000040690              -0.000010354               0.000173110               0.000162756               0.000000000               0.000000000               0.000000000               0.000000000               0.000147462               0.000502123              -0.000010752              -0.000007467               0.000169862               0.000162395               0.000000000               0.000000000               0.000000000               0.000000000               0.000148365               0.000504423               0.000001550              -0.000007416               0.000170611               0.000163195               0.000000000               0.000000000               0.000000000               0.000000000               0.000153103               0.000507758              -0.000003462              -0.000006056               0.000171270               0.000165213               0.000000000               0.000000000               0.000000000               0.000000000               0.000161519               0.000507369              -0.000019220              -0.000002852               0.000170072               0.000167220               0.000000000               0.000000000               0.000000000               0.000000000               0.000167194               0.000514838              -0.000026837              -0.000001657               0.000172163               0.000170506               0.000000000               0.000000000               0.000000000               0.000000000               0.000161413               0.000527796              -0.000029430              -0.000005444               0.000177745               0.000172301               0.000000000               0.000000000               0.000000000               0.000000000               0.000148117               0.000546745              -0.000034585              -0.000012799               0.000186513               0.000173714               0.000000000               0.000000000               0.000000000               0.000000000               0.000129493               0.000571462              -0.000036438              -0.000022873               0.000198110               0.000175237               0.000000000               0.000000000               0.000000000               0.000000000               0.000107408               0.000599652              -0.000036180              -0.000034678               0.000211441               0.000176763               0.000000000               0.000000000               0.000000000               0.000000000               0.000087548               0.000631456              -0.000033777              -0.000046101               0.000225850               0.000179749               0.000000000               0.000000000               0.000000000               0.000000000               0.000067727               0.000664780              -0.000028696              -0.000057700               0.000240824               0.000183125               0.000000000               0.000000000               0.000000000               0.000000000               0.000044919               0.000698089              -0.000021475              -0.000070416               0.000256166               0.000185750               0.000000000               0.000000000               0.000000000               0.000000000               0.000021977               0.000732572              -0.000011834              -0.000083330               0.000271965               0.000188635               0.000000000               0.000000000               0.000000000               0.000000000               0.000016037               0.000759193              -0.000009377              -0.000088885               0.000282690               0.000193805               0.000000000               0.000000000               0.000000000               0.000000000               0.000137783               0.000586274              -0.000176150              -0.000021616               0.000202628               0.000181012               0.000000000               0.000000000               0.000000000               0.000000000               0.000125248               0.000520598              -0.000114066              -0.000018107               0.000179567               0.000161460               0.000000000               0.000000000               0.000000000               0.000000000               0.000135225               0.000501159              -0.000045919              -0.000011935               0.000171030               0.000159094               0.000000000               0.000000000               0.000000000               0.000000000               0.000134019               0.000509985              -0.000013824              -0.000013491               0.000174490               0.000160999               0.000000000               0.000000000               0.000000000               0.000000000               0.000139220               0.000524007              -0.000002253              -0.000013293               0.000179099               0.000165805               0.000000000               0.000000000               0.000000000               0.000000000               0.000152030               0.000534671              -0.000010628              -0.000009823               0.000181496               0.000171674               0.000000000               0.000000000               0.000000000               0.000000000               0.000165665               0.000547224              -0.000028333              -0.000006278               0.000184499               0.000178221               0.000000000               0.000000000               0.000000000               0.000000000               0.000173237               0.000573725              -0.000036141              -0.000006752               0.000193490               0.000186739               0.000000000               0.000000000               0.000000000               0.000000000               0.000167659               0.000606692              -0.000038956              -0.000012964               0.000206550               0.000193586               0.000000000               0.000000000               0.000000000               0.000000000               0.000154263               0.000646952              -0.000043301              -0.000023020               0.000223322               0.000200302               0.000000000               0.000000000               0.000000000               0.000000000               0.000132895               0.000689917              -0.000044740              -0.000036404               0.000242105               0.000205701               0.000000000               0.000000000               0.000000000               0.000000000               0.000108546               0.000735533              -0.000043378              -0.000051237               0.000262254               0.000211017               0.000000000               0.000000000               0.000000000               0.000000000               0.000087385               0.000783220              -0.000039719              -0.000065133               0.000282782               0.000217649               0.000000000               0.000000000               0.000000000               0.000000000               0.000065447               0.000829604              -0.000033458              -0.000079158               0.000302918               0.000223760               0.000000000               0.000000000               0.000000000               0.000000000               0.000041473               0.000873023              -0.000024816              -0.000093575               0.000322196               0.000228621               0.000000000               0.000000000               0.000000000               0.000000000               0.000019628               0.000913487              -0.000013445              -0.000106825               0.000340101               0.000233276               0.000000000               0.000000000               0.000000000               0.000000000               0.000014848               0.000941289              -0.000010119              -0.000112093               0.000351124               0.000239031               0.000000000               0.000000000               0.000000000               0.000000000               0.000158075               0.000533247              -0.000191690              -0.000007378               0.000180207               0.000172829               0.000000000               0.000000000               0.000000000               0.000000000               0.000128799               0.000488504              -0.000123086              -0.000012763               0.000167087               0.000154324               0.000000000               0.000000000               0.000000000               0.000000000               0.000125047               0.000502189              -0.000050973              -0.000015881               0.000172688               0.000156807               0.000000000               0.000000000               0.000000000               0.000000000               0.000124059               0.000529822              -0.000019179              -0.000019706               0.000183174               0.000163469               0.000000000               0.000000000               0.000000000               0.000000000               0.000134108               0.000560007              -0.000010485              -0.000019710               0.000193237               0.000173527               0.000000000               0.000000000               0.000000000               0.000000000               0.000154885               0.000589950              -0.000019859              -0.000015662               0.000201869               0.000186207               0.000000000               0.000000000               0.000000000               0.000000000               0.000178114               0.000629067              -0.000035679              -0.000011841               0.000213634               0.000201793               0.000000000               0.000000000               0.000000000               0.000000000               0.000186032               0.000676176              -0.000041987              -0.000014760               0.000230310               0.000215550               0.000000000               0.000000000               0.000000000               0.000000000               0.000177191               0.000729063              -0.000044148              -0.000024686               0.000251247               0.000226561               0.000000000               0.000000000               0.000000000               0.000000000               0.000160257               0.000783470              -0.000047801              -0.000037837               0.000273766               0.000235929               0.000000000               0.000000000               0.000000000               0.000000000               0.000137809               0.000838575              -0.000048985              -0.000053143               0.000297237               0.000244093               0.000000000               0.000000000               0.000000000               0.000000000               0.000115425               0.000893639              -0.000045997              -0.000068420               0.000320683               0.000252263               0.000000000               0.000000000               0.000000000               0.000000000               0.000094721               0.000948207              -0.000040623              -0.000083005               0.000343734               0.000260729               0.000000000               0.000000000               0.000000000               0.000000000               0.000071087               0.000999008              -0.000032967              -0.000098218               0.000365739               0.000267521               0.000000000               0.000000000               0.000000000               0.000000000               0.000045692               0.001044810              -0.000023530              -0.000113466               0.000386089               0.000272622               0.000000000               0.000000000               0.000000000               0.000000000               0.000022232               0.001085809              -0.000012315              -0.000127389               0.000404396               0.000277007               0.000000000               0.000000000               0.000000000               0.000000000               0.000016318               0.001112991              -0.000009178              -0.000133004               0.000415328               0.000282324               0.000000000               0.000000000               0.000000000               0.000000000               0.000173130               0.000475191              -0.000197487               0.000005524               0.000156554               0.000162078               0.000000000               0.000000000               0.000000000               0.000000000               0.000130972               0.000459588              -0.000126830              -0.000008334               0.000155972               0.000147638               0.000000000               0.000000000               0.000000000               0.000000000               0.000116606               0.000512904              -0.000057510              -0.000020386               0.000177761               0.000157376               0.000000000               0.000000000               0.000000000               0.000000000               0.000118845               0.000567411              -0.000029350              -0.000026359               0.000197922               0.000171562               0.000000000               0.000000000               0.000000000               0.000000000               0.000141043               0.000621458              -0.000019895              -0.000024791               0.000215414               0.000190623               0.000000000               0.000000000               0.000000000               0.000000000               0.000173397               0.000675797              -0.000027231              -0.000019451               0.000231747               0.000212296               0.000000000               0.000000000               0.000000000               0.000000000               0.000198446               0.000732192              -0.000042272              -0.000017107               0.000249764               0.000232657               0.000000000               0.000000000               0.000000000               0.000000000               0.000203124               0.000795868              -0.000048190              -0.000023312               0.000273058               0.000249745               0.000000000               0.000000000               0.000000000               0.000000000               0.000189822               0.000862712              -0.000050253              -0.000036656               0.000299786               0.000263131               0.000000000               0.000000000               0.000000000               0.000000000               0.000168066               0.000924374              -0.000053062              -0.000052522               0.000325629               0.000273107               0.000000000               0.000000000               0.000000000               0.000000000               0.000142685               0.000984583              -0.000051444              -0.000069566               0.000351380               0.000281814               0.000000000               0.000000000               0.000000000               0.000000000               0.000119872               0.001044533              -0.000045822              -0.000085615               0.000376712               0.000291098               0.000000000               0.000000000               0.000000000               0.000000000               0.000098068               0.001101422              -0.000037878              -0.000100902               0.000400771               0.000299869               0.000000000               0.000000000               0.000000000               0.000000000               0.000072200               0.001153069              -0.000029393              -0.000117058               0.000423372               0.000306313               0.000000000               0.000000000               0.000000000               0.000000000               0.000046467               0.001199917              -0.000020040              -0.000132564               0.000444156               0.000311592               0.000000000               0.000000000               0.000000000               0.000000000               0.000023525               0.001242645              -0.000010026              -0.000146509               0.000463047               0.000316538               0.000000000               0.000000000               0.000000000               0.000000000               0.000017626               0.001271516              -0.000008220              -0.000152329               0.000474611               0.000322281               0.000000000               0.000000000               0.000000000               0.000000000               0.000179194               0.000417162              -0.000192485               0.000015052               0.000134035               0.000149087               0.000000000               0.000000000               0.000000000               0.000000000               0.000130922               0.000440661              -0.000129058              -0.000005987               0.000148881               0.000142894               0.000000000               0.000000000               0.000000000               0.000000000               0.000115406               0.000537344              -0.000066802              -0.000023891               0.000187076               0.000163186               0.000000000               0.000000000               0.000000000               0.000000000               0.000128132               0.000621560              -0.000040648              -0.000029646               0.000217066               0.000187421               0.000000000               0.000000000               0.000000000               0.000000000               0.000161088               0.000698728              -0.000031725              -0.000026933               0.000241885               0.000214952               0.000000000               0.000000000               0.000000000               0.000000000               0.000199755               0.000766500              -0.000038386              -0.000020904               0.000262466               0.000241561               0.000000000               0.000000000               0.000000000               0.000000000               0.000222488               0.000833960              -0.000049362              -0.000020812               0.000284921               0.000264109               0.000000000               0.000000000               0.000000000               0.000000000               0.000220208               0.000909678              -0.000051818              -0.000031131               0.000313600               0.000282469               0.000000000               0.000000000               0.000000000               0.000000000               0.000199729               0.000980586              -0.000052457              -0.000047675               0.000342750               0.000295076               0.000000000               0.000000000               0.000000000               0.000000000               0.000174316               0.001047065              -0.000053918              -0.000065514               0.000370856               0.000305342               0.000000000               0.000000000               0.000000000               0.000000000               0.000148613               0.001113209              -0.000048013              -0.000083421               0.000398873               0.000315452               0.000000000               0.000000000               0.000000000               0.000000000               0.000123825               0.001179648              -0.000039322              -0.000101021               0.000426886               0.000325865               0.000000000               0.000000000               0.000000000               0.000000000               0.000097275               0.001242386              -0.000030938              -0.000118820               0.000453731               0.000334911               0.000000000               0.000000000               0.000000000               0.000000000               0.000069818               0.001301586              -0.000021991              -0.000136516               0.000479363               0.000342847               0.000000000               0.000000000               0.000000000               0.000000000               0.000045009               0.001359546              -0.000013865              -0.000153064               0.000504199               0.000351135               0.000000000               0.000000000               0.000000000               0.000000000               0.000022755               0.001413641              -0.000006787              -0.000168171               0.000527266               0.000359095               0.000000000               0.000000000               0.000000000               0.000000000               0.000016382               0.001448492              -0.000006528              -0.000174918               0.000541132               0.000366214               0.000000000               0.000000000               0.000000000               0.000000000               0.000184938               0.000368184              -0.000181191               0.000023328               0.000114951               0.000138279               0.000000000               0.000000000               0.000000000               0.000000000               0.000135974               0.000430401              -0.000131880              -0.000002810               0.000144402               0.000141592               0.000000000               0.000000000               0.000000000               0.000000000               0.000119512               0.000564428              -0.000079994              -0.000025736               0.000196720               0.000170983               0.000000000               0.000000000               0.000000000               0.000000000               0.000141279               0.000670425              -0.000054385              -0.000030823               0.000233747               0.000202924               0.000000000               0.000000000               0.000000000               0.000000000               0.000181077               0.000761150              -0.000043924              -0.000027240               0.000262794               0.000235554               0.000000000               0.000000000               0.000000000               0.000000000               0.000220895               0.000834375              -0.000043917              -0.000021461               0.000285276               0.000263815               0.000000000               0.000000000               0.000000000               0.000000000               0.000240822               0.000908047              -0.000046575              -0.000023197               0.000310412               0.000287214               0.000000000               0.000000000               0.000000000               0.000000000               0.000230600               0.000987612              -0.000047725              -0.000036976               0.000341526               0.000304550               0.000000000               0.000000000               0.000000000               0.000000000               0.000206344               0.001061100              -0.000049015              -0.000055259               0.000372116               0.000316858               0.000000000               0.000000000               0.000000000               0.000000000               0.000182910               0.001133341              -0.000047901              -0.000073076               0.000402135               0.000329059               0.000000000               0.000000000               0.000000000               0.000000000               0.000160720               0.001209354              -0.000040403              -0.000090899               0.000433414               0.000342515               0.000000000               0.000000000               0.000000000               0.000000000               0.000138013               0.001284924              -0.000031271              -0.000108860               0.000464590               0.000355730               0.000000000               0.000000000               0.000000000               0.000000000               0.000113034               0.001357331              -0.000023409              -0.000127278               0.000494865               0.000367587               0.000000000               0.000000000               0.000000000               0.000000000               0.000088575               0.001428627              -0.000014357              -0.000145362               0.000524658               0.000379296               0.000000000               0.000000000               0.000000000               0.000000000               0.000066186               0.001498911              -0.000006365              -0.000162544               0.000553813               0.000391269               0.000000000               0.000000000               0.000000000               0.000000000               0.000046635               0.001564056              -0.000001606              -0.000178018               0.000580686               0.000402668               0.000000000               0.000000000               0.000000000               0.000000000               0.000037159               0.001598936              -0.000000643              -0.000185932               0.000594951               0.000409019               0.000000000               0.000000000               0.000000000               0.000000000               0.000187240               0.000321564              -0.000168572               0.000030019               0.000097180               0.000127200               0.000000000               0.000000000               0.000000000               0.000000000               0.000144836               0.000404316              -0.000136892               0.000003774               0.000133512               0.000137286               0.000000000               0.000000000               0.000000000               0.000000000               0.000131140               0.000559757              -0.000099736              -0.000020792               0.000193515               0.000172722               0.000000000               0.000000000               0.000000000               0.000000000               0.000151671               0.000684157              -0.000074342              -0.000028643               0.000237598               0.000208955               0.000000000               0.000000000               0.000000000               0.000000000               0.000186088               0.000787193              -0.000058269              -0.000028616               0.000271934               0.000243318               0.000000000               0.000000000               0.000000000               0.000000000               0.000221399               0.000863889              -0.000048358              -0.000024961               0.000296281               0.000271319               0.000000000               0.000000000               0.000000000               0.000000000               0.000246664               0.000934452              -0.000042206              -0.000024308               0.000319583               0.000295276               0.000000000               0.000000000               0.000000000               0.000000000               0.000248528               0.001012535              -0.000041914              -0.000033369               0.000348631               0.000315263               0.000000000               0.000000000               0.000000000               0.000000000               0.000232595               0.001089899              -0.000045585              -0.000049014               0.000379634               0.000330620               0.000000000               0.000000000               0.000000000               0.000000000               0.000213423               0.001164079              -0.000045533              -0.000065476               0.000409848               0.000344372               0.000000000               0.000000000               0.000000000               0.000000000               0.000194855               0.001239950              -0.000041566              -0.000081923               0.000440620               0.000358697               0.000000000               0.000000000               0.000000000               0.000000000               0.000178005               0.001319280              -0.000035553              -0.000098158               0.000472475               0.000374317               0.000000000               0.000000000               0.000000000               0.000000000               0.000159381               0.001397703              -0.000027252              -0.000114945               0.000504211               0.000389267               0.000000000               0.000000000               0.000000000               0.000000000               0.000138345               0.001472825              -0.000018775              -0.000132223               0.000535011               0.000402788               0.000000000               0.000000000               0.000000000               0.000000000               0.000118519               0.001548660              -0.000010565              -0.000149138               0.000565927               0.000416790               0.000000000               0.000000000               0.000000000               0.000000000               0.000101018               0.001625328              -0.000003703              -0.000165284               0.000596865               0.000431581               0.000000000               0.000000000               0.000000000               0.000000000               0.000086202               0.001658723               0.000001654              -0.000175014               0.000611240               0.000436226               0.000000000               0.000000000               0.000000000               0.000000000               0.000183003               0.000269369              -0.000153213               0.000034955               0.000078137               0.000113092               0.000000000               0.000000000               0.000000000               0.000000000               0.000155010               0.000365439              -0.000139922               0.000012449               0.000117662               0.000130111               0.000000000               0.000000000               0.000000000               0.000000000               0.000145746               0.000537128              -0.000116995              -0.000012486               0.000183203               0.000170717               0.000000000               0.000000000               0.000000000               0.000000000               0.000160279               0.000675388              -0.000090715              -0.000024319               0.000233233               0.000208915               0.000000000               0.000000000               0.000000000               0.000000000               0.000184503               0.000783398              -0.000069619              -0.000028736               0.000270709               0.000241973               0.000000000               0.000000000               0.000000000               0.000000000               0.000214151               0.000864224              -0.000052513              -0.000027721               0.000297312               0.000269591               0.000000000               0.000000000               0.000000000               0.000000000               0.000246475               0.000939767              -0.000039732              -0.000025043               0.000321600               0.000296557               0.000000000               0.000000000               0.000000000               0.000000000               0.000266741               0.001021078              -0.000036139              -0.000027607               0.000349558               0.000321951               0.000000000               0.000000000               0.000000000               0.000000000               0.000266350               0.001102777              -0.000040008              -0.000037966               0.000380244               0.000342278               0.000000000               0.000000000               0.000000000               0.000000000               0.000255840               0.001179970              -0.000043061              -0.000051556               0.000410505               0.000358949               0.000000000               0.000000000               0.000000000               0.000000000               0.000243230               0.001252677              -0.000043454              -0.000065373               0.000439346               0.000373973               0.000000000               0.000000000               0.000000000               0.000000000               0.000229507               0.001326786              -0.000040283              -0.000079783               0.000468852               0.000389069               0.000000000               0.000000000               0.000000000               0.000000000               0.000216400               0.001404430              -0.000032506              -0.000094403               0.000499607               0.000405203               0.000000000               0.000000000               0.000000000               0.000000000               0.000200890               0.001479552              -0.000023736              -0.000109610               0.000529716               0.000420106               0.000000000               0.000000000               0.000000000               0.000000000               0.000183012               0.001552701              -0.000014818              -0.000125458               0.000559381               0.000433923               0.000000000               0.000000000               0.000000000               0.000000000               0.000164176               0.001624526              -0.000006057              -0.000141500               0.000588670               0.000447170               0.000000000               0.000000000               0.000000000               0.000000000               0.000145322               0.001651759               0.000001814              -0.000151974               0.000601239               0.000449265               0.000000000               0.000000000               0.000000000               0.000000000               0.000172773               0.000212440              -0.000132533               0.000038234               0.000058068               0.000096302               0.000000000               0.000000000               0.000000000               0.000000000               0.000163680               0.000322580              -0.000135056               0.000021057               0.000100506               0.000121564               0.000000000               0.000000000               0.000000000               0.000000000               0.000161207               0.000504531              -0.000124783              -0.000002614               0.000169047               0.000166433               0.000000000               0.000000000               0.000000000               0.000000000               0.000174076               0.000647000              -0.000101625              -0.000015596               0.000220863               0.000205267               0.000000000               0.000000000               0.000000000               0.000000000               0.000191648               0.000758529              -0.000079177              -0.000022948               0.000260490               0.000237542               0.000000000               0.000000000               0.000000000               0.000000000               0.000216505               0.000853075              -0.000059445              -0.000025445               0.000292837               0.000267392               0.000000000               0.000000000               0.000000000               0.000000000               0.000250611               0.000943395              -0.000043946              -0.000023945               0.000322443               0.000298498               0.000000000               0.000000000               0.000000000               0.000000000               0.000282049               0.001031834              -0.000035505              -0.000023211               0.000351678               0.000328467               0.000000000               0.000000000               0.000000000               0.000000000               0.000296496               0.001117236              -0.000034751              -0.000028469               0.000381898               0.000353429               0.000000000               0.000000000               0.000000000               0.000000000               0.000296068               0.001196269              -0.000037169              -0.000038508               0.000411588               0.000373080               0.000000000               0.000000000               0.000000000               0.000000000               0.000288974               0.001266630              -0.000039026              -0.000049963               0.000438860               0.000388897               0.000000000               0.000000000               0.000000000               0.000000000               0.000278023               0.001333570              -0.000038400              -0.000062438               0.000465331               0.000402894               0.000000000               0.000000000               0.000000000               0.000000000               0.000268980               0.001406202              -0.000034225              -0.000074908               0.000493699               0.000418791               0.000000000               0.000000000               0.000000000               0.000000000               0.000260597               0.001481411              -0.000026682              -0.000087452               0.000522949               0.000435497               0.000000000               0.000000000               0.000000000               0.000000000               0.000248901               0.001553946              -0.000017993              -0.000100905               0.000551612               0.000450707               0.000000000               0.000000000               0.000000000               0.000000000               0.000233873               0.001623596              -0.000009507              -0.000115247               0.000579609               0.000464362               0.000000000               0.000000000               0.000000000               0.000000000               0.000216244               0.001651462              -0.000002147              -0.000125341               0.000592262               0.000466921               0.000000000               0.000000000               0.000000000               0.000000000               0.000154102               0.000165414              -0.000105534               0.000037111               0.000042767               0.000079878               0.000000000               0.000000000               0.000000000               0.000000000               0.000167347               0.000279318              -0.000120676               0.000027840               0.000083825               0.000111665               0.000000000               0.000000000               0.000000000               0.000000000               0.000178985               0.000456977              -0.000122169               0.000009997               0.000148992               0.000158989               0.000000000               0.000000000               0.000000000               0.000000000               0.000193272               0.000601289              -0.000104394              -0.000002684               0.000201322               0.000198638               0.000000000               0.000000000               0.000000000               0.000000000               0.000207981               0.000724975              -0.000084182              -0.000012629               0.000245866               0.000233236               0.000000000               0.000000000               0.000000000               0.000000000               0.000231183               0.000839666              -0.000065948              -0.000018265               0.000285974               0.000267709               0.000000000               0.000000000               0.000000000               0.000000000               0.000262451               0.000943691              -0.000049822              -0.000019542               0.000321075               0.000301532               0.000000000               0.000000000               0.000000000               0.000000000               0.000294170               0.001036191              -0.000036441              -0.000019210               0.000351797               0.000332587               0.000000000               0.000000000               0.000000000               0.000000000               0.000315915               0.001121851              -0.000029144              -0.000021763               0.000381201               0.000359438               0.000000000               0.000000000               0.000000000               0.000000000               0.000326033               0.001203118              -0.000028448              -0.000028127               0.000410411               0.000382284               0.000000000               0.000000000               0.000000000               0.000000000               0.000328592               0.001276705              -0.000029597              -0.000036366               0.000437686               0.000401320               0.000000000               0.000000000               0.000000000               0.000000000               0.000326092               0.001343720              -0.000030749              -0.000045681               0.000463129               0.000417449               0.000000000               0.000000000               0.000000000               0.000000000               0.000322187               0.001411517              -0.000030660              -0.000055619               0.000489041               0.000433421               0.000000000               0.000000000               0.000000000               0.000000000               0.000319579               0.001482676              -0.000026129              -0.000065492               0.000516051               0.000450559               0.000000000               0.000000000               0.000000000               0.000000000               0.000317501               0.001557342              -0.000019086              -0.000075605               0.000544310               0.000468706               0.000000000               0.000000000               0.000000000               0.000000000               0.000313079               0.001631724              -0.000010883              -0.000086561               0.000572756               0.000486196               0.000000000               0.000000000               0.000000000               0.000000000               0.000302635               0.001664025              -0.000004091              -0.000094515               0.000586174               0.000491659               0.000000000               0.000000000               0.000000000               0.000000000               0.000130106               0.000127210              -0.000075404               0.000032888               0.000031440               0.000064328               0.000000000               0.000000000               0.000000000               0.000000000               0.000167619               0.000233675              -0.000097099               0.000033647               0.000066675               0.000100323               0.000000000               0.000000000               0.000000000               0.000000000               0.000196782               0.000403722              -0.000106710               0.000023328               0.000126797               0.000150125               0.000000000               0.000000000               0.000000000               0.000000000               0.000214860               0.000554662              -0.000095240               0.000011240               0.000181139               0.000192378               0.000000000               0.000000000               0.000000000               0.000000000               0.000231743               0.000690499              -0.000080872               0.000000591               0.000229967               0.000230558               0.000000000               0.000000000               0.000000000               0.000000000               0.000252866               0.000816621              -0.000066596              -0.000007253               0.000274622               0.000267369               0.000000000               0.000000000               0.000000000               0.000000000               0.000277027               0.000928042              -0.000050467              -0.000012120               0.000313384               0.000301264               0.000000000               0.000000000               0.000000000               0.000000000               0.000303845               0.001026638              -0.000034260              -0.000014388               0.000347005               0.000332617               0.000000000               0.000000000               0.000000000               0.000000000               0.000329776               0.001118622              -0.000022775              -0.000016162               0.000378257               0.000362096               0.000000000               0.000000000               0.000000000               0.000000000               0.000349129               0.001205734              -0.000019636              -0.000019794               0.000408505               0.000388712               0.000000000               0.000000000               0.000000000               0.000000000               0.000361920               0.001285896              -0.000020028              -0.000025017               0.000436967               0.000411950               0.000000000               0.000000000               0.000000000               0.000000000               0.000369877               0.001357791              -0.000020941              -0.000031020               0.000462933               0.000431913               0.000000000               0.000000000               0.000000000               0.000000000               0.000372552               0.001420738              -0.000021915              -0.000037885               0.000486203               0.000448318               0.000000000               0.000000000               0.000000000               0.000000000               0.000375655               0.001486214              -0.000020528              -0.000044906               0.000510368               0.000465462               0.000000000               0.000000000               0.000000000               0.000000000               0.000382635               0.001560044              -0.000016263              -0.000051517               0.000537182               0.000485665               0.000000000               0.000000000               0.000000000               0.000000000               0.000389352               0.001633717              -0.000008776              -0.000058208               0.000563970               0.000505762               0.000000000               0.000000000               0.000000000               0.000000000               0.000388522               0.001667352              -0.000002798              -0.000062723               0.000576686               0.000513963               0.000000000               0.000000000               0.000000000               0.000000000               0.000106264               0.000097262              -0.000047777               0.000027691               0.000023190               0.000050881               0.000000000               0.000000000               0.000000000               0.000000000               0.000164729               0.000195479              -0.000067256               0.000037338               0.000052713               0.000090051               0.000000000               0.000000000               0.000000000               0.000000000               0.000210840               0.000358928              -0.000078782               0.000034199               0.000108242               0.000142441               0.000000000               0.000000000               0.000000000               0.000000000               0.000237826               0.000512888              -0.000073746               0.000025073               0.000162603               0.000187676               0.000000000               0.000000000               0.000000000               0.000000000               0.000257587               0.000655273              -0.000064753               0.000014686               0.000213527               0.000228213               0.000000000               0.000000000               0.000000000               0.000000000               0.000273990               0.000787098              -0.000053851               0.000004359               0.000260910               0.000265269               0.000000000               0.000000000               0.000000000               0.000000000               0.000291836               0.000904929              -0.000040933              -0.000003678               0.000302866               0.000299188               0.000000000               0.000000000               0.000000000               0.000000000               0.000314396               0.001012974              -0.000028102              -0.000008723               0.000340562               0.000331839               0.000000000               0.000000000               0.000000000               0.000000000               0.000341189               0.001113519              -0.000017713              -0.000011244               0.000374917               0.000363673               0.000000000               0.000000000               0.000000000               0.000000000               0.000366399               0.001206241              -0.000012587              -0.000013381               0.000406537               0.000393156               0.000000000               0.000000000               0.000000000               0.000000000               0.000386540               0.001290612              -0.000011326              -0.000016374               0.000435658               0.000419284               0.000000000               0.000000000               0.000000000               0.000000000               0.000402351               0.001365214              -0.000010871              -0.000019770               0.000461657               0.000441887               0.000000000               0.000000000               0.000000000               0.000000000               0.000413110               0.001427696              -0.000011027              -0.000023546               0.000483742               0.000460197               0.000000000               0.000000000               0.000000000               0.000000000               0.000423730               0.001491291              -0.000011471              -0.000027513               0.000506263               0.000478750               0.000000000               0.000000000               0.000000000               0.000000000               0.000436874               0.001560687              -0.000009657              -0.000031258               0.000530643               0.000499385               0.000000000               0.000000000               0.000000000               0.000000000               0.000450975               0.001628824              -0.000004996              -0.000034487               0.000554432               0.000519944               0.000000000               0.000000000               0.000000000               0.000000000               0.000457385               0.001661547              -0.000001504              -0.000036174               0.000565902               0.000529728               0.000000000               0.000000000               0.000000000               0.000000000               0.000087339               0.000078556              -0.000023644               0.000022932               0.000018541               0.000041473               0.000000000               0.000000000               0.000000000               0.000000000               0.000161021               0.000170393              -0.000034696               0.000039083               0.000043769               0.000082853               0.000000000               0.000000000               0.000000000               0.000000000               0.000222469               0.000328346              -0.000042010               0.000042382               0.000095320               0.000137702               0.000000000               0.000000000               0.000000000               0.000000000               0.000254820               0.000482774              -0.000040446               0.000035210               0.000149186               0.000184397               0.000000000               0.000000000               0.000000000               0.000000000               0.000274545               0.000627560              -0.000035630               0.000024509               0.000201015               0.000225524               0.000000000               0.000000000               0.000000000               0.000000000               0.000289150               0.000762478              -0.000029842               0.000013121               0.000249783               0.000262904               0.000000000               0.000000000               0.000000000               0.000000000               0.000304836               0.000886955              -0.000023341               0.000003444               0.000294501               0.000297945               0.000000000               0.000000000               0.000000000               0.000000000               0.000325262               0.001003767              -0.000016144              -0.000003498               0.000335752               0.000332254               0.000000000               0.000000000               0.000000000               0.000000000               0.000349484               0.001107996              -0.000009724              -0.000007443               0.000371809               0.000364366               0.000000000               0.000000000               0.000000000               0.000000000               0.000375858               0.001202260              -0.000005776              -0.000009336               0.000403861               0.000394525               0.000000000               0.000000000               0.000000000               0.000000000               0.000401238               0.001289970              -0.000004450              -0.000010782               0.000433580               0.000422798               0.000000000               0.000000000               0.000000000               0.000000000               0.000422597               0.001366231              -0.000003809              -0.000012305               0.000459508               0.000447203               0.000000000               0.000000000               0.000000000               0.000000000               0.000439963               0.001431381              -0.000003528              -0.000013936               0.000481768               0.000467831               0.000000000               0.000000000               0.000000000               0.000000000               0.000456015               0.001494969              -0.000003951              -0.000015865               0.000503606               0.000487741               0.000000000               0.000000000               0.000000000               0.000000000               0.000471606               0.001558708              -0.000003130              -0.000017986               0.000525560               0.000507573               0.000000000               0.000000000               0.000000000               0.000000000               0.000488427               0.001623935              -0.000001397              -0.000019832               0.000547917               0.000528085               0.000000000               0.000000000               0.000000000               0.000000000               0.000496932               0.001657210              -0.000000388              -0.000020802               0.000559332               0.000538530               0.000000000               0.000000000               0.000000000               0.000000000               0.000079794               0.000072152               0.000000000               0.000020904               0.000017083               0.000037986               0.000000000               0.000000000               0.000000000               0.000000000               0.000159639               0.000160961               0.000000000               0.000039744               0.000040405               0.000080149               0.000000000               0.000000000               0.000000000               0.000000000               0.000227854               0.000316846               0.000000000               0.000045839               0.000090335               0.000136174               0.000000000               0.000000000               0.000000000               0.000000000               0.000260261               0.000471904               0.000000000               0.000038610               0.000144430               0.000183040               0.000000000               0.000000000               0.000000000               0.000000000               0.000279976               0.000617518              -0.000000000               0.000027801               0.000196571               0.000224371               0.000000000               0.000000000               0.000000000               0.000000000               0.000295908               0.000753987               0.000000000               0.000016717               0.000245754               0.000262471               0.000000000               0.000000000               0.000000000               0.000000000               0.000310008               0.000880445               0.000000000               0.000006197               0.000291413               0.000297610               0.000000000               0.000000000               0.000000000               0.000000000               0.000328533               0.000998691              -0.000000000              -0.000001637               0.000333439               0.000331803               0.000000000               0.000000000               0.000000000               0.000000000               0.000352014               0.001104338               0.000000000              -0.000006037               0.000370121               0.000364084               0.000000000               0.000000000               0.000000000               0.000000000               0.000379417               0.001201044               0.000000000              -0.000007849               0.000402960               0.000395111               0.000000000               0.000000000               0.000000000               0.000000000               0.000406786               0.001290154              -0.000000000              -0.000008724               0.000432955               0.000424231               0.000000000               0.000000000               0.000000000               0.000000000               0.000429756               0.001365769              -0.000000000              -0.000009562               0.000458439               0.000448877               0.000000000               0.000000000               0.000000000               0.000000000               0.000449299               0.001432125              -0.000000000              -0.000010528               0.000480880               0.000470351               0.000000000               0.000000000               0.000000000               0.000000000               0.000466944               0.001495842               0.000000000              -0.000011876               0.000502568               0.000490692               0.000000000               0.000000000               0.000000000               0.000000000               0.000483020               0.001557205              -0.000000000              -0.000013518               0.000523569               0.000510051               0.000000000               0.000000000               0.000000000               0.000000000               0.000500355               0.001622307              -0.000000000              -0.000015155               0.000545815               0.000530660               0.000000000               0.000000000               0.000000000               0.000000000               0.000508627               0.001656261              -0.000000000              -0.000016298               0.000557514               0.000541217               0.000000000               0.000000000               0.000000000               0.000000000               0.000000000               0.000000000               0.000000000               0.000000000               0.000000000               0.000000000               0.000000000               0.000000000               0.000000000               0.000000000               0.000000000               0.000000000               0.000000000               0.000000000               0.000000000               0.000000000               0.000000000               0.000000000               0.000000000               0.000000000               0.000000000               0.000000000               0.000000000               0.000000000               0.000000000               0.000000000               0.000000000               0.000000000               0.000000000               0.000000000               0.000000000               0.000000000               0.000000000               0.000000000               0.000000000               0.000000000               0.000000000               0.000000000               0.000000000               0.000000000               0.000000000               0.000000000               0.000000000               0.000000000               0.000000000               0.000000000               0.000000000               0.000000000               0.000000000               0.000000000               0.000000000               0.000000000               0.000000000               0.000000000               0.000000000               0.000000000               0.000000000               0.000000000               0.000000000               0.000000000               0.000000000               0.000000000               0.000000000               0.000000000               0.000000000               0.000000000               0.000000000               0.000000000               0.000000000               0.000000000               0.000000000               0.000000000               0.000000000               0.000000000               0.000000000               0.000000000               0.000000000               0.000000000               0.000000000               0.000000000               0.000000000               0.000000000               0.000000000               0.000000000               0.000000000               0.000000000               0.000000000               0.000000000               0.000000000               0.000000000               0.000000000               0.000000000               0.000000000               0.000000000               0.000000000               0.000000000               0.000000000               0.000000000               0.000000000               0.000000000               0.000000000               0.000000000               0.000000000               0.000000000               0.000000000               0.000000000               0.000000000               0.000000000               0.000000000               0.000000000               0.000000000               0.000000000               0.000000000               0.000000000               0.000000000               0.000000000               0.000000000               0.000000000               0.000000000               0.000000000               0.000000000               0.000000000               0.000000000               0.000000000               0.000000000               0.000000000               0.000000000               0.000000000               0.000000000               0.000000000               0.000000000               0.000000000               0.000000000               0.000000000               0.000000000               0.000000000               0.000000000               0.000000000               0.000000000               0.000000000               0.000000000               0.000000000               0.000000000               0.000000000               0.000000000               0.000000000               0.000000000               0.000000000               0.000000000               0.000000000               0.000000000               0.000000000               0.000000000               0.000000000               0.000000000               0.000000000               0.000000000               0.000000000               0.000000000               0.000000000               0.000000000               0.000000000               0.000000000               0.000000000               0.000000000               0.000000000               0.000000000               0.000000000               0.000000000               0.000000000               0.000079817               0.000705650               0.000056896              -0.000058275               0.000254639               0.000196364               0.000000000               0.000000000               0.000000000               0.000000000               0.000100677               0.000603833               0.000038603              -0.000037725               0.000213851               0.000176126               0.000000000               0.000000000               0.000000000               0.000000000               0.000148610               0.000531246               0.000017242              -0.000010677               0.000180639               0.000169962               0.000000000               0.000000000               0.000000000               0.000000000               0.000164366               0.000502742               0.000005150              -0.000001205               0.000167981               0.000166775               0.000000000               0.000000000               0.000000000               0.000000000               0.000163033               0.000498709              -0.000001370              -0.000001201               0.000166635               0.000165434               0.000000000               0.000000000               0.000000000               0.000000000               0.000159112               0.000501854              -0.000000684              -0.000003065               0.000168304               0.000165240               0.000000000               0.000000000               0.000000000               0.000000000               0.000159446               0.000497458               0.000006706              -0.000002390               0.000166614               0.000164224               0.000000000               0.000000000               0.000000000               0.000000000               0.000158907               0.000482990               0.000010317              -0.000000784               0.000161256               0.000160473               0.000000000               0.000000000               0.000000000               0.000000000               0.000157677               0.000469822               0.000011145               0.000000401               0.000156472               0.000156873               0.000000000               0.000000000               0.000000000               0.000000000               0.000157326               0.000458629               0.000013441               0.000001668               0.000152319               0.000153987               0.000000000               0.000000000               0.000000000               0.000000000               0.000152771               0.000450009               0.000013671               0.000001038               0.000149656               0.000150693               0.000000000               0.000000000               0.000000000               0.000000000               0.000142090               0.000447084               0.000012702              -0.000002602               0.000149894               0.000147292               0.000000000               0.000000000               0.000000000               0.000000000               0.000126551               0.000451130               0.000011072              -0.000008935               0.000153353               0.000144419               0.000000000               0.000000000               0.000000000               0.000000000               0.000103539               0.000461783               0.000008245              -0.000018896               0.000160225               0.000141329               0.000000000               0.000000000               0.000000000               0.000000000               0.000073271               0.000478759               0.000005180              -0.000032368               0.000170374               0.000138006               0.000000000               0.000000000               0.000000000               0.000000000               0.000038135               0.000501909               0.000002376              -0.000048438               0.000183447               0.000135009               0.000000000               0.000000000               0.000000000               0.000000000               0.000022969               0.000523319               0.000002254              -0.000056801               0.000193371               0.000136570               0.000000000               0.000000000               0.000000000               0.000000000               0.000094293               0.000679330               0.000107263              -0.000049556               0.000242960               0.000193404               0.000000000               0.000000000               0.000000000               0.000000000               0.000107332               0.000584099               0.000072226              -0.000032763               0.000205619               0.000172856               0.000000000               0.000000000               0.000000000               0.000000000               0.000145627               0.000521647               0.000031930              -0.000010596               0.000177413               0.000166817               0.000000000               0.000000000               0.000000000               0.000000000               0.000158475               0.000500655               0.000008460              -0.000003154               0.000167935               0.000164781               0.000000000               0.000000000               0.000000000               0.000000000               0.000159092               0.000499764              -0.000002596              -0.000002811               0.000167523               0.000164712               0.000000000               0.000000000               0.000000000               0.000000000               0.000156439               0.000500143               0.000000267              -0.000003853               0.000167997               0.000164144               0.000000000               0.000000000               0.000000000               0.000000000               0.000158274               0.000495442               0.000013106              -0.000002577               0.000166005               0.000163427               0.000000000               0.000000000               0.000000000               0.000000000               0.000159518               0.000489309               0.000019137              -0.000001344               0.000163549               0.000162205               0.000000000               0.000000000               0.000000000               0.000000000               0.000157395               0.000487693               0.000019976              -0.000001938               0.000163209               0.000161271               0.000000000               0.000000000               0.000000000               0.000000000               0.000151657               0.000489143               0.000023605              -0.000004272               0.000164470               0.000160198               0.000000000               0.000000000               0.000000000               0.000000000               0.000139412               0.000494430               0.000024700              -0.000009524               0.000167983               0.000158459               0.000000000               0.000000000               0.000000000               0.000000000               0.000122925               0.000503790               0.000023702              -0.000016877               0.000173554               0.000156677               0.000000000               0.000000000               0.000000000               0.000000000               0.000105867               0.000518289               0.000021523              -0.000025086               0.000181123               0.000156038               0.000000000               0.000000000               0.000000000               0.000000000               0.000085152               0.000536944               0.000017428              -0.000035186               0.000190708               0.000155522               0.000000000               0.000000000               0.000000000               0.000000000               0.000059303               0.000559315               0.000012225              -0.000047676               0.000202328               0.000154653               0.000000000               0.000000000               0.000000000               0.000000000               0.000030302               0.000586580               0.000006315              -0.000061959               0.000216178               0.000154219               0.000000000               0.000000000               0.000000000               0.000000000               0.000019689               0.000610619               0.000005568              -0.000068944               0.000226519               0.000157575               0.000000000               0.000000000               0.000000000               0.000000000               0.000114627               0.000634570               0.000149486              -0.000036336               0.000223633               0.000187297               0.000000000               0.000000000               0.000000000               0.000000000               0.000116821               0.000552741               0.000098476              -0.000025285               0.000192673               0.000167389               0.000000000               0.000000000               0.000000000               0.000000000               0.000142049               0.000508982               0.000040690              -0.000010354               0.000173110               0.000162756               0.000000000               0.000000000               0.000000000               0.000000000               0.000147462               0.000502123               0.000010752              -0.000007467               0.000169862               0.000162395               0.000000000               0.000000000               0.000000000               0.000000000               0.000148365               0.000504423              -0.000001550              -0.000007416               0.000170611               0.000163195               0.000000000               0.000000000               0.000000000               0.000000000               0.000153103               0.000507758               0.000003462              -0.000006056               0.000171270               0.000165213               0.000000000               0.000000000               0.000000000               0.000000000               0.000161519               0.000507369               0.000019220              -0.000002852               0.000170072               0.000167220               0.000000000               0.000000000               0.000000000               0.000000000               0.000167194               0.000514838               0.000026837              -0.000001657               0.000172163               0.000170506               0.000000000               0.000000000               0.000000000               0.000000000               0.000161413               0.000527796               0.000029430              -0.000005444               0.000177745               0.000172301               0.000000000               0.000000000               0.000000000               0.000000000               0.000148117               0.000546745               0.000034585              -0.000012799               0.000186513               0.000173714               0.000000000               0.000000000               0.000000000               0.000000000               0.000129493               0.000571462               0.000036438              -0.000022873               0.000198110               0.000175237               0.000000000               0.000000000               0.000000000               0.000000000               0.000107408               0.000599652               0.000036180              -0.000034678               0.000211441               0.000176763               0.000000000               0.000000000               0.000000000               0.000000000               0.000087548               0.000631456               0.000033777              -0.000046101               0.000225850               0.000179749               0.000000000               0.000000000               0.000000000               0.000000000               0.000067727               0.000664780               0.000028696              -0.000057700               0.000240824               0.000183125               0.000000000               0.000000000               0.000000000               0.000000000               0.000044919               0.000698089               0.000021475              -0.000070416               0.000256166               0.000185750               0.000000000               0.000000000               0.000000000               0.000000000               0.000021977               0.000732572               0.000011834              -0.000083330               0.000271965               0.000188635               0.000000000               0.000000000               0.000000000               0.000000000               0.000016037               0.000759193               0.000009377              -0.000088885               0.000282690               0.000193805               0.000000000               0.000000000               0.000000000               0.000000000               0.000137783               0.000586274               0.000176150              -0.000021616               0.000202628               0.000181012               0.000000000               0.000000000               0.000000000               0.000000000               0.000125248               0.000520598               0.000114066              -0.000018107               0.000179567               0.000161460               0.000000000               0.000000000               0.000000000               0.000000000               0.000135225               0.000501159               0.000045919              -0.000011935               0.000171030               0.000159094               0.000000000               0.000000000               0.000000000               0.000000000               0.000134019               0.000509985               0.000013824              -0.000013491               0.000174490               0.000160999               0.000000000               0.000000000               0.000000000               0.000000000               0.000139220               0.000524007               0.000002253              -0.000013293               0.000179099               0.000165805               0.000000000               0.000000000               0.000000000               0.000000000               0.000152030               0.000534671               0.000010628              -0.000009823               0.000181496               0.000171674               0.000000000               0.000000000               0.000000000               0.000000000               0.000165665               0.000547224               0.000028333              -0.000006278               0.000184499               0.000178221               0.000000000               0.000000000               0.000000000               0.000000000               0.000173237               0.000573725               0.000036141              -0.000006752               0.000193490               0.000186739               0.000000000               0.000000000               0.000000000               0.000000000               0.000167659               0.000606692               0.000038956              -0.000012964               0.000206550               0.000193586               0.000000000               0.000000000               0.000000000               0.000000000               0.000154263               0.000646952               0.000043301              -0.000023020               0.000223322               0.000200302               0.000000000               0.000000000               0.000000000               0.000000000               0.000132895               0.000689917               0.000044740              -0.000036404               0.000242105               0.000205701               0.000000000               0.000000000               0.000000000               0.000000000               0.000108546               0.000735533               0.000043378              -0.000051237               0.000262254               0.000211017               0.000000000               0.000000000               0.000000000               0.000000000               0.000087385               0.000783220               0.000039719              -0.000065133               0.000282782               0.000217649               0.000000000               0.000000000               0.000000000               0.000000000               0.000065447               0.000829604               0.000033458              -0.000079158               0.000302918               0.000223760               0.000000000               0.000000000               0.000000000               0.000000000               0.000041473               0.000873023               0.000024816              -0.000093575               0.000322196               0.000228621               0.000000000               0.000000000               0.000000000               0.000000000               0.000019628               0.000913487               0.000013445              -0.000106825               0.000340101               0.000233276               0.000000000               0.000000000               0.000000000               0.000000000               0.000014848               0.000941289               0.000010119              -0.000112093               0.000351124               0.000239031               0.000000000               0.000000000               0.000000000               0.000000000               0.000158075               0.000533247               0.000191690              -0.000007378               0.000180207               0.000172829               0.000000000               0.000000000               0.000000000               0.000000000               0.000128799               0.000488504               0.000123086              -0.000012763               0.000167087               0.000154324               0.000000000               0.000000000               0.000000000               0.000000000               0.000125047               0.000502189               0.000050973              -0.000015881               0.000172688               0.000156807               0.000000000               0.000000000               0.000000000               0.000000000               0.000124059               0.000529822               0.000019179              -0.000019706               0.000183174               0.000163469               0.000000000               0.000000000               0.000000000               0.000000000               0.000134108               0.000560007               0.000010485              -0.000019710               0.000193237               0.000173527               0.000000000               0.000000000               0.000000000               0.000000000               0.000154885               0.000589950               0.000019859              -0.000015662               0.000201869               0.000186207               0.000000000               0.000000000               0.000000000               0.000000000               0.000178114               0.000629067               0.000035679              -0.000011841               0.000213634               0.000201793               0.000000000               0.000000000               0.000000000               0.000000000               0.000186032               0.000676176               0.000041987              -0.000014760               0.000230310               0.000215550               0.000000000               0.000000000               0.000000000               0.000000000               0.000177191               0.000729063               0.000044148              -0.000024686               0.000251247               0.000226561               0.000000000               0.000000000               0.000000000               0.000000000               0.000160257               0.000783470               0.000047801              -0.000037837               0.000273766               0.000235929               0.000000000               0.000000000               0.000000000               0.000000000               0.000137809               0.000838575               0.000048985              -0.000053143               0.000297237               0.000244093               0.000000000               0.000000000               0.000000000               0.000000000               0.000115425               0.000893639               0.000045997              -0.000068420               0.000320683               0.000252263               0.000000000               0.000000000               0.000000000               0.000000000               0.000094721               0.000948207               0.000040623              -0.000083005               0.000343734               0.000260729               0.000000000               0.000000000               0.000000000               0.000000000               0.000071087               0.000999008               0.000032967              -0.000098218               0.000365739               0.000267521               0.000000000               0.000000000               0.000000000               0.000000000               0.000045692               0.001044810               0.000023530              -0.000113466               0.000386089               0.000272622               0.000000000               0.000000000               0.000000000               0.000000000               0.000022232               0.001085809               0.000012315              -0.000127389               0.000404396               0.000277007               0.000000000               0.000000000               0.000000000               0.000000000               0.000016318               0.001112991               0.000009178              -0.000133004               0.000415328               0.000282324               0.000000000               0.000000000               0.000000000               0.000000000               0.000173130               0.000475191               0.000197487               0.000005524               0.000156554               0.000162078               0.000000000               0.000000000               0.000000000               0.000000000               0.000130972               0.000459588               0.000126830              -0.000008334               0.000155972               0.000147638               0.000000000               0.000000000               0.000000000               0.000000000               0.000116606               0.000512904               0.000057510              -0.000020386               0.000177761               0.000157376               0.000000000               0.000000000               0.000000000               0.000000000               0.000118845               0.000567411               0.000029350              -0.000026359               0.000197922               0.000171562               0.000000000               0.000000000               0.000000000               0.000000000               0.000141043               0.000621458               0.000019895              -0.000024791               0.000215414               0.000190623               0.000000000               0.000000000               0.000000000               0.000000000               0.000173397               0.000675797               0.000027231              -0.000019451               0.000231747               0.000212296               0.000000000               0.000000000               0.000000000               0.000000000               0.000198446               0.000732192               0.000042272              -0.000017107               0.000249764               0.000232657               0.000000000               0.000000000               0.000000000               0.000000000               0.000203124               0.000795868               0.000048190              -0.000023312               0.000273058               0.000249745               0.000000000               0.000000000               0.000000000               0.000000000               0.000189822               0.000862712               0.000050253              -0.000036656               0.000299786               0.000263131               0.000000000               0.000000000               0.000000000               0.000000000               0.000168066               0.000924374               0.000053062              -0.000052522               0.000325629               0.000273107               0.000000000               0.000000000               0.000000000               0.000000000               0.000142685               0.000984583               0.000051444              -0.000069566               0.000351380               0.000281814               0.000000000               0.000000000               0.000000000               0.000000000               0.000119872               0.001044533               0.000045822              -0.000085615               0.000376712               0.000291098               0.000000000               0.000000000               0.000000000               0.000000000               0.000098068               0.001101422               0.000037878              -0.000100902               0.000400771               0.000299869               0.000000000               0.000000000               0.000000000               0.000000000               0.000072200               0.001153069               0.000029393              -0.000117058               0.000423372               0.000306313               0.000000000               0.000000000               0.000000000               0.000000000               0.000046467               0.001199917               0.000020040              -0.000132564               0.000444156               0.000311592               0.000000000               0.000000000               0.000000000               0.000000000               0.000023525               0.001242645               0.000010026              -0.000146509               0.000463047               0.000316538               0.000000000               0.000000000               0.000000000               0.000000000               0.000017626               0.001271516               0.000008220              -0.000152329               0.000474611               0.000322281               0.000000000               0.000000000               0.000000000               0.000000000               0.000179194               0.000417162               0.000192485               0.000015052               0.000134035               0.000149087               0.000000000               0.000000000               0.000000000               0.000000000               0.000130922               0.000440661               0.000129058              -0.000005987               0.000148881               0.000142894               0.000000000               0.000000000               0.000000000               0.000000000               0.000115406               0.000537344               0.000066802              -0.000023891               0.000187076               0.000163186               0.000000000               0.000000000               0.000000000               0.000000000               0.000128132               0.000621560               0.000040648              -0.000029646               0.000217066               0.000187421               0.000000000               0.000000000               0.000000000               0.000000000               0.000161088               0.000698728               0.000031725              -0.000026933               0.000241885               0.000214952               0.000000000               0.000000000               0.000000000               0.000000000               0.000199755               0.000766500               0.000038386              -0.000020904               0.000262466               0.000241561               0.000000000               0.000000000               0.000000000               0.000000000               0.000222488               0.000833960               0.000049362              -0.000020812               0.000284921               0.000264109               0.000000000               0.000000000               0.000000000               0.000000000               0.000220208               0.000909678               0.000051818              -0.000031131               0.000313600               0.000282469               0.000000000               0.000000000               0.000000000               0.000000000               0.000199729               0.000980586               0.000052457              -0.000047675               0.000342750               0.000295076               0.000000000               0.000000000               0.000000000               0.000000000               0.000174316               0.001047065               0.000053918              -0.000065514               0.000370856               0.000305342               0.000000000               0.000000000               0.000000000               0.000000000               0.000148613               0.001113209               0.000048013              -0.000083421               0.000398873               0.000315452               0.000000000               0.000000000               0.000000000               0.000000000               0.000123825               0.001179648               0.000039322              -0.000101021               0.000426886               0.000325865               0.000000000               0.000000000               0.000000000               0.000000000               0.000097275               0.001242386               0.000030938              -0.000118820               0.000453731               0.000334911               0.000000000               0.000000000               0.000000000               0.000000000               0.000069818               0.001301586               0.000021991              -0.000136516               0.000479363               0.000342847               0.000000000               0.000000000               0.000000000               0.000000000               0.000045009               0.001359546               0.000013865              -0.000153064               0.000504199               0.000351135               0.000000000               0.000000000               0.000000000               0.000000000               0.000022755               0.001413641               0.000006787              -0.000168171               0.000527266               0.000359095               0.000000000               0.000000000               0.000000000               0.000000000               0.000016382               0.001448492               0.000006528              -0.000174918               0.000541132               0.000366214               0.000000000               0.000000000               0.000000000               0.000000000               0.000184938               0.000368184               0.000181191               0.000023328               0.000114951               0.000138279               0.000000000               0.000000000               0.000000000               0.000000000               0.000135974               0.000430401               0.000131880              -0.000002810               0.000144402               0.000141592               0.000000000               0.000000000               0.000000000               0.000000000               0.000119512               0.000564428               0.000079994              -0.000025736               0.000196720               0.000170983               0.000000000               0.000000000               0.000000000               0.000000000               0.000141279               0.000670425               0.000054385              -0.000030823               0.000233747               0.000202924               0.000000000               0.000000000               0.000000000               0.000000000               0.000181077               0.000761150               0.000043924              -0.000027240               0.000262794               0.000235554               0.000000000               0.000000000               0.000000000               0.000000000               0.000220895               0.000834375               0.000043917              -0.000021461               0.000285276               0.000263815               0.000000000               0.000000000               0.000000000               0.000000000               0.000240822               0.000908047               0.000046575              -0.000023197               0.000310412               0.000287214               0.000000000               0.000000000               0.000000000               0.000000000               0.000230600               0.000987612               0.000047725              -0.000036976               0.000341526               0.000304550               0.000000000               0.000000000               0.000000000               0.000000000               0.000206344               0.001061100               0.000049015              -0.000055259               0.000372116               0.000316858               0.000000000               0.000000000               0.000000000               0.000000000               0.000182910               0.001133341               0.000047901              -0.000073076               0.000402135               0.000329059               0.000000000               0.000000000               0.000000000               0.000000000               0.000160720               0.001209354               0.000040403              -0.000090899               0.000433414               0.000342515               0.000000000               0.000000000               0.000000000               0.000000000               0.000138013               0.001284924               0.000031271              -0.000108860               0.000464590               0.000355730               0.000000000               0.000000000               0.000000000               0.000000000               0.000113034               0.001357331               0.000023409              -0.000127278               0.000494865               0.000367587               0.000000000               0.000000000               0.000000000               0.000000000               0.000088575               0.001428627               0.000014357              -0.000145362               0.000524658               0.000379296               0.000000000               0.000000000               0.000000000               0.000000000               0.000066186               0.001498911               0.000006365              -0.000162544               0.000553813               0.000391269               0.000000000               0.000000000               0.000000000               0.000000000               0.000046635               0.001564056               0.000001606              -0.000178018               0.000580686               0.000402668               0.000000000               0.000000000               0.000000000               0.000000000               0.000037159               0.001598936               0.000000643              -0.000185932               0.000594951               0.000409019               0.000000000               0.000000000               0.000000000               0.000000000               0.000187240               0.000321564               0.000168572               0.000030019               0.000097180               0.000127200               0.000000000               0.000000000               0.000000000               0.000000000               0.000144836               0.000404316               0.000136892               0.000003774               0.000133512               0.000137286               0.000000000               0.000000000               0.000000000               0.000000000               0.000131140               0.000559757               0.000099736              -0.000020792               0.000193515               0.000172722               0.000000000               0.000000000               0.000000000               0.000000000               0.000151671               0.000684157               0.000074342              -0.000028643               0.000237598               0.000208955               0.000000000               0.000000000               0.000000000               0.000000000               0.000186088               0.000787193               0.000058269              -0.000028616               0.000271934               0.000243318               0.000000000               0.000000000               0.000000000               0.000000000               0.000221399               0.000863889               0.000048358              -0.000024961               0.000296281               0.000271319               0.000000000               0.000000000               0.000000000               0.000000000               0.000246664               0.000934452               0.000042206              -0.000024308               0.000319583               0.000295276               0.000000000               0.000000000               0.000000000               0.000000000               0.000248528               0.001012535               0.000041914              -0.000033369               0.000348631               0.000315263               0.000000000               0.000000000               0.000000000               0.000000000               0.000232595               0.001089899               0.000045585              -0.000049014               0.000379634               0.000330620               0.000000000               0.000000000               0.000000000               0.000000000               0.000213423               0.001164079               0.000045533              -0.000065476               0.000409848               0.000344372               0.000000000               0.000000000               0.000000000               0.000000000               0.000194855               0.001239950               0.000041566              -0.000081923               0.000440620               0.000358697               0.000000000               0.000000000               0.000000000               0.000000000               0.000178005               0.001319280               0.000035553              -0.000098158               0.000472475               0.000374317               0.000000000               0.000000000               0.000000000               0.000000000               0.000159381               0.001397703               0.000027252              -0.000114945               0.000504211               0.000389267               0.000000000               0.000000000               0.000000000               0.000000000               0.000138345               0.001472825               0.000018775              -0.000132223               0.000535011               0.000402788               0.000000000               0.000000000               0.000000000               0.000000000               0.000118519               0.001548660               0.000010565              -0.000149138               0.000565927               0.000416790               0.000000000               0.000000000               0.000000000               0.000000000               0.000101018               0.001625328               0.000003703              -0.000165284               0.000596865               0.000431581               0.000000000               0.000000000               0.000000000               0.000000000               0.000086202               0.001658723              -0.000001654              -0.000175014               0.000611240               0.000436226               0.000000000               0.000000000               0.000000000               0.000000000               0.000183003               0.000269369               0.000153213               0.000034955               0.000078137               0.000113092               0.000000000               0.000000000               0.000000000               0.000000000               0.000155010               0.000365439               0.000139922               0.000012449               0.000117662               0.000130111               0.000000000               0.000000000               0.000000000               0.000000000               0.000145746               0.000537128               0.000116995              -0.000012486               0.000183203               0.000170717               0.000000000               0.000000000               0.000000000               0.000000000               0.000160279               0.000675388               0.000090715              -0.000024319               0.000233233               0.000208915               0.000000000               0.000000000               0.000000000               0.000000000               0.000184503               0.000783398               0.000069619              -0.000028736               0.000270709               0.000241973               0.000000000               0.000000000               0.000000000               0.000000000               0.000214151               0.000864224               0.000052513              -0.000027721               0.000297312               0.000269591               0.000000000               0.000000000               0.000000000               0.000000000               0.000246475               0.000939767               0.000039732              -0.000025043               0.000321600               0.000296557               0.000000000               0.000000000               0.000000000               0.000000000               0.000266741               0.001021078               0.000036139              -0.000027607               0.000349558               0.000321951               0.000000000               0.000000000               0.000000000               0.000000000               0.000266350               0.001102777               0.000040008              -0.000037966               0.000380244               0.000342278               0.000000000               0.000000000               0.000000000               0.000000000               0.000255840               0.001179970               0.000043061              -0.000051556               0.000410505               0.000358949               0.000000000               0.000000000               0.000000000               0.000000000               0.000243230               0.001252677               0.000043454              -0.000065373               0.000439346               0.000373973               0.000000000               0.000000000               0.000000000               0.000000000               0.000229507               0.001326786               0.000040283              -0.000079783               0.000468852               0.000389069               0.000000000               0.000000000               0.000000000               0.000000000               0.000216400               0.001404430               0.000032506              -0.000094403               0.000499607               0.000405203               0.000000000               0.000000000               0.000000000               0.000000000               0.000200890               0.001479552               0.000023736              -0.000109610               0.000529716               0.000420106               0.000000000               0.000000000               0.000000000               0.000000000               0.000183012               0.001552701               0.000014818              -0.000125458               0.000559381               0.000433923               0.000000000               0.000000000               0.000000000               0.000000000               0.000164176               0.001624526               0.000006057              -0.000141500               0.000588670               0.000447170               0.000000000               0.000000000               0.000000000               0.000000000               0.000145322               0.001651759              -0.000001814              -0.000151974               0.000601239               0.000449265               0.000000000               0.000000000               0.000000000               0.000000000               0.000172773               0.000212440               0.000132533               0.000038234               0.000058068               0.000096302               0.000000000               0.000000000               0.000000000               0.000000000               0.000163680               0.000322580               0.000135056               0.000021057               0.000100506               0.000121564               0.000000000               0.000000000               0.000000000               0.000000000               0.000161207               0.000504531               0.000124783              -0.000002614               0.000169047               0.000166433               0.000000000               0.000000000               0.000000000               0.000000000               0.000174076               0.000647000               0.000101625              -0.000015596               0.000220863               0.000205267               0.000000000               0.000000000               0.000000000               0.000000000               0.000191648               0.000758529               0.000079177              -0.000022948               0.000260490               0.000237542               0.000000000               0.000000000               0.000000000               0.000000000               0.000216505               0.000853075               0.000059445              -0.000025445               0.000292837               0.000267392               0.000000000               0.000000000               0.000000000               0.000000000               0.000250611               0.000943395               0.000043946              -0.000023945               0.000322443               0.000298498               0.000000000               0.000000000               0.000000000               0.000000000               0.000282049               0.001031834               0.000035505              -0.000023211               0.000351678               0.000328467               0.000000000               0.000000000               0.000000000               0.000000000               0.000296496               0.001117236               0.000034751              -0.000028469               0.000381898               0.000353429               0.000000000               0.000000000               0.000000000               0.000000000               0.000296068               0.001196269               0.000037169              -0.000038508               0.000411588               0.000373080               0.000000000               0.000000000               0.000000000               0.000000000               0.000288974               0.001266630               0.000039026              -0.000049963               0.000438860               0.000388897               0.000000000               0.000000000               0.000000000               0.000000000               0.000278023               0.001333570               0.000038400              -0.000062438               0.000465331               0.000402894               0.000000000               0.000000000               0.000000000               0.000000000               0.000268980               0.001406202               0.000034225              -0.000074908               0.000493699               0.000418791               0.000000000               0.000000000               0.000000000               0.000000000               0.000260597               0.001481411               0.000026682              -0.000087452               0.000522949               0.000435497               0.000000000               0.000000000               0.000000000               0.000000000               0.000248901               0.001553946               0.000017993              -0.000100905               0.000551612               0.000450707               0.000000000               0.000000000               0.000000000               0.000000000               0.000233873               0.001623596               0.000009507              -0.000115247               0.000579609               0.000464362               0.000000000               0.000000000               0.000000000               0.000000000               0.000216244               0.001651462               0.000002147              -0.000125341               0.000592262               0.000466921               0.000000000               0.000000000               0.000000000               0.000000000               0.000154102               0.000165414               0.000105534               0.000037111               0.000042767               0.000079878               0.000000000               0.000000000               0.000000000               0.000000000               0.000167347               0.000279318               0.000120676               0.000027840               0.000083825               0.000111665               0.000000000               0.000000000               0.000000000               0.000000000               0.000178985               0.000456977               0.000122169               0.000009997               0.000148992               0.000158989               0.000000000               0.000000000               0.000000000               0.000000000               0.000193272               0.000601289               0.000104394              -0.000002684               0.000201322               0.000198638               0.000000000               0.000000000               0.000000000               0.000000000               0.000207981               0.000724975               0.000084182              -0.000012629               0.000245866               0.000233236               0.000000000               0.000000000               0.000000000               0.000000000               0.000231183               0.000839666               0.000065948              -0.000018265               0.000285974               0.000267709               0.000000000               0.000000000               0.000000000               0.000000000               0.000262451               0.000943691               0.000049822              -0.000019542               0.000321075               0.000301532               0.000000000               0.000000000               0.000000000               0.000000000               0.000294170               0.001036191               0.000036441              -0.000019210               0.000351797               0.000332587               0.000000000               0.000000000               0.000000000               0.000000000               0.000315915               0.001121851               0.000029144              -0.000021763               0.000381201               0.000359438               0.000000000               0.000000000               0.000000000               0.000000000               0.000326033               0.001203118               0.000028448              -0.000028127               0.000410411               0.000382284               0.000000000               0.000000000               0.000000000               0.000000000               0.000328592               0.001276705               0.000029597              -0.000036366               0.000437686               0.000401320               0.000000000               0.000000000               0.000000000               0.000000000               0.000326092               0.001343720               0.000030749              -0.000045681               0.000463129               0.000417449               0.000000000               0.000000000               0.000000000               0.000000000               0.000322187               0.001411517               0.000030660              -0.000055619               0.000489041               0.000433421               0.000000000               0.000000000               0.000000000               0.000000000               0.000319579               0.001482676               0.000026129              -0.000065492               0.000516051               0.000450559               0.000000000               0.000000000               0.000000000               0.000000000               0.000317501               0.001557342               0.000019086              -0.000075605               0.000544310               0.000468706               0.000000000               0.000000000               0.000000000               0.000000000               0.000313079               0.001631724               0.000010883              -0.000086561               0.000572756               0.000486196               0.000000000               0.000000000               0.000000000               0.000000000               0.000302635               0.001664025               0.000004091              -0.000094515               0.000586174               0.000491659               0.000000000               0.000000000               0.000000000               0.000000000               0.000130106               0.000127210               0.000075404               0.000032888               0.000031440               0.000064328               0.000000000               0.000000000               0.000000000               0.000000000               0.000167619               0.000233675               0.000097099               0.000033647               0.000066675               0.000100323               0.000000000               0.000000000               0.000000000               0.000000000               0.000196782               0.000403722               0.000106710               0.000023328               0.000126797               0.000150125               0.000000000               0.000000000               0.000000000               0.000000000               0.000214860               0.000554662               0.000095240               0.000011240               0.000181139               0.000192378               0.000000000               0.000000000               0.000000000               0.000000000               0.000231743               0.000690499               0.000080872               0.000000591               0.000229967               0.000230558               0.000000000               0.000000000               0.000000000               0.000000000               0.000252866               0.000816621               0.000066596              -0.000007253               0.000274622               0.000267369               0.000000000               0.000000000               0.000000000               0.000000000               0.000277027               0.000928042               0.000050467              -0.000012120               0.000313384               0.000301264               0.000000000               0.000000000               0.000000000               0.000000000               0.000303845               0.001026638               0.000034260              -0.000014388               0.000347005               0.000332617               0.000000000               0.000000000               0.000000000               0.000000000               0.000329776               0.001118622               0.000022775              -0.000016162               0.000378257               0.000362096               0.000000000               0.000000000               0.000000000               0.000000000               0.000349129               0.001205734               0.000019636              -0.000019794               0.000408505               0.000388712               0.000000000               0.000000000               0.000000000               0.000000000               0.000361920               0.001285896               0.000020028              -0.000025017               0.000436967               0.000411950               0.000000000               0.000000000               0.000000000               0.000000000               0.000369877               0.001357791               0.000020941              -0.000031020               0.000462933               0.000431913               0.000000000               0.000000000               0.000000000               0.000000000               0.000372552               0.001420738               0.000021915              -0.000037885               0.000486203               0.000448318               0.000000000               0.000000000               0.000000000               0.000000000               0.000375655               0.001486214               0.000020528              -0.000044906               0.000510368               0.000465462               0.000000000               0.000000000               0.000000000               0.000000000               0.000382635               0.001560044               0.000016263              -0.000051517               0.000537182               0.000485665               0.000000000               0.000000000               0.000000000               0.000000000               0.000389352               0.001633717               0.000008776              -0.000058208               0.000563970               0.000505762               0.000000000               0.000000000               0.000000000               0.000000000               0.000388522               0.001667352               0.000002798              -0.000062723               0.000576686               0.000513963               0.000000000               0.000000000               0.000000000               0.000000000               0.000106264               0.000097262               0.000047777               0.000027691               0.000023190               0.000050881               0.000000000               0.000000000               0.000000000               0.000000000               0.000164729               0.000195479               0.000067256               0.000037338               0.000052713               0.000090051               0.000000000               0.000000000               0.000000000               0.000000000               0.000210840               0.000358928               0.000078782               0.000034199               0.000108242               0.000142441               0.000000000               0.000000000               0.000000000               0.000000000               0.000237826               0.000512888               0.000073746               0.000025073               0.000162603               0.000187676               0.000000000               0.000000000               0.000000000               0.000000000               0.000257587               0.000655273               0.000064753               0.000014686               0.000213527               0.000228213               0.000000000               0.000000000               0.000000000               0.000000000               0.000273990               0.000787098               0.000053851               0.000004359               0.000260910               0.000265269               0.000000000               0.000000000               0.000000000               0.000000000               0.000291836               0.000904929               0.000040933              -0.000003678               0.000302866               0.000299188               0.000000000               0.000000000               0.000000000               0.000000000               0.000314396               0.001012974               0.000028102              -0.000008723               0.000340562               0.000331839               0.000000000               0.000000000               0.000000000               0.000000000               0.000341189               0.001113519               0.000017713              -0.000011244               0.000374917               0.000363673               0.000000000               0.000000000               0.000000000               0.000000000               0.000366399               0.001206241               0.000012587              -0.000013381               0.000406537               0.000393156               0.000000000               0.000000000               0.000000000               0.000000000               0.000386540               0.001290612               0.000011326              -0.000016374               0.000435658               0.000419284               0.000000000               0.000000000               0.000000000               0.000000000               0.000402351               0.001365214               0.000010871              -0.000019770               0.000461657               0.000441887               0.000000000               0.000000000               0.000000000               0.000000000               0.000413110               0.001427696               0.000011027              -0.000023546               0.000483742               0.000460197               0.000000000               0.000000000               0.000000000               0.000000000               0.000423730               0.001491291               0.000011471              -0.000027513               0.000506263               0.000478750               0.000000000               0.000000000               0.000000000               0.000000000               0.000436874               0.001560687               0.000009657              -0.000031258               0.000530643               0.000499385               0.000000000               0.000000000               0.000000000               0.000000000               0.000450975               0.001628824               0.000004996              -0.000034487               0.000554432               0.000519944               0.000000000               0.000000000               0.000000000               0.000000000               0.000457385               0.001661547               0.000001504              -0.000036174               0.000565902               0.000529728               0.000000000               0.000000000               0.000000000               0.000000000               0.000087339               0.000078556               0.000023644               0.000022932               0.000018541               0.000041473               0.000000000               0.000000000               0.000000000               0.000000000               0.000161021               0.000170393               0.000034696               0.000039083               0.000043769               0.000082853               0.000000000               0.000000000               0.000000000               0.000000000               0.000222469               0.000328346               0.000042010               0.000042382               0.000095320               0.000137702               0.000000000               0.000000000               0.000000000               0.000000000               0.000254820               0.000482774               0.000040446               0.000035210               0.000149186               0.000184397               0.000000000               0.000000000               0.000000000               0.000000000               0.000274545               0.000627560               0.000035630               0.000024509               0.000201015               0.000225524               0.000000000               0.000000000               0.000000000               0.000000000               0.000289150               0.000762478               0.000029842               0.000013121               0.000249783               0.000262904               0.000000000               0.000000000               0.000000000               0.000000000               0.000304836               0.000886955               0.000023341               0.000003444               0.000294501               0.000297945               0.000000000               0.000000000               0.000000000               0.000000000               0.000325262               0.001003767               0.000016144              -0.000003498               0.000335752               0.000332254               0.000000000               0.000000000               0.000000000               0.000000000               0.000349484               0.001107996               0.000009724              -0.000007443               0.000371809               0.000364366               0.000000000               0.000000000               0.000000000               0.000000000               0.000375858               0.001202260               0.000005776              -0.000009336               0.000403861               0.000394525               0.000000000               0.000000000               0.000000000               0.000000000               0.000401238               0.001289970               0.000004450              -0.000010782               0.000433580               0.000422798               0.000000000               0.000000000               0.000000000               0.000000000               0.000422597               0.001366231               0.000003809              -0.000012305               0.000459508               0.000447203               0.000000000               0.000000000               0.000000000               0.000000000               0.000439963               0.001431381               0.000003528              -0.000013936               0.000481768               0.000467831               0.000000000               0.000000000               0.000000000               0.000000000               0.000456015               0.001494969               0.000003951              -0.000015865               0.000503606               0.000487741               0.000000000               0.000000000               0.000000000               0.000000000               0.000471606               0.001558708               0.000003130              -0.000017986               0.000525560               0.000507573               0.000000000               0.000000000               0.000000000               0.000000000               0.000488427               0.001623935               0.000001397              -0.000019832               0.000547917               0.000528085               0.000000000               0.000000000               0.000000000               0.000000000               0.000496932               0.001657210               0.000000388              -0.000020802               0.000559332               0.000538530               0.000000000               0.000000000               0.000000000               0.000000000               0.000079794               0.000072152               0.000000000               0.000020904               0.000017083               0.000037986               0.000000000               0.000000000               0.000000000               0.000000000               0.000159639               0.000160961               0.000000000               0.000039744               0.000040405               0.000080149               0.000000000               0.000000000               0.000000000               0.000000000               0.000227854               0.000316846              -0.000000000               0.000045839               0.000090335               0.000136174               0.000000000               0.000000000               0.000000000               0.000000000               0.000260261               0.000471904               0.000000000               0.000038610               0.000144430               0.000183040               0.000000000               0.000000000               0.000000000               0.000000000               0.000279976               0.000617518              -0.000000000               0.000027801               0.000196571               0.000224371               0.000000000               0.000000000               0.000000000               0.000000000               0.000295908               0.000753987              -0.000000000               0.000016717               0.000245754               0.000262471               0.000000000               0.000000000               0.000000000               0.000000000               0.000310008               0.000880445              -0.000000000               0.000006197               0.000291413               0.000297610               0.000000000               0.000000000               0.000000000               0.000000000               0.000328533               0.000998691              -0.000000000              -0.000001637               0.000333439               0.000331803               0.000000000               0.000000000               0.000000000               0.000000000               0.000352014               0.001104338              -0.000000000              -0.000006037               0.000370121               0.000364084               0.000000000               0.000000000               0.000000000               0.000000000               0.000379417               0.001201044               0.000000000              -0.000007849               0.000402960               0.000395111               0.000000000               0.000000000               0.000000000               0.000000000               0.000406786               0.001290154              -0.000000000              -0.000008724               0.000432955               0.000424231               0.000000000               0.000000000               0.000000000               0.000000000               0.000429756               0.001365769              -0.000000000              -0.000009562               0.000458439               0.000448877               0.000000000               0.000000000               0.000000000               0.000000000               0.000449299               0.001432125               0.000000000              -0.000010528               0.000480880               0.000470351               0.000000000               0.000000000               0.000000000               0.000000000               0.000466944               0.001495842               0.000000000              -0.000011876               0.000502568               0.000490692               0.000000000               0.000000000               0.000000000               0.000000000               0.000483020               0.001557205               0.000000000              -0.000013518               0.000523569               0.000510051               0.000000000               0.000000000               0.000000000               0.000000000               0.000500355               0.001622307               0.000000000              -0.000015155               0.000545815               0.000530660               0.000000000               0.000000000               0.000000000               0.000000000               0.000508627               0.001656261               0.000000000              -0.000016298               0.000557514               0.000541217               0.000000000               0.000000000               0.000000000               0.000000000               0.000072900               0.000711773              -0.000000000              -0.000061634               0.000257800               0.000196166               0.000000000               0.000000000               0.000000000               0.000000000               0.000096307               0.000608810              -0.000000000              -0.000039986               0.000216263               0.000176277               0.000000000               0.000000000               0.000000000               0.000000000               0.000147987               0.000533328               0.000000000              -0.000011171               0.000181498               0.000170327               0.000000000               0.000000000               0.000000000               0.000000000               0.000166531               0.000504571               0.000000000              -0.000000622               0.000168396               0.000167774               0.000000000               0.000000000               0.000000000               0.000000000               0.000165492               0.000498336               0.000000000              -0.000000233               0.000166188               0.000165955               0.000000000               0.000000000               0.000000000               0.000000000               0.000160208               0.000502947              -0.000000000              -0.000002790               0.000168578               0.000165787               0.000000000               0.000000000               0.000000000               0.000000000               0.000156628               0.000499144              -0.000000000              -0.000003658               0.000167599               0.000163941               0.000000000               0.000000000               0.000000000               0.000000000               0.000156632               0.000482222              -0.000000000              -0.000001541               0.000161253               0.000159712               0.000000000               0.000000000               0.000000000               0.000000000               0.000160566               0.000466127              -0.000000000               0.000001946               0.000154725               0.000156672               0.000000000               0.000000000               0.000000000               0.000000000               0.000163301               0.000450148               0.000000000               0.000004969               0.000148391               0.000153361               0.000000000               0.000000000               0.000000000               0.000000000               0.000160905               0.000436272               0.000000000               0.000005805               0.000143487               0.000149293               0.000000000               0.000000000               0.000000000               0.000000000               0.000152484               0.000429167               0.000000000               0.000003536               0.000141876               0.000145411               0.000000000               0.000000000               0.000000000               0.000000000               0.000136461               0.000429522               0.000000000              -0.000002517               0.000144012               0.000141494               0.000000000               0.000000000               0.000000000               0.000000000               0.000111273               0.000437604              -0.000000000              -0.000012973               0.000150191               0.000137218               0.000000000               0.000000000               0.000000000               0.000000000               0.000078954               0.000453326               0.000000000              -0.000027058               0.000160127               0.000133068               0.000000000               0.000000000               0.000000000               0.000000000               0.000041195               0.000475344              -0.000000000              -0.000043970               0.000173103               0.000129133               0.000000000               0.000000000               0.000000000               0.000000000               0.000024087               0.000495732              -0.000000000              -0.000052934               0.000182887               0.000129953               0.000000000               0.000000000               0.000000000               0.000000000               0.000079817               0.000705650              -0.000056896              -0.000058275               0.000254639               0.000196364               0.000000000               0.000000000               0.000000000               0.000000000               0.000100677               0.000603833              -0.000038603              -0.000037725               0.000213851               0.000176126               0.000000000               0.000000000               0.000000000               0.000000000               0.000148610               0.000531246              -0.000017242              -0.000010677               0.000180639               0.000169962               0.000000000               0.000000000               0.000000000               0.000000000               0.000164366               0.000502742              -0.000005150              -0.000001205               0.000167981               0.000166775               0.000000000               0.000000000               0.000000000               0.000000000               0.000163033               0.000498709               0.000001370              -0.000001201               0.000166635               0.000165434               0.000000000               0.000000000               0.000000000               0.000000000               0.000159112               0.000501854               0.000000684              -0.000003065               0.000168304               0.000165240               0.000000000               0.000000000               0.000000000               0.000000000               0.000159446               0.000497458              -0.000006706              -0.000002390               0.000166614               0.000164224               0.000000000               0.000000000               0.000000000               0.000000000               0.000158907               0.000482990              -0.000010317              -0.000000784               0.000161256               0.000160473               0.000000000               0.000000000               0.000000000               0.000000000               0.000157677               0.000469822              -0.000011145               0.000000401               0.000156472               0.000156873               0.000000000               0.000000000               0.000000000               0.000000000               0.000157326               0.000458629              -0.000013441               0.000001668               0.000152319               0.000153987               0.000000000               0.000000000               0.000000000               0.000000000               0.000152771               0.000450009              -0.000013671               0.000001038               0.000149656               0.000150693               0.000000000               0.000000000               0.000000000               0.000000000               0.000142090               0.000447084              -0.000012702              -0.000002602               0.000149894               0.000147292               0.000000000               0.000000000               0.000000000               0.000000000               0.000126551               0.000451130              -0.000011072              -0.000008935               0.000153353               0.000144419               0.000000000               0.000000000               0.000000000               0.000000000               0.000103539               0.000461783              -0.000008245              -0.000018896               0.000160225               0.000141329               0.000000000               0.000000000               0.000000000               0.000000000               0.000073271               0.000478759              -0.000005180              -0.000032368               0.000170374               0.000138006               0.000000000               0.000000000               0.000000000               0.000000000               0.000038135               0.000501909              -0.000002376              -0.000048438               0.000183447               0.000135009               0.000000000               0.000000000               0.000000000               0.000000000               0.000022969               0.000523319              -0.000002254              -0.000056801               0.000193371               0.000136570               0.000000000               0.000000000               0.000000000               0.000000000               0.000094293               0.000679330              -0.000107263              -0.000049556               0.000242960               0.000193404               0.000000000               0.000000000               0.000000000               0.000000000               0.000107332               0.000584099              -0.000072226              -0.000032763               0.000205619               0.000172856               0.000000000               0.000000000               0.000000000               0.000000000               0.000145627               0.000521647              -0.000031930              -0.000010596               0.000177413               0.000166817               0.000000000               0.000000000               0.000000000               0.000000000               0.000158475               0.000500655              -0.000008460              -0.000003154               0.000167935               0.000164781               0.000000000               0.000000000               0.000000000               0.000000000               0.000159092               0.000499764               0.000002596              -0.000002811               0.000167523               0.000164712               0.000000000               0.000000000               0.000000000               0.000000000               0.000156439               0.000500143              -0.000000267              -0.000003853               0.000167997               0.000164144               0.000000000               0.000000000               0.000000000               0.000000000               0.000158274               0.000495442              -0.000013106              -0.000002577               0.000166005               0.000163427               0.000000000               0.000000000               0.000000000               0.000000000               0.000159518               0.000489309              -0.000019137              -0.000001344               0.000163549               0.000162205               0.000000000               0.000000000               0.000000000               0.000000000               0.000157395               0.000487693              -0.000019976              -0.000001938               0.000163209               0.000161271               0.000000000               0.000000000               0.000000000               0.000000000               0.000151657               0.000489143              -0.000023605              -0.000004272               0.000164470               0.000160198               0.000000000               0.000000000               0.000000000               0.000000000               0.000139412               0.000494430              -0.000024700              -0.000009524               0.000167983               0.000158459               0.000000000               0.000000000               0.000000000               0.000000000               0.000122925               0.000503790              -0.000023702              -0.000016877               0.000173554               0.000156677               0.000000000               0.000000000               0.000000000               0.000000000               0.000105867               0.000518289              -0.000021523              -0.000025086               0.000181123               0.000156038               0.000000000               0.000000000               0.000000000               0.000000000               0.000085152               0.000536944              -0.000017428              -0.000035186               0.000190708               0.000155522               0.000000000               0.000000000               0.000000000               0.000000000               0.000059303               0.000559315              -0.000012225              -0.000047676               0.000202328               0.000154653               0.000000000               0.000000000               0.000000000               0.000000000               0.000030302               0.000586580              -0.000006315              -0.000061959               0.000216178               0.000154219               0.000000000               0.000000000               0.000000000               0.000000000               0.000019689               0.000610619              -0.000005568              -0.000068944               0.000226519               0.000157575               0.000000000               0.000000000               0.000000000               0.000000000               0.000114627               0.000634570              -0.000149486              -0.000036336               0.000223633               0.000187297               0.000000000               0.000000000               0.000000000               0.000000000               0.000116821               0.000552741              -0.000098476              -0.000025285               0.000192673               0.000167389               0.000000000               0.000000000               0.000000000               0.000000000               0.000142049               0.000508982              -0.000040690              -0.000010354               0.000173110               0.000162756               0.000000000               0.000000000               0.000000000               0.000000000               0.000147462               0.000502123              -0.000010752              -0.000007467               0.000169862               0.000162395               0.000000000               0.000000000               0.000000000               0.000000000               0.000148365               0.000504423               0.000001550              -0.000007416               0.000170611               0.000163195               0.000000000               0.000000000               0.000000000               0.000000000               0.000153103               0.000507758              -0.000003462              -0.000006056               0.000171270               0.000165213               0.000000000               0.000000000               0.000000000               0.000000000               0.000161519               0.000507369              -0.000019220              -0.000002852               0.000170072               0.000167220               0.000000000               0.000000000               0.000000000               0.000000000               0.000167194               0.000514838              -0.000026837              -0.000001657               0.000172163               0.000170506               0.000000000               0.000000000               0.000000000               0.000000000               0.000161413               0.000527796              -0.000029430              -0.000005444               0.000177745               0.000172301               0.000000000               0.000000000               0.000000000               0.000000000               0.000148117               0.000546745              -0.000034585              -0.000012799               0.000186513               0.000173714               0.000000000               0.000000000               0.000000000               0.000000000               0.000129493               0.000571462              -0.000036438              -0.000022873               0.000198110               0.000175237               0.000000000               0.000000000               0.000000000               0.000000000               0.000107408               0.000599652              -0.000036180              -0.000034678               0.000211441               0.000176763               0.000000000               0.000000000               0.000000000               0.000000000               0.000087548               0.000631456              -0.000033777              -0.000046101               0.000225850               0.000179749               0.000000000               0.000000000               0.000000000               0.000000000               0.000067727               0.000664780              -0.000028696              -0.000057700               0.000240824               0.000183125               0.000000000               0.000000000               0.000000000               0.000000000               0.000044919               0.000698089              -0.000021475              -0.000070416               0.000256166               0.000185750               0.000000000               0.000000000               0.000000000               0.000000000               0.000021977               0.000732572              -0.000011834              -0.000083330               0.000271965               0.000188635               0.000000000               0.000000000               0.000000000               0.000000000               0.000016037               0.000759193              -0.000009377              -0.000088885               0.000282690               0.000193805               0.000000000               0.000000000               0.000000000               0.000000000               0.000137783               0.000586274              -0.000176150              -0.000021616               0.000202628               0.000181012               0.000000000               0.000000000               0.000000000               0.000000000               0.000125248               0.000520598              -0.000114066              -0.000018107               0.000179567               0.000161460               0.000000000               0.000000000               0.000000000               0.000000000               0.000135225               0.000501159              -0.000045919              -0.000011935               0.000171030               0.000159094               0.000000000               0.000000000               0.000000000               0.000000000               0.000134019               0.000509985              -0.000013824              -0.000013491               0.000174490               0.000160999               0.000000000               0.000000000               0.000000000               0.000000000               0.000139220               0.000524007              -0.000002253              -0.000013293               0.000179099               0.000165805               0.000000000               0.000000000               0.000000000               0.000000000               0.000152030               0.000534671              -0.000010628              -0.000009823               0.000181496               0.000171674               0.000000000               0.000000000               0.000000000               0.000000000               0.000165665               0.000547224              -0.000028333              -0.000006278               0.000184499               0.000178221               0.000000000               0.000000000               0.000000000               0.000000000               0.000173237               0.000573725              -0.000036141              -0.000006752               0.000193490               0.000186739               0.000000000               0.000000000               0.000000000               0.000000000               0.000167659               0.000606692              -0.000038956              -0.000012964               0.000206550               0.000193586               0.000000000               0.000000000               0.000000000               0.000000000               0.000154263               0.000646952              -0.000043301              -0.000023020               0.000223322               0.000200302               0.000000000               0.000000000               0.000000000               0.000000000               0.000132895               0.000689917              -0.000044740              -0.000036404               0.000242105               0.000205701               0.000000000               0.000000000               0.000000000               0.000000000               0.000108546               0.000735533              -0.000043378              -0.000051237               0.000262254               0.000211017               0.000000000               0.000000000               0.000000000               0.000000000               0.000087385               0.000783220              -0.000039719              -0.000065133               0.000282782               0.000217649               0.000000000               0.000000000               0.000000000               0.000000000               0.000065447               0.000829604              -0.000033458              -0.000079158               0.000302918               0.000223760               0.000000000               0.000000000               0.000000000               0.000000000               0.000041473               0.000873023              -0.000024816              -0.000093575               0.000322196               0.000228621               0.000000000               0.000000000               0.000000000               0.000000000               0.000019628               0.000913487              -0.000013445              -0.000106825               0.000340101               0.000233276               0.000000000               0.000000000               0.000000000               0.000000000               0.000014848               0.000941289              -0.000010119              -0.000112093               0.000351124               0.000239031               0.000000000               0.000000000               0.000000000               0.000000000               0.000158075               0.000533247              -0.000191690              -0.000007378               0.000180207               0.000172829               0.000000000               0.000000000               0.000000000               0.000000000               0.000128799               0.000488504              -0.000123086              -0.000012763               0.000167087               0.000154324               0.000000000               0.000000000               0.000000000               0.000000000               0.000125047               0.000502189              -0.000050973              -0.000015881               0.000172688               0.000156807               0.000000000               0.000000000               0.000000000               0.000000000               0.000124059               0.000529822              -0.000019179              -0.000019706               0.000183174               0.000163469               0.000000000               0.000000000               0.000000000               0.000000000               0.000134108               0.000560007              -0.000010485              -0.000019710               0.000193237               0.000173527               0.000000000               0.000000000               0.000000000               0.000000000               0.000154885               0.000589950              -0.000019859              -0.000015662               0.000201869               0.000186207               0.000000000               0.000000000               0.000000000               0.000000000               0.000178114               0.000629067              -0.000035679              -0.000011841               0.000213634               0.000201793               0.000000000               0.000000000               0.000000000               0.000000000               0.000186032               0.000676176              -0.000041987              -0.000014760               0.000230310               0.000215550               0.000000000               0.000000000               0.000000000               0.000000000               0.000177191               0.000729063              -0.000044148              -0.000024686               0.000251247               0.000226561               0.000000000               0.000000000               0.000000000               0.000000000               0.000160257               0.000783470              -0.000047801              -0.000037837               0.000273766               0.000235929               0.000000000               0.000000000               0.000000000               0.000000000               0.000137809               0.000838575              -0.000048985              -0.000053143               0.000297237               0.000244093               0.000000000               0.000000000               0.000000000               0.000000000               0.000115425               0.000893639              -0.000045997              -0.000068420               0.000320683               0.000252263               0.000000000               0.000000000               0.000000000               0.000000000               0.000094721               0.000948207              -0.000040623              -0.000083005               0.000343734               0.000260729               0.000000000               0.000000000               0.000000000               0.000000000               0.000071087               0.000999008              -0.000032967              -0.000098218               0.000365739               0.000267521               0.000000000               0.000000000               0.000000000               0.000000000               0.000045692               0.001044810              -0.000023530              -0.000113466               0.000386089               0.000272622               0.000000000               0.000000000               0.000000000               0.000000000               0.000022232               0.001085809              -0.000012315              -0.000127389               0.000404396               0.000277007               0.000000000               0.000000000               0.000000000               0.000000000               0.000016318               0.001112991              -0.000009178              -0.000133004               0.000415328               0.000282324               0.000000000               0.000000000               0.000000000               0.000000000               0.000173130               0.000475191              -0.000197487               0.000005524               0.000156554               0.000162078               0.000000000               0.000000000               0.000000000               0.000000000               0.000130972               0.000459588              -0.000126830              -0.000008334               0.000155972               0.000147638               0.000000000               0.000000000               0.000000000               0.000000000               0.000116606               0.000512904              -0.000057510              -0.000020386               0.000177761               0.000157376               0.000000000               0.000000000               0.000000000               0.000000000               0.000118845               0.000567411              -0.000029350              -0.000026359               0.000197922               0.000171562               0.000000000               0.000000000               0.000000000               0.000000000               0.000141043               0.000621458              -0.000019895              -0.000024791               0.000215414               0.000190623               0.000000000               0.000000000               0.000000000               0.000000000               0.000173397               0.000675797              -0.000027231              -0.000019451               0.000231747               0.000212296               0.000000000               0.000000000               0.000000000               0.000000000               0.000198446               0.000732192              -0.000042272              -0.000017107               0.000249764               0.000232657               0.000000000               0.000000000               0.000000000               0.000000000               0.000203124               0.000795868              -0.000048190              -0.000023312               0.000273058               0.000249745               0.000000000               0.000000000               0.000000000               0.000000000               0.000189822               0.000862712              -0.000050253              -0.000036656               0.000299786               0.000263131               0.000000000               0.000000000               0.000000000               0.000000000               0.000168066               0.000924374              -0.000053062              -0.000052522               0.000325629               0.000273107               0.000000000               0.000000000               0.000000000               0.000000000               0.000142685               0.000984583              -0.000051444              -0.000069566               0.000351380               0.000281814               0.000000000               0.000000000               0.000000000               0.000000000               0.000119872               0.001044533              -0.000045822              -0.000085615               0.000376712               0.000291098               0.000000000               0.000000000               0.000000000               0.000000000               0.000098068               0.001101422              -0.000037878              -0.000100902               0.000400771               0.000299869               0.000000000               0.000000000               0.000000000               0.000000000               0.000072200               0.001153069              -0.000029393              -0.000117058               0.000423372               0.000306313               0.000000000               0.000000000               0.000000000               0.000000000               0.000046467               0.001199917              -0.000020040              -0.000132564               0.000444156               0.000311592               0.000000000               0.000000000               0.000000000               0.000000000               0.000023525               0.001242645              -0.000010026              -0.000146509               0.000463047               0.000316538               0.000000000               0.000000000               0.000000000               0.000000000               0.000017626               0.001271516              -0.000008220              -0.000152329               0.000474611               0.000322281               0.000000000               0.000000000               0.000000000               0.000000000               0.000179194               0.000417162              -0.000192485               0.000015052               0.000134035               0.000149087               0.000000000               0.000000000               0.000000000               0.000000000               0.000130922               0.000440661              -0.000129058              -0.000005987               0.000148881               0.000142894               0.000000000               0.000000000               0.000000000               0.000000000               0.000115406               0.000537344              -0.000066802              -0.000023891               0.000187076               0.000163186               0.000000000               0.000000000               0.000000000               0.000000000               0.000128132               0.000621560              -0.000040648              -0.000029646               0.000217066               0.000187421               0.000000000               0.000000000               0.000000000               0.000000000               0.000161088               0.000698728              -0.000031725              -0.000026933               0.000241885               0.000214952               0.000000000               0.000000000               0.000000000               0.000000000               0.000199755               0.000766500              -0.000038386              -0.000020904               0.000262466               0.000241561               0.000000000               0.000000000               0.000000000               0.000000000               0.000222488               0.000833960              -0.000049362              -0.000020812               0.000284921               0.000264109               0.000000000               0.000000000               0.000000000               0.000000000               0.000220208               0.000909678              -0.000051818              -0.000031131               0.000313600               0.000282469               0.000000000               0.000000000               0.000000000               0.000000000               0.000199729               0.000980586              -0.000052457              -0.000047675               0.000342750               0.000295076               0.000000000               0.000000000               0.000000000               0.000000000               0.000174316               0.001047065              -0.000053918              -0.000065514               0.000370856               0.000305342               0.000000000               0.000000000               0.000000000               0.000000000               0.000148613               0.001113209              -0.000048013              -0.000083421               0.000398873               0.000315452               0.000000000               0.000000000               0.000000000               0.000000000               0.000123825               0.001179648              -0.000039322              -0.000101021               0.000426886               0.000325865               0.000000000               0.000000000               0.000000000               0.000000000               0.000097275               0.001242386              -0.000030938              -0.000118820               0.000453731               0.000334911               0.000000000               0.000000000               0.000000000               0.000000000               0.000069818               0.001301586              -0.000021991              -0.000136516               0.000479363               0.000342847               0.000000000               0.000000000               0.000000000               0.000000000               0.000045009               0.001359546              -0.000013865              -0.000153064               0.000504199               0.000351135               0.000000000               0.000000000               0.000000000               0.000000000               0.000022755               0.001413641              -0.000006787              -0.000168171               0.000527266               0.000359095               0.000000000               0.000000000               0.000000000               0.000000000               0.000016382               0.001448492              -0.000006528              -0.000174918               0.000541132               0.000366214               0.000000000               0.000000000               0.000000000               0.000000000               0.000184938               0.000368184              -0.000181191               0.000023328               0.000114951               0.000138279               0.000000000               0.000000000               0.000000000               0.000000000               0.000135974               0.000430401              -0.000131880              -0.000002810               0.000144402               0.000141592               0.000000000               0.000000000               0.000000000               0.000000000               0.000119512               0.000564428              -0.000079994              -0.000025736               0.000196720               0.000170983               0.000000000               0.000000000               0.000000000               0.000000000               0.000141279               0.000670425              -0.000054385              -0.000030823               0.000233747               0.000202924               0.000000000               0.000000000               0.000000000               0.000000000               0.000181077               0.000761150              -0.000043924              -0.000027240               0.000262794               0.000235554               0.000000000               0.000000000               0.000000000               0.000000000               0.000220895               0.000834375              -0.000043917              -0.000021461               0.000285276               0.000263815               0.000000000               0.000000000               0.000000000               0.000000000               0.000240822               0.000908047              -0.000046575              -0.000023197               0.000310412               0.000287214               0.000000000               0.000000000               0.000000000               0.000000000               0.000230600               0.000987612              -0.000047725              -0.000036976               0.000341526               0.000304550               0.000000000               0.000000000               0.000000000               0.000000000               0.000206344               0.001061100              -0.000049015              -0.000055259               0.000372116               0.000316858               0.000000000               0.000000000               0.000000000               0.000000000               0.000182910               0.001133341              -0.000047901              -0.000073076               0.000402135               0.000329059               0.000000000               0.000000000               0.000000000               0.000000000               0.000160720               0.001209354              -0.000040403              -0.000090899               0.000433414               0.000342515               0.000000000               0.000000000               0.000000000               0.000000000               0.000138013               0.001284924              -0.000031271              -0.000108860               0.000464590               0.000355730               0.000000000               0.000000000               0.000000000               0.000000000               0.000113034               0.001357331              -0.000023409              -0.000127278               0.000494865               0.000367587               0.000000000               0.000000000               0.000000000               0.000000000               0.000088575               0.001428627              -0.000014357              -0.000145362               0.000524658               0.000379296               0.000000000               0.000000000               0.000000000               0.000000000               0.000066186               0.001498911              -0.000006365              -0.000162544               0.000553813               0.000391269               0.000000000               0.000000000               0.000000000               0.000000000               0.000046635               0.001564056              -0.000001606              -0.000178018               0.000580686               0.000402668               0.000000000               0.000000000               0.000000000               0.000000000               0.000037159               0.001598936              -0.000000643              -0.000185932               0.000594951               0.000409019               0.000000000               0.000000000               0.000000000               0.000000000               0.000187240               0.000321564              -0.000168572               0.000030019               0.000097180               0.000127200               0.000000000               0.000000000               0.000000000               0.000000000               0.000144836               0.000404316              -0.000136892               0.000003774               0.000133512               0.000137286               0.000000000               0.000000000               0.000000000               0.000000000               0.000131140               0.000559757              -0.000099736              -0.000020792               0.000193515               0.000172722               0.000000000               0.000000000               0.000000000               0.000000000               0.000151671               0.000684157              -0.000074342              -0.000028643               0.000237598               0.000208955               0.000000000               0.000000000               0.000000000               0.000000000               0.000186088               0.000787193              -0.000058269              -0.000028616               0.000271934               0.000243318               0.000000000               0.000000000               0.000000000               0.000000000               0.000221399               0.000863889              -0.000048358              -0.000024961               0.000296281               0.000271319               0.000000000               0.000000000               0.000000000               0.000000000               0.000246664               0.000934452              -0.000042206              -0.000024308               0.000319583               0.000295276               0.000000000               0.000000000               0.000000000               0.000000000               0.000248528               0.001012535              -0.000041914              -0.000033369               0.000348631               0.000315263               0.000000000               0.000000000               0.000000000               0.000000000               0.000232595               0.001089899              -0.000045585              -0.000049014               0.000379634               0.000330620               0.000000000               0.000000000               0.000000000               0.000000000               0.000213423               0.001164079              -0.000045533              -0.000065476               0.000409848               0.000344372               0.000000000               0.000000000               0.000000000               0.000000000               0.000194855               0.001239950              -0.000041566              -0.000081923               0.000440620               0.000358697               0.000000000               0.000000000               0.000000000               0.000000000               0.000178005               0.001319280              -0.000035553              -0.000098158               0.000472475               0.000374317               0.000000000               0.000000000               0.000000000               0.000000000               0.000159381               0.001397703              -0.000027252              -0.000114945               0.000504211               0.000389267               0.000000000               0.000000000               0.000000000               0.000000000               0.000138345               0.001472825              -0.000018775              -0.000132223               0.000535011               0.000402788               0.000000000               0.000000000               0.000000000               0.000000000               0.000118519               0.001548660              -0.000010565              -0.000149138               0.000565927               0.000416790               0.000000000               0.000000000               0.000000000               0.000000000               0.000101018               0.001625328              -0.000003703              -0.000165284               0.000596865               0.000431581               0.000000000               0.000000000               0.000000000               0.000000000               0.000086202               0.001658723               0.000001654              -0.000175014               0.000611240               0.000436226               0.000000000               0.000000000               0.000000000               0.000000000               0.000183003               0.000269369              -0.000153213               0.000034955               0.000078137               0.000113092               0.000000000               0.000000000               0.000000000               0.000000000               0.000155010               0.000365439              -0.000139922               0.000012449               0.000117662               0.000130111               0.000000000               0.000000000               0.000000000               0.000000000               0.000145746               0.000537128              -0.000116995              -0.000012486               0.000183203               0.000170717               0.000000000               0.000000000               0.000000000               0.000000000               0.000160279               0.000675388              -0.000090715              -0.000024319               0.000233233               0.000208915               0.000000000               0.000000000               0.000000000               0.000000000               0.000184503               0.000783398              -0.000069619              -0.000028736               0.000270709               0.000241973               0.000000000               0.000000000               0.000000000               0.000000000               0.000214151               0.000864224              -0.000052513              -0.000027721               0.000297312               0.000269591               0.000000000               0.000000000               0.000000000               0.000000000               0.000246475               0.000939767              -0.000039732              -0.000025043               0.000321600               0.000296557               0.000000000               0.000000000               0.000000000               0.000000000               0.000266741               0.001021078              -0.000036139              -0.000027607               0.000349558               0.000321951               0.000000000               0.000000000               0.000000000               0.000000000               0.000266350               0.001102777              -0.000040008              -0.000037966               0.000380244               0.000342278               0.000000000               0.000000000               0.000000000               0.000000000               0.000255840               0.001179970              -0.000043061              -0.000051556               0.000410505               0.000358949               0.000000000               0.000000000               0.000000000               0.000000000               0.000243230               0.001252677              -0.000043454              -0.000065373               0.000439346               0.000373973               0.000000000               0.000000000               0.000000000               0.000000000               0.000229507               0.001326786              -0.000040283              -0.000079783               0.000468852               0.000389069               0.000000000               0.000000000               0.000000000               0.000000000               0.000216400               0.001404430              -0.000032506              -0.000094403               0.000499607               0.000405203               0.000000000               0.000000000               0.000000000               0.000000000               0.000200890               0.001479552              -0.000023736              -0.000109610               0.000529716               0.000420106               0.000000000               0.000000000               0.000000000               0.000000000               0.000183012               0.001552701              -0.000014818              -0.000125458               0.000559381               0.000433923               0.000000000               0.000000000               0.000000000               0.000000000               0.000164176               0.001624526              -0.000006057              -0.000141500               0.000588670               0.000447170               0.000000000               0.000000000               0.000000000               0.000000000               0.000145322               0.001651759               0.000001814              -0.000151974               0.000601239               0.000449265               0.000000000               0.000000000               0.000000000               0.000000000               0.000172773               0.000212440              -0.000132533               0.000038234               0.000058068               0.000096302               0.000000000               0.000000000               0.000000000               0.000000000               0.000163680               0.000322580              -0.000135056               0.000021057               0.000100506               0.000121564               0.000000000               0.000000000               0.000000000               0.000000000               0.000161207               0.000504531              -0.000124783              -0.000002614               0.000169047               0.000166433               0.000000000               0.000000000               0.000000000               0.000000000               0.000174076               0.000647000              -0.000101625              -0.000015596               0.000220863               0.000205267               0.000000000               0.000000000               0.000000000               0.000000000               0.000191648               0.000758529              -0.000079177              -0.000022948               0.000260490               0.000237542               0.000000000               0.000000000               0.000000000               0.000000000               0.000216505               0.000853075              -0.000059445              -0.000025445               0.000292837               0.000267392               0.000000000               0.000000000               0.000000000               0.000000000               0.000250611               0.000943395              -0.000043946              -0.000023945               0.000322443               0.000298498               0.000000000               0.000000000               0.000000000               0.000000000               0.000282049               0.001031834              -0.000035505              -0.000023211               0.000351678               0.000328467               0.000000000               0.000000000               0.000000000               0.000000000               0.000296496               0.001117236              -0.000034751              -0.000028469               0.000381898               0.000353429               0.000000000               0.000000000               0.000000000               0.000000000               0.000296068               0.001196269              -0.000037169              -0.000038508               0.000411588               0.000373080               0.000000000               0.000000000               0.000000000               0.000000000               0.000288974               0.001266630              -0.000039026              -0.000049963               0.000438860               0.000388897               0.000000000               0.000000000               0.000000000               0.000000000               0.000278023               0.001333570              -0.000038400              -0.000062438               0.000465331               0.000402894               0.000000000               0.000000000               0.000000000               0.000000000               0.000268980               0.001406202              -0.000034225              -0.000074908               0.000493699               0.000418791               0.000000000               0.000000000               0.000000000               0.000000000               0.000260597               0.001481411              -0.000026682              -0.000087452               0.000522949               0.000435497               0.000000000               0.000000000               0.000000000               0.000000000               0.000248901               0.001553946              -0.000017993              -0.000100905               0.000551612               0.000450707               0.000000000               0.000000000               0.000000000               0.000000000               0.000233873               0.001623596              -0.000009507              -0.000115247               0.000579609               0.000464362               0.000000000               0.000000000               0.000000000               0.000000000               0.000216244               0.001651462              -0.000002147              -0.000125341               0.000592262               0.000466921               0.000000000               0.000000000               0.000000000               0.000000000               0.000154102               0.000165414              -0.000105534               0.000037111               0.000042767               0.000079878               0.000000000               0.000000000               0.000000000               0.000000000               0.000167347               0.000279318              -0.000120676               0.000027840               0.000083825               0.000111665               0.000000000               0.000000000               0.000000000               0.000000000               0.000178985               0.000456977              -0.000122169               0.000009997               0.000148992               0.000158989               0.000000000               0.000000000               0.000000000               0.000000000               0.000193272               0.000601289              -0.000104394              -0.000002684               0.000201322               0.000198638               0.000000000               0.000000000               0.000000000               0.000000000               0.000207981               0.000724975              -0.000084182              -0.000012629               0.000245866               0.000233236               0.000000000               0.000000000               0.000000000               0.000000000               0.000231183               0.000839666              -0.000065948              -0.000018265               0.000285974               0.000267709               0.000000000               0.000000000               0.000000000               0.000000000               0.000262451               0.000943691              -0.000049822              -0.000019542               0.000321075               0.000301532               0.000000000               0.000000000               0.000000000               0.000000000               0.000294170               0.001036191              -0.000036441              -0.000019210               0.000351797               0.000332587               0.000000000               0.000000000               0.000000000               0.000000000               0.000315915               0.001121851              -0.000029144              -0.000021763               0.000381201               0.000359438               0.000000000               0.000000000               0.000000000               0.000000000               0.000326033               0.001203118              -0.000028448              -0.000028127               0.000410411               0.000382284               0.000000000               0.000000000               0.000000000               0.000000000               0.000328592               0.001276705              -0.000029597              -0.000036366               0.000437686               0.000401320               0.000000000               0.000000000               0.000000000               0.000000000               0.000326092               0.001343720              -0.000030749              -0.000045681               0.000463129               0.000417449               0.000000000               0.000000000               0.000000000               0.000000000               0.000322187               0.001411517              -0.000030660              -0.000055619               0.000489041               0.000433421               0.000000000               0.000000000               0.000000000               0.000000000               0.000319579               0.001482676              -0.000026129              -0.000065492               0.000516051               0.000450559               0.000000000               0.000000000               0.000000000               0.000000000               0.000317501               0.001557342              -0.000019086              -0.000075605               0.000544310               0.000468706               0.000000000               0.000000000               0.000000000               0.000000000               0.000313079               0.001631724              -0.000010883              -0.000086561               0.000572756               0.000486196               0.000000000               0.000000000               0.000000000               0.000000000               0.000302635               0.001664025              -0.000004091              -0.000094515               0.000586174               0.000491659               0.000000000               0.000000000               0.000000000               0.000000000               0.000130106               0.000127210              -0.000075404               0.000032888               0.000031440               0.000064328               0.000000000               0.000000000               0.000000000               0.000000000               0.000167619               0.000233675              -0.000097099               0.000033647               0.000066675               0.000100323               0.000000000               0.000000000               0.000000000               0.000000000               0.000196782               0.000403722              -0.000106710               0.000023328               0.000126797               0.000150125               0.000000000               0.000000000               0.000000000               0.000000000               0.000214860               0.000554662              -0.000095240               0.000011240               0.000181139               0.000192378               0.000000000               0.000000000               0.000000000               0.000000000               0.000231743               0.000690499              -0.000080872               0.000000591               0.000229967               0.000230558               0.000000000               0.000000000               0.000000000               0.000000000               0.000252866               0.000816621              -0.000066596              -0.000007253               0.000274622               0.000267369               0.000000000               0.000000000               0.000000000               0.000000000               0.000277027               0.000928042              -0.000050467              -0.000012120               0.000313384               0.000301264               0.000000000               0.000000000               0.000000000               0.000000000               0.000303845               0.001026638              -0.000034260              -0.000014388               0.000347005               0.000332617               0.000000000               0.000000000               0.000000000               0.000000000               0.000329776               0.001118622              -0.000022775              -0.000016162               0.000378257               0.000362096               0.000000000               0.000000000               0.000000000               0.000000000               0.000349129               0.001205734              -0.000019636              -0.000019794               0.000408505               0.000388712               0.000000000               0.000000000               0.000000000               0.000000000               0.000361920               0.001285896              -0.000020028              -0.000025017               0.000436967               0.000411950               0.000000000               0.000000000               0.000000000               0.000000000               0.000369877               0.001357791              -0.000020941              -0.000031020               0.000462933               0.000431913               0.000000000               0.000000000               0.000000000               0.000000000               0.000372552               0.001420738              -0.000021915              -0.000037885               0.000486203               0.000448318               0.000000000               0.000000000               0.000000000               0.000000000               0.000375655               0.001486214              -0.000020528              -0.000044906               0.000510368               0.000465462               0.000000000               0.000000000               0.000000000               0.000000000               0.000382635               0.001560044              -0.000016263              -0.000051517               0.000537182               0.000485665               0.000000000               0.000000000               0.000000000               0.000000000               0.000389352               0.001633717              -0.000008776              -0.000058208               0.000563970               0.000505762               0.000000000               0.000000000               0.000000000               0.000000000               0.000388522               0.001667352              -0.000002798              -0.000062723               0.000576686               0.000513963               0.000000000               0.000000000               0.000000000               0.000000000               0.000106264               0.000097262              -0.000047777               0.000027691               0.000023190               0.000050881               0.000000000               0.000000000               0.000000000               0.000000000               0.000164729               0.000195479              -0.000067256               0.000037338               0.000052713               0.000090051               0.000000000               0.000000000               0.000000000               0.000000000               0.000210840               0.000358928              -0.000078782               0.000034199               0.000108242               0.000142441               0.000000000               0.000000000               0.000000000               0.000000000               0.000237826               0.000512888              -0.000073746               0.000025073               0.000162603               0.000187676               0.000000000               0.000000000               0.000000000               0.000000000               0.000257587               0.000655273              -0.000064753               0.000014686               0.000213527               0.000228213               0.000000000               0.000000000               0.000000000               0.000000000               0.000273990               0.000787098              -0.000053851               0.000004359               0.000260910               0.000265269               0.000000000               0.000000000               0.000000000               0.000000000               0.000291836               0.000904929              -0.000040933              -0.000003678               0.000302866               0.000299188               0.000000000               0.000000000               0.000000000               0.000000000               0.000314396               0.001012974              -0.000028102              -0.000008723               0.000340562               0.000331839               0.000000000               0.000000000               0.000000000               0.000000000               0.000341189               0.001113519              -0.000017713              -0.000011244               0.000374917               0.000363673               0.000000000               0.000000000               0.000000000               0.000000000               0.000366399               0.001206241              -0.000012587              -0.000013381               0.000406537               0.000393156               0.000000000               0.000000000               0.000000000               0.000000000               0.000386540               0.001290612              -0.000011326              -0.000016374               0.000435658               0.000419284               0.000000000               0.000000000               0.000000000               0.000000000               0.000402351               0.001365214              -0.000010871              -0.000019770               0.000461657               0.000441887               0.000000000               0.000000000               0.000000000               0.000000000               0.000413110               0.001427696              -0.000011027              -0.000023546               0.000483742               0.000460197               0.000000000               0.000000000               0.000000000               0.000000000               0.000423730               0.001491291              -0.000011471              -0.000027513               0.000506263               0.000478750               0.000000000               0.000000000               0.000000000               0.000000000               0.000436874               0.001560687              -0.000009657              -0.000031258               0.000530643               0.000499385               0.000000000               0.000000000               0.000000000               0.000000000               0.000450975               0.001628824              -0.000004996              -0.000034487               0.000554432               0.000519944               0.000000000               0.000000000               0.000000000               0.000000000               0.000457385               0.001661547              -0.000001504              -0.000036174               0.000565902               0.000529728               0.000000000               0.000000000               0.000000000               0.000000000               0.000087339               0.000078556              -0.000023644               0.000022932               0.000018541               0.000041473               0.000000000               0.000000000               0.000000000               0.000000000               0.000161021               0.000170393              -0.000034696               0.000039083               0.000043769               0.000082853               0.000000000               0.000000000               0.000000000               0.000000000               0.000222469               0.000328346              -0.000042010               0.000042382               0.000095320               0.000137702               0.000000000               0.000000000               0.000000000               0.000000000               0.000254820               0.000482774              -0.000040446               0.000035210               0.000149186               0.000184397               0.000000000               0.000000000               0.000000000               0.000000000               0.000274545               0.000627560              -0.000035630               0.000024509               0.000201015               0.000225524               0.000000000               0.000000000               0.000000000               0.000000000               0.000289150               0.000762478              -0.000029842               0.000013121               0.000249783               0.000262904               0.000000000               0.000000000               0.000000000               0.000000000               0.000304836               0.000886955              -0.000023341               0.000003444               0.000294501               0.000297945               0.000000000               0.000000000               0.000000000               0.000000000               0.000325262               0.001003767              -0.000016144              -0.000003498               0.000335752               0.000332254               0.000000000               0.000000000               0.000000000               0.000000000               0.000349484               0.001107996              -0.000009724              -0.000007443               0.000371809               0.000364366               0.000000000               0.000000000               0.000000000               0.000000000               0.000375858               0.001202260              -0.000005776              -0.000009336               0.000403861               0.000394525               0.000000000               0.000000000               0.000000000               0.000000000               0.000401238               0.001289970              -0.000004450              -0.000010782               0.000433580               0.000422798               0.000000000               0.000000000               0.000000000               0.000000000               0.000422597               0.001366231              -0.000003809              -0.000012305               0.000459508               0.000447203               0.000000000               0.000000000               0.000000000               0.000000000               0.000439963               0.001431381              -0.000003528              -0.000013936               0.000481768               0.000467831               0.000000000               0.000000000               0.000000000               0.000000000               0.000456015               0.001494969              -0.000003951              -0.000015865               0.000503606               0.000487741               0.000000000               0.000000000               0.000000000               0.000000000               0.000471606               0.001558708              -0.000003130              -0.000017986               0.000525560               0.000507573               0.000000000               0.000000000               0.000000000               0.000000000               0.000488427               0.001623935              -0.000001397              -0.000019832               0.000547917               0.000528085               0.000000000               0.000000000               0.000000000               0.000000000               0.000496932               0.001657210              -0.000000388              -0.000020802               0.000559332               0.000538530               0.000000000               0.000000000               0.000000000               0.000000000               0.000000000               0.000000000               0.000000000               0.000000000               0.000000000               0.000000000               0.000000000               0.000000000               0.000000000               0.000000000               0.000000000               0.000000000               0.000000000               0.000000000               0.000000000               0.000000000               0.000000000               0.000000000               0.000000000               0.000000000               0.000000000               0.000000000               0.000000000               0.000000000               0.000000000               0.000000000               0.000000000               0.000000000               0.000000000               0.000000000               0.000000000               0.000000000               0.000000000               0.000000000               0.000000000               0.000000000               0.000000000               0.000000000               0.000000000               0.000000000               0.000000000               0.000000000               0.000000000               0.000000000               0.000000000               0.000000000               0.000000000               0.000000000               0.000000000               0.000000000               0.000000000               0.000000000               0.000000000               0.000000000               0.000000000               0.000000000               0.000000000               0.000000000               0.000000000               0.000000000               0.000000000               0.000000000               0.000000000               0.000000000               0.000000000               0.000000000               0.000000000               0.000000000               0.000000000               0.000000000               0.000000000               0.000000000               0.000000000               0.000000000               0.000000000               0.000000000               0.000000000               0.000000000               0.000000000               0.000000000               0.000000000               0.000000000               0.000000000               0.000000000               0.000000000               0.000000000               0.000000000               0.000000000               0.000000000               0.000000000               0.000000000               0.000000000               0.000000000               0.000000000               0.000000000               0.000000000               0.000000000               0.000000000               0.000000000               0.000000000               0.000000000               0.000000000               0.000000000               0.000000000               0.000000000               0.000000000               0.000000000               0.000000000               0.000000000               0.000000000               0.000000000               0.000000000               0.000000000               0.000000000               0.000000000               0.000000000               0.000000000               0.000000000               0.000000000               0.000000000               0.000000000               0.000000000               0.000000000               0.000000000               0.000000000               0.000000000               0.000000000               0.000000000               0.000000000               0.000000000               0.000000000               0.000000000               0.000000000               0.000000000               0.000000000               0.000000000               0.000000000               0.000000000               0.000000000               0.000000000               0.000000000               0.000000000               0.000000000               0.000000000               0.000000000               0.000000000               0.000000000               0.000000000               0.000000000               0.000000000               0.000000000               0.000000000               0.000000000               0.000000000               0.000000000               0.000000000               0.000000000               0.000000000               0.000000000               0.000000000               0.000000000               0.000000000               0.000000000               0.000000000               0.000000000               0.000000000               0.000000000               0.000000000               0.000000000               0.000000000               0.000000000               0.000000000               0.000000000               0.000000000               0.000000000               0.000000000               0.000000000               0.000000000               0.000000000               0.000000000               0.000000000               0.000000000               0.000000000               0.000000000               0.000000000               0.000000000               0.000000000               0.000000000               0.000000000               0.000000000               0.000000000               0.000000000               0.000000000               0.000000000               0.000000000               0.000000000               0.000000000               0.000000000               0.000000000               0.000000000               0.000000000               0.000000000               0.000000000               0.000000000               0.000000000               0.000000000               0.000000000               0.000000000               0.000000000               0.000000000               0.000000000               0.000000000               0.000000000               0.000000000               0.000000000               0.000000000               0.000000000               0.000000000               0.000000000               0.000000000               0.000000000               0.000000000               0.000000000               0.000000000               0.000000000               0.000000000               0.000000000               0.000000000               0.000000000               0.000000000               0.000000000               0.000000000               0.000000000               0.000000000               0.000000000               0.000000000               0.000000000               0.000000000               0.000000000               0.000000000               0.000000000               0.000000000               0.000000000               0.000000000               0.000000000               0.000000000               0.000000000               0.000000000               0.000000000               0.000000000               0.000000000               0.000000000               0.000000000               0.000000000               0.000000000               0.000000000               0.000000000               0.000000000               0.000000000               0.000000000               0.000000000               0.000000000               0.000000000               0.000000000               0.000000000               0.000000000               0.000000000               0.000000000               0.000000000               0.000000000               0.000000000               0.000000000               0.000000000               0.000000000               0.000000000               0.000000000               0.000000000               0.000000000               0.000000000               0.000000000               0.000000000               0.000000000               0.000000000               0.000000000               0.000000000               0.000000000               0.000000000               0.000000000               0.000000000               0.000000000               0.000000000               0.000000000               0.000000000               0.000000000               0.000000000               0.000000000               0.000000000               0.000000000               0.000000000               0.000000000               0.000000000               0.000000000               0.000000000               0.000000000               0.000000000               0.000000000               0.000000000               0.000000000               0.000000000               0.000000000               0.000000000               0.000000000               0.000000000               0.000000000               0.000000000               0.000000000               0.000000000               0.000000000               0.000000000               0.000000000               0.000000000               0.000000000               0.000000000               0.000000000               0.000000000               0.000000000               0.000000000               0.000000000               0.000000000               0.000000000               0.000000000               0.000000000               0.000000000               0.000000000               0.000000000               0.000000000               0.000000000               0.000000000               0.000000000               0.000000000               0.000079817               0.000705650               0.000056896              -0.000058275               0.000254639               0.000196364               0.000000000               0.000000000               0.000000000               0.000000000               0.000100677               0.000603833               0.000038603              -0.000037725               0.000213851               0.000176126               0.000000000               0.000000000               0.000000000               0.000000000               0.000148610               0.000531246               0.000017242              -0.000010677               0.000180639               0.000169962               0.000000000               0.000000000               0.000000000               0.000000000               0.000164366               0.000502742               0.000005150              -0.000001205               0.000167981               0.000166775               0.000000000               0.000000000               0.000000000               0.000000000               0.000163033               0.000498709              -0.000001370              -0.000001201               0.000166635               0.000165434               0.000000000               0.000000000               0.000000000               0.000000000               0.000159112               0.000501854              -0.000000684              -0.000003065               0.000168304               0.000165240               0.000000000               0.000000000               0.000000000               0.000000000               0.000159446               0.000497458               0.000006706              -0.000002390               0.000166614               0.000164224               0.000000000               0.000000000               0.000000000               0.000000000               0.000158907               0.000482990               0.000010317              -0.000000784               0.000161256               0.000160473               0.000000000               0.000000000               0.000000000               0.000000000               0.000157677               0.000469822               0.000011145               0.000000401               0.000156472               0.000156873               0.000000000               0.000000000               0.000000000               0.000000000               0.000157326               0.000458629               0.000013441               0.000001668               0.000152319               0.000153987               0.000000000               0.000000000               0.000000000               0.000000000               0.000152771               0.000450009               0.000013671               0.000001038               0.000149656               0.000150693               0.000000000               0.000000000               0.000000000               0.000000000               0.000142090               0.000447084               0.000012702              -0.000002602               0.000149894               0.000147292               0.000000000               0.000000000               0.000000000               0.000000000               0.000126551               0.000451130               0.000011072              -0.000008935               0.000153353               0.000144419               0.000000000               0.000000000               0.000000000               0.000000000               0.000103539               0.000461783               0.000008245              -0.000018896               0.000160225               0.000141329               0.000000000               0.000000000               0.000000000               0.000000000               0.000073271               0.000478759               0.000005180              -0.000032368               0.000170374               0.000138006               0.000000000               0.000000000               0.000000000               0.000000000               0.000038135               0.000501909               0.000002376              -0.000048438               0.000183447               0.000135009               0.000000000               0.000000000               0.000000000               0.000000000               0.000022969               0.000523319               0.000002254              -0.000056801               0.000193371               0.000136570               0.000000000               0.000000000               0.000000000               0.000000000               0.000094293               0.000679330               0.000107263              -0.000049556               0.000242960               0.000193404               0.000000000               0.000000000               0.000000000               0.000000000               0.000107332               0.000584099               0.000072226              -0.000032763               0.000205619               0.000172856               0.000000000               0.000000000               0.000000000               0.000000000               0.000145627               0.000521647               0.000031930              -0.000010596               0.000177413               0.000166817               0.000000000               0.000000000               0.000000000               0.000000000               0.000158475               0.000500655               0.000008460              -0.000003154               0.000167935               0.000164781               0.000000000               0.000000000               0.000000000               0.000000000               0.000159092               0.000499764              -0.000002596              -0.000002811               0.000167523               0.000164712               0.000000000               0.000000000               0.000000000               0.000000000               0.000156439               0.000500143               0.000000267              -0.000003853               0.000167997               0.000164144               0.000000000               0.000000000               0.000000000               0.000000000               0.000158274               0.000495442               0.000013106              -0.000002577               0.000166005               0.000163427               0.000000000               0.000000000               0.000000000               0.000000000               0.000159518               0.000489309               0.000019137              -0.000001344               0.000163549               0.000162205               0.000000000               0.000000000               0.000000000               0.000000000               0.000157395               0.000487693               0.000019976              -0.000001938               0.000163209               0.000161271               0.000000000               0.000000000               0.000000000               0.000000000               0.000151657               0.000489143               0.000023605              -0.000004272               0.000164470               0.000160198               0.000000000               0.000000000               0.000000000               0.000000000               0.000139412               0.000494430               0.000024700              -0.000009524               0.000167983               0.000158459               0.000000000               0.000000000               0.000000000               0.000000000               0.000122925               0.000503790               0.000023702              -0.000016877               0.000173554               0.000156677               0.000000000               0.000000000               0.000000000               0.000000000               0.000105867               0.000518289               0.000021523              -0.000025086               0.000181123               0.000156038               0.000000000               0.000000000               0.000000000               0.000000000               0.000085152               0.000536944               0.000017428              -0.000035186               0.000190708               0.000155522               0.000000000               0.000000000               0.000000000               0.000000000               0.000059303               0.000559315               0.000012225              -0.000047676               0.000202328               0.000154653               0.000000000               0.000000000               0.000000000               0.000000000               0.000030302               0.000586580               0.000006315              -0.000061959               0.000216178               0.000154219               0.000000000               0.000000000               0.000000000               0.000000000               0.000019689               0.000610619               0.000005568              -0.000068944               0.000226519               0.000157575               0.000000000               0.000000000               0.000000000               0.000000000               0.000114627               0.000634570               0.000149486              -0.000036336               0.000223633               0.000187297               0.000000000               0.000000000               0.000000000               0.000000000               0.000116821               0.000552741               0.000098476              -0.000025285               0.000192673               0.000167389               0.000000000               0.000000000               0.000000000               0.000000000               0.000142049               0.000508982               0.000040690              -0.000010354               0.000173110               0.000162756               0.000000000               0.000000000               0.000000000               0.000000000               0.000147462               0.000502123               0.000010752              -0.000007467               0.000169862               0.000162395               0.000000000               0.000000000               0.000000000               0.000000000               0.000148365               0.000504423              -0.000001550              -0.000007416               0.000170611               0.000163195               0.000000000               0.000000000               0.000000000               0.000000000               0.000153103               0.000507758               0.000003462              -0.000006056               0.000171270               0.000165213               0.000000000               0.000000000               0.000000000               0.000000000               0.000161519               0.000507369               0.000019220              -0.000002852               0.000170072               0.000167220               0.000000000               0.000000000               0.000000000               0.000000000               0.000167194               0.000514838               0.000026837              -0.000001657               0.000172163               0.000170506               0.000000000               0.000000000               0.000000000               0.000000000               0.000161413               0.000527796               0.000029430              -0.000005444               0.000177745               0.000172301               0.000000000               0.000000000               0.000000000               0.000000000               0.000148117               0.000546745               0.000034585              -0.000012799               0.000186513               0.000173714               0.000000000               0.000000000               0.000000000               0.000000000               0.000129493               0.000571462               0.000036438              -0.000022873               0.000198110               0.000175237               0.000000000               0.000000000               0.000000000               0.000000000               0.000107408               0.000599652               0.000036180              -0.000034678               0.000211441               0.000176763               0.000000000               0.000000000               0.000000000               0.000000000               0.000087548               0.000631456               0.000033777              -0.000046101               0.000225850               0.000179749               0.000000000               0.000000000               0.000000000               0.000000000               0.000067727               0.000664780               0.000028696              -0.000057700               0.000240824               0.000183125               0.000000000               0.000000000               0.000000000               0.000000000               0.000044919               0.000698089               0.000021475              -0.000070416               0.000256166               0.000185750               0.000000000               0.000000000               0.000000000               0.000000000               0.000021977               0.000732572               0.000011834              -0.000083330               0.000271965               0.000188635               0.000000000               0.000000000               0.000000000               0.000000000               0.000016037               0.000759193               0.000009377              -0.000088885               0.000282690               0.000193805               0.000000000               0.000000000               0.000000000               0.000000000               0.000137783               0.000586274               0.000176150              -0.000021616               0.000202628               0.000181012               0.000000000               0.000000000               0.000000000               0.000000000               0.000125248               0.000520598               0.000114066              -0.000018107               0.000179567               0.000161460               0.000000000               0.000000000               0.000000000               0.000000000               0.000135225               0.000501159               0.000045919              -0.000011935               0.000171030               0.000159094               0.000000000               0.000000000               0.000000000               0.000000000               0.000134019               0.000509985               0.000013824              -0.000013491               0.000174490               0.000160999               0.000000000               0.000000000               0.000000000               0.000000000               0.000139220               0.000524007               0.000002253              -0.000013293               0.000179099               0.000165805               0.000000000               0.000000000               0.000000000               0.000000000               0.000152030               0.000534671               0.000010628              -0.000009823               0.000181496               0.000171674               0.000000000               0.000000000               0.000000000               0.000000000               0.000165665               0.000547224               0.000028333              -0.000006278               0.000184499               0.000178221               0.000000000               0.000000000               0.000000000               0.000000000               0.000173237               0.000573725               0.000036141              -0.000006752               0.000193490               0.000186739               0.000000000               0.000000000               0.000000000               0.000000000               0.000167659               0.000606692               0.000038956              -0.000012964               0.000206550               0.000193586               0.000000000               0.000000000               0.000000000               0.000000000               0.000154263               0.000646952               0.000043301              -0.000023020               0.000223322               0.000200302               0.000000000               0.000000000               0.000000000               0.000000000               0.000132895               0.000689917               0.000044740              -0.000036404               0.000242105               0.000205701               0.000000000               0.000000000               0.000000000               0.000000000               0.000108546               0.000735533               0.000043378              -0.000051237               0.000262254               0.000211017               0.000000000               0.000000000               0.000000000               0.000000000               0.000087385               0.000783220               0.000039719              -0.000065133               0.000282782               0.000217649               0.000000000               0.000000000               0.000000000               0.000000000               0.000065447               0.000829604               0.000033458              -0.000079158               0.000302918               0.000223760               0.000000000               0.000000000               0.000000000               0.000000000               0.000041473               0.000873023               0.000024816              -0.000093575               0.000322196               0.000228621               0.000000000               0.000000000               0.000000000               0.000000000               0.000019628               0.000913487               0.000013445              -0.000106825               0.000340101               0.000233276               0.000000000               0.000000000               0.000000000               0.000000000               0.000014848               0.000941289               0.000010119              -0.000112093               0.000351124               0.000239031               0.000000000               0.000000000               0.000000000               0.000000000               0.000158075               0.000533247               0.000191690              -0.000007378               0.000180207               0.000172829               0.000000000               0.000000000               0.000000000               0.000000000               0.000128799               0.000488504               0.000123086              -0.000012763               0.000167087               0.000154324               0.000000000               0.000000000               0.000000000               0.000000000               0.000125047               0.000502189               0.000050973              -0.000015881               0.000172688               0.000156807               0.000000000               0.000000000               0.000000000               0.000000000               0.000124059               0.000529822               0.000019179              -0.000019706               0.000183174               0.000163469               0.000000000               0.000000000               0.000000000               0.000000000               0.000134108               0.000560007               0.000010485              -0.000019710               0.000193237               0.000173527               0.000000000               0.000000000               0.000000000               0.000000000               0.000154885               0.000589950               0.000019859              -0.000015662               0.000201869               0.000186207               0.000000000               0.000000000               0.000000000               0.000000000               0.000178114               0.000629067               0.000035679              -0.000011841               0.000213634               0.000201793               0.000000000               0.000000000               0.000000000               0.000000000               0.000186032               0.000676176               0.000041987              -0.000014760               0.000230310               0.000215550               0.000000000               0.000000000               0.000000000               0.000000000               0.000177191               0.000729063               0.000044148              -0.000024686               0.000251247               0.000226561               0.000000000               0.000000000               0.000000000               0.000000000               0.000160257               0.000783470               0.000047801              -0.000037837               0.000273766               0.000235929               0.000000000               0.000000000               0.000000000               0.000000000               0.000137809               0.000838575               0.000048985              -0.000053143               0.000297237               0.000244093               0.000000000               0.000000000               0.000000000               0.000000000               0.000115425               0.000893639               0.000045997              -0.000068420               0.000320683               0.000252263               0.000000000               0.000000000               0.000000000               0.000000000               0.000094721               0.000948207               0.000040623              -0.000083005               0.000343734               0.000260729               0.000000000               0.000000000               0.000000000               0.000000000               0.000071087               0.000999008               0.000032967              -0.000098218               0.000365739               0.000267521               0.000000000               0.000000000               0.000000000               0.000000000               0.000045692               0.001044810               0.000023530              -0.000113466               0.000386089               0.000272622               0.000000000               0.000000000               0.000000000               0.000000000               0.000022232               0.001085809               0.000012315              -0.000127389               0.000404396               0.000277007               0.000000000               0.000000000               0.000000000               0.000000000               0.000016318               0.001112991               0.000009178              -0.000133004               0.000415328               0.000282324               0.000000000               0.000000000               0.000000000               0.000000000               0.000173130               0.000475191               0.000197487               0.000005524               0.000156554               0.000162078               0.000000000               0.000000000               0.000000000               0.000000000               0.000130972               0.000459588               0.000126830              -0.000008334               0.000155972               0.000147638               0.000000000               0.000000000               0.000000000               0.000000000               0.000116606               0.000512904               0.000057510              -0.000020386               0.000177761               0.000157376               0.000000000               0.000000000               0.000000000               0.000000000               0.000118845               0.000567411               0.000029350              -0.000026359               0.000197922               0.000171562               0.000000000               0.000000000               0.000000000               0.000000000               0.000141043               0.000621458               0.000019895              -0.000024791               0.000215414               0.000190623               0.000000000               0.000000000               0.000000000               0.000000000               0.000173397               0.000675797               0.000027231              -0.000019451               0.000231747               0.000212296               0.000000000               0.000000000               0.000000000               0.000000000               0.000198446               0.000732192               0.000042272              -0.000017107               0.000249764               0.000232657               0.000000000               0.000000000               0.000000000               0.000000000               0.000203124               0.000795868               0.000048190              -0.000023312               0.000273058               0.000249745               0.000000000               0.000000000               0.000000000               0.000000000               0.000189822               0.000862712               0.000050253              -0.000036656               0.000299786               0.000263131               0.000000000               0.000000000               0.000000000               0.000000000               0.000168066               0.000924374               0.000053062              -0.000052522               0.000325629               0.000273107               0.000000000               0.000000000               0.000000000               0.000000000               0.000142685               0.000984583               0.000051444              -0.000069566               0.000351380               0.000281814               0.000000000               0.000000000               0.000000000               0.000000000               0.000119872               0.001044533               0.000045822              -0.000085615               0.000376712               0.000291098               0.000000000               0.000000000               0.000000000               0.000000000               0.000098068               0.001101422               0.000037878              -0.000100902               0.000400771               0.000299869               0.000000000               0.000000000               0.000000000               0.000000000               0.000072200               0.001153069               0.000029393              -0.000117058               0.000423372               0.000306313               0.000000000               0.000000000               0.000000000               0.000000000               0.000046467               0.001199917               0.000020040              -0.000132564               0.000444156               0.000311592               0.000000000               0.000000000               0.000000000               0.000000000               0.000023525               0.001242645               0.000010026              -0.000146509               0.000463047               0.000316538               0.000000000               0.000000000               0.000000000               0.000000000               0.000017626               0.001271516               0.000008220              -0.000152329               0.000474611               0.000322281               0.000000000               0.000000000               0.000000000               0.000000000               0.000179194               0.000417162               0.000192485               0.000015052               0.000134035               0.000149087               0.000000000               0.000000000               0.000000000               0.000000000               0.000130922               0.000440661               0.000129058              -0.000005987               0.000148881               0.000142894               0.000000000               0.000000000               0.000000000               0.000000000               0.000115406               0.000537344               0.000066802              -0.000023891               0.000187076               0.000163186               0.000000000               0.000000000               0.000000000               0.000000000               0.000128132               0.000621560               0.000040648              -0.000029646               0.000217066               0.000187421               0.000000000               0.000000000               0.000000000               0.000000000               0.000161088               0.000698728               0.000031725              -0.000026933               0.000241885               0.000214952               0.000000000               0.000000000               0.000000000               0.000000000               0.000199755               0.000766500               0.000038386              -0.000020904               0.000262466               0.000241561               0.000000000               0.000000000               0.000000000               0.000000000               0.000222488               0.000833960               0.000049362              -0.000020812               0.000284921               0.000264109               0.000000000               0.000000000               0.000000000               0.000000000               0.000220208               0.000909678               0.000051818              -0.000031131               0.000313600               0.000282469               0.000000000               0.000000000               0.000000000               0.000000000               0.000199729               0.000980586               0.000052457              -0.000047675               0.000342750               0.000295076               0.000000000               0.000000000               0.000000000               0.000000000               0.000174316               0.001047065               0.000053918              -0.000065514               0.000370856               0.000305342               0.000000000               0.000000000               0.000000000               0.000000000               0.000148613               0.001113209               0.000048013              -0.000083421               0.000398873               0.000315452               0.000000000               0.000000000               0.000000000               0.000000000               0.000123825               0.001179648               0.000039322              -0.000101021               0.000426886               0.000325865               0.000000000               0.000000000               0.000000000               0.000000000               0.000097275               0.001242386               0.000030938              -0.000118820               0.000453731               0.000334911               0.000000000               0.000000000               0.000000000               0.000000000               0.000069818               0.001301586               0.000021991              -0.000136516               0.000479363               0.000342847               0.000000000               0.000000000               0.000000000               0.000000000               0.000045009               0.001359546               0.000013865              -0.000153064               0.000504199               0.000351135               0.000000000               0.000000000               0.000000000               0.000000000               0.000022755               0.001413641               0.000006787              -0.000168171               0.000527266               0.000359095               0.000000000               0.000000000               0.000000000               0.000000000               0.000016382               0.001448492               0.000006528              -0.000174918               0.000541132               0.000366214               0.000000000               0.000000000               0.000000000               0.000000000               0.000184938               0.000368184               0.000181191               0.000023328               0.000114951               0.000138279               0.000000000               0.000000000               0.000000000               0.000000000               0.000135974               0.000430401               0.000131880              -0.000002810               0.000144402               0.000141592               0.000000000               0.000000000               0.000000000               0.000000000               0.000119512               0.000564428               0.000079994              -0.000025736               0.000196720               0.000170983               0.000000000               0.000000000               0.000000000               0.000000000               0.000141279               0.000670425               0.000054385              -0.000030823               0.000233747               0.000202924               0.000000000               0.000000000               0.000000000               0.000000000               0.000181077               0.000761150               0.000043924              -0.000027240               0.000262794               0.000235554               0.000000000               0.000000000               0.000000000               0.000000000               0.000220895               0.000834375               0.000043917              -0.000021461               0.000285276               0.000263815               0.000000000               0.000000000               0.000000000               0.000000000               0.000240822               0.000908047               0.000046575              -0.000023197               0.000310412               0.000287214               0.000000000               0.000000000               0.000000000               0.000000000               0.000230600               0.000987612               0.000047725              -0.000036976               0.000341526               0.000304550               0.000000000               0.000000000               0.000000000               0.000000000               0.000206344               0.001061100               0.000049015              -0.000055259               0.000372116               0.000316858               0.000000000               0.000000000               0.000000000               0.000000000               0.000182910               0.001133341               0.000047901              -0.000073076               0.000402135               0.000329059               0.000000000               0.000000000               0.000000000               0.000000000               0.000160720               0.001209354               0.000040403              -0.000090899               0.000433414               0.000342515               0.000000000               0.000000000               0.000000000               0.000000000               0.000138013               0.001284924               0.000031271              -0.000108860               0.000464590               0.000355730               0.000000000               0.000000000               0.000000000               0.000000000               0.000113034               0.001357331               0.000023409              -0.000127278               0.000494865               0.000367587               0.000000000               0.000000000               0.000000000               0.000000000               0.000088575               0.001428627               0.000014357              -0.000145362               0.000524658               0.000379296               0.000000000               0.000000000               0.000000000               0.000000000               0.000066186               0.001498911               0.000006365              -0.000162544               0.000553813               0.000391269               0.000000000               0.000000000               0.000000000               0.000000000               0.000046635               0.001564056               0.000001606              -0.000178018               0.000580686               0.000402668               0.000000000               0.000000000               0.000000000               0.000000000               0.000037159               0.001598936               0.000000643              -0.000185932               0.000594951               0.000409019               0.000000000               0.000000000               0.000000000               0.000000000               0.000187240               0.000321564               0.000168572               0.000030019               0.000097180               0.000127200               0.000000000               0.000000000               0.000000000               0.000000000               0.000144836               0.000404316               0.000136892               0.000003774               0.000133512               0.000137286               0.000000000               0.000000000               0.000000000               0.000000000               0.000131140               0.000559757               0.000099736              -0.000020792               0.000193515               0.000172722               0.000000000               0.000000000               0.000000000               0.000000000               0.000151671               0.000684157               0.000074342              -0.000028643               0.000237598               0.000208955               0.000000000               0.000000000               0.000000000               0.000000000               0.000186088               0.000787193               0.000058269              -0.000028616               0.000271934               0.000243318               0.000000000               0.000000000               0.000000000               0.000000000               0.000221399               0.000863889               0.000048358              -0.000024961               0.000296281               0.000271319               0.000000000               0.000000000               0.000000000               0.000000000               0.000246664               0.000934452               0.000042206              -0.000024308               0.000319583               0.000295276               0.000000000               0.000000000               0.000000000               0.000000000               0.000248528               0.001012535               0.000041914              -0.000033369               0.000348631               0.000315263               0.000000000               0.000000000               0.000000000               0.000000000               0.000232595               0.001089899               0.000045585              -0.000049014               0.000379634               0.000330620               0.000000000               0.000000000               0.000000000               0.000000000               0.000213423               0.001164079               0.000045533              -0.000065476               0.000409848               0.000344372               0.000000000               0.000000000               0.000000000               0.000000000               0.000194855               0.001239950               0.000041566              -0.000081923               0.000440620               0.000358697               0.000000000               0.000000000               0.000000000               0.000000000               0.000178005               0.001319280               0.000035553              -0.000098158               0.000472475               0.000374317               0.000000000               0.000000000               0.000000000               0.000000000               0.000159381               0.001397703               0.000027252              -0.000114945               0.000504211               0.000389267               0.000000000               0.000000000               0.000000000               0.000000000               0.000138345               0.001472825               0.000018775              -0.000132223               0.000535011               0.000402788               0.000000000               0.000000000               0.000000000               0.000000000               0.000118519               0.001548660               0.000010565              -0.000149138               0.000565927               0.000416790               0.000000000               0.000000000               0.000000000               0.000000000               0.000101018               0.001625328               0.000003703              -0.000165284               0.000596865               0.000431581               0.000000000               0.000000000               0.000000000               0.000000000               0.000086202               0.001658723              -0.000001654              -0.000175014               0.000611240               0.000436226               0.000000000               0.000000000               0.000000000               0.000000000               0.000183003               0.000269369               0.000153213               0.000034955               0.000078137               0.000113092               0.000000000               0.000000000               0.000000000               0.000000000               0.000155010               0.000365439               0.000139922               0.000012449               0.000117662               0.000130111               0.000000000               0.000000000               0.000000000               0.000000000               0.000145746               0.000537128               0.000116995              -0.000012486               0.000183203               0.000170717               0.000000000               0.000000000               0.000000000               0.000000000               0.000160279               0.000675388               0.000090715              -0.000024319               0.000233233               0.000208915               0.000000000               0.000000000               0.000000000               0.000000000               0.000184503               0.000783398               0.000069619              -0.000028736               0.000270709               0.000241973               0.000000000               0.000000000               0.000000000               0.000000000               0.000214151               0.000864224               0.000052513              -0.000027721               0.000297312               0.000269591               0.000000000               0.000000000               0.000000000               0.000000000               0.000246475               0.000939767               0.000039732              -0.000025043               0.000321600               0.000296557               0.000000000               0.000000000               0.000000000               0.000000000               0.000266741               0.001021078               0.000036139              -0.000027607               0.000349558               0.000321951               0.000000000               0.000000000               0.000000000               0.000000000               0.000266350               0.001102777               0.000040008              -0.000037966               0.000380244               0.000342278               0.000000000               0.000000000               0.000000000               0.000000000               0.000255840               0.001179970               0.000043061              -0.000051556               0.000410505               0.000358949               0.000000000               0.000000000               0.000000000               0.000000000               0.000243230               0.001252677               0.000043454              -0.000065373               0.000439346               0.000373973               0.000000000               0.000000000               0.000000000               0.000000000               0.000229507               0.001326786               0.000040283              -0.000079783               0.000468852               0.000389069               0.000000000               0.000000000               0.000000000               0.000000000               0.000216400               0.001404430               0.000032506              -0.000094403               0.000499607               0.000405203               0.000000000               0.000000000               0.000000000               0.000000000               0.000200890               0.001479552               0.000023736              -0.000109610               0.000529716               0.000420106               0.000000000               0.000000000               0.000000000               0.000000000               0.000183012               0.001552701               0.000014818              -0.000125458               0.000559381               0.000433923               0.000000000               0.000000000               0.000000000               0.000000000               0.000164176               0.001624526               0.000006057              -0.000141500               0.000588670               0.000447170               0.000000000               0.000000000               0.000000000               0.000000000               0.000145322               0.001651759              -0.000001814              -0.000151974               0.000601239               0.000449265               0.000000000               0.000000000               0.000000000               0.000000000               0.000172773               0.000212440               0.000132533               0.000038234               0.000058068               0.000096302               0.000000000               0.000000000               0.000000000               0.000000000               0.000163680               0.000322580               0.000135056               0.000021057               0.000100506               0.000121564               0.000000000               0.000000000               0.000000000               0.000000000               0.000161207               0.000504531               0.000124783              -0.000002614               0.000169047               0.000166433               0.000000000               0.000000000               0.000000000               0.000000000               0.000174076               0.000647000               0.000101625              -0.000015596               0.000220863               0.000205267               0.000000000               0.000000000               0.000000000               0.000000000               0.000191648               0.000758529               0.000079177              -0.000022948               0.000260490               0.000237542               0.000000000               0.000000000               0.000000000               0.000000000               0.000216505               0.000853075               0.000059445              -0.000025445               0.000292837               0.000267392               0.000000000               0.000000000               0.000000000               0.000000000               0.000250611               0.000943395               0.000043946              -0.000023945               0.000322443               0.000298498               0.000000000               0.000000000               0.000000000               0.000000000               0.000282049               0.001031834               0.000035505              -0.000023211               0.000351678               0.000328467               0.000000000               0.000000000               0.000000000               0.000000000               0.000296496               0.001117236               0.000034751              -0.000028469               0.000381898               0.000353429               0.000000000               0.000000000               0.000000000               0.000000000               0.000296068               0.001196269               0.000037169              -0.000038508               0.000411588               0.000373080               0.000000000               0.000000000               0.000000000               0.000000000               0.000288974               0.001266630               0.000039026              -0.000049963               0.000438860               0.000388897               0.000000000               0.000000000               0.000000000               0.000000000               0.000278023               0.001333570               0.000038400              -0.000062438               0.000465331               0.000402894               0.000000000               0.000000000               0.000000000               0.000000000               0.000268980               0.001406202               0.000034225              -0.000074908               0.000493699               0.000418791               0.000000000               0.000000000               0.000000000               0.000000000               0.000260597               0.001481411               0.000026682              -0.000087452               0.000522949               0.000435497               0.000000000               0.000000000               0.000000000               0.000000000               0.000248901               0.001553946               0.000017993              -0.000100905               0.000551612               0.000450707               0.000000000               0.000000000               0.000000000               0.000000000               0.000233873               0.001623596               0.000009507              -0.000115247               0.000579609               0.000464362               0.000000000               0.000000000               0.000000000               0.000000000               0.000216244               0.001651462               0.000002147              -0.000125341               0.000592262               0.000466921               0.000000000               0.000000000               0.000000000               0.000000000               0.000154102               0.000165414               0.000105534               0.000037111               0.000042767               0.000079878               0.000000000               0.000000000               0.000000000               0.000000000               0.000167347               0.000279318               0.000120676               0.000027840               0.000083825               0.000111665               0.000000000               0.000000000               0.000000000               0.000000000               0.000178985               0.000456977               0.000122169               0.000009997               0.000148992               0.000158989               0.000000000               0.000000000               0.000000000               0.000000000               0.000193272               0.000601289               0.000104394              -0.000002684               0.000201322               0.000198638               0.000000000               0.000000000               0.000000000               0.000000000               0.000207981               0.000724975               0.000084182              -0.000012629               0.000245866               0.000233236               0.000000000               0.000000000               0.000000000               0.000000000               0.000231183               0.000839666               0.000065948              -0.000018265               0.000285974               0.000267709               0.000000000               0.000000000               0.000000000               0.000000000               0.000262451               0.000943691               0.000049822              -0.000019542               0.000321075               0.000301532               0.000000000               0.000000000               0.000000000               0.000000000               0.000294170               0.001036191               0.000036441              -0.000019210               0.000351797               0.000332587               0.000000000               0.000000000               0.000000000               0.000000000               0.000315915               0.001121851               0.000029144              -0.000021763               0.000381201               0.000359438               0.000000000               0.000000000               0.000000000               0.000000000               0.000326033               0.001203118               0.000028448              -0.000028127               0.000410411               0.000382284               0.000000000               0.000000000               0.000000000               0.000000000               0.000328592               0.001276705               0.000029597              -0.000036366               0.000437686               0.000401320               0.000000000               0.000000000               0.000000000               0.000000000               0.000326092               0.001343720               0.000030749              -0.000045681               0.000463129               0.000417449               0.000000000               0.000000000               0.000000000               0.000000000               0.000322187               0.001411517               0.000030660              -0.000055619               0.000489041               0.000433421               0.000000000               0.000000000               0.000000000               0.000000000               0.000319579               0.001482676               0.000026129              -0.000065492               0.000516051               0.000450559               0.000000000               0.000000000               0.000000000               0.000000000               0.000317501               0.001557342               0.000019086              -0.000075605               0.000544310               0.000468706               0.000000000               0.000000000               0.000000000               0.000000000               0.000313079               0.001631724               0.000010883              -0.000086561               0.000572756               0.000486196               0.000000000               0.000000000               0.000000000               0.000000000               0.000302635               0.001664025               0.000004091              -0.000094515               0.000586174               0.000491659               0.000000000               0.000000000               0.000000000               0.000000000               0.000130106               0.000127210               0.000075404               0.000032888               0.000031440               0.000064328               0.000000000               0.000000000               0.000000000               0.000000000               0.000167619               0.000233675               0.000097099               0.000033647               0.000066675               0.000100323               0.000000000               0.000000000               0.000000000               0.000000000               0.000196782               0.000403722               0.000106710               0.000023328               0.000126797               0.000150125               0.000000000               0.000000000               0.000000000               0.000000000               0.000214860               0.000554662               0.000095240               0.000011240               0.000181139               0.000192378               0.000000000               0.000000000               0.000000000               0.000000000               0.000231743               0.000690499               0.000080872               0.000000591               0.000229967               0.000230558               0.000000000               0.000000000               0.000000000               0.000000000               0.000252866               0.000816621               0.000066596              -0.000007253               0.000274622               0.000267369               0.000000000               0.000000000               0.000000000               0.000000000               0.000277027               0.000928042               0.000050467              -0.000012120               0.000313384               0.000301264               0.000000000               0.000000000               0.000000000               0.000000000               0.000303845               0.001026638               0.000034260              -0.000014388               0.000347005               0.000332617               0.000000000               0.000000000               0.000000000               0.000000000               0.000329776               0.001118622               0.000022775              -0.000016162               0.000378257               0.000362096               0.000000000               0.000000000               0.000000000               0.000000000               0.000349129               0.001205734               0.000019636              -0.000019794               0.000408505               0.000388712               0.000000000               0.000000000               0.000000000               0.000000000               0.000361920               0.001285896               0.000020028              -0.000025017               0.000436967               0.000411950               0.000000000               0.000000000               0.000000000               0.000000000               0.000369877               0.001357791               0.000020941              -0.000031020               0.000462933               0.000431913               0.000000000               0.000000000               0.000000000               0.000000000               0.000372552               0.001420738               0.000021915              -0.000037885               0.000486203               0.000448318               0.000000000               0.000000000               0.000000000               0.000000000               0.000375655               0.001486214               0.000020528              -0.000044906               0.000510368               0.000465462               0.000000000               0.000000000               0.000000000               0.000000000               0.000382635               0.001560044               0.000016263              -0.000051517               0.000537182               0.000485665               0.000000000               0.000000000               0.000000000               0.000000000               0.000389352               0.001633717               0.000008776              -0.000058208               0.000563970               0.000505762               0.000000000               0.000000000               0.000000000               0.000000000               0.000388522               0.001667352               0.000002798              -0.000062723               0.000576686               0.000513963               0.000000000               0.000000000               0.000000000               0.000000000               0.000106264               0.000097262               0.000047777               0.000027691               0.000023190               0.000050881               0.000000000               0.000000000               0.000000000               0.000000000               0.000164729               0.000195479               0.000067256               0.000037338               0.000052713               0.000090051               0.000000000               0.000000000               0.000000000               0.000000000               0.000210840               0.000358928               0.000078782               0.000034199               0.000108242               0.000142441               0.000000000               0.000000000               0.000000000               0.000000000               0.000237826               0.000512888               0.000073746               0.000025073               0.000162603               0.000187676               0.000000000               0.000000000               0.000000000               0.000000000               0.000257587               0.000655273               0.000064753               0.000014686               0.000213527               0.000228213               0.000000000               0.000000000               0.000000000               0.000000000               0.000273990               0.000787098               0.000053851               0.000004359               0.000260910               0.000265269               0.000000000               0.000000000               0.000000000               0.000000000               0.000291836               0.000904929               0.000040933              -0.000003678               0.000302866               0.000299188               0.000000000               0.000000000               0.000000000               0.000000000               0.000314396               0.001012974               0.000028102              -0.000008723               0.000340562               0.000331839               0.000000000               0.000000000               0.000000000               0.000000000               0.000341189               0.001113519               0.000017713              -0.000011244               0.000374917               0.000363673               0.000000000               0.000000000               0.000000000               0.000000000               0.000366399               0.001206241               0.000012587              -0.000013381               0.000406537               0.000393156               0.000000000               0.000000000               0.000000000               0.000000000               0.000386540               0.001290612               0.000011326              -0.000016374               0.000435658               0.000419284               0.000000000               0.000000000               0.000000000               0.000000000               0.000402351               0.001365214               0.000010871              -0.000019770               0.000461657               0.000441887               0.000000000               0.000000000               0.000000000               0.000000000               0.000413110               0.001427696               0.000011027              -0.000023546               0.000483742               0.000460197               0.000000000               0.000000000               0.000000000               0.000000000               0.000423730               0.001491291               0.000011471              -0.000027513               0.000506263               0.000478750               0.000000000               0.000000000               0.000000000               0.000000000               0.000436874               0.001560687               0.000009657              -0.000031258               0.000530643               0.000499385               0.000000000               0.000000000               0.000000000               0.000000000               0.000450975               0.001628824               0.000004996              -0.000034487               0.000554432               0.000519944               0.000000000               0.000000000               0.000000000               0.000000000               0.000457385               0.001661547               0.000001504              -0.000036174               0.000565902               0.000529728               0.000000000               0.000000000               0.000000000               0.000000000               0.000087339               0.000078556               0.000023644               0.000022932               0.000018541               0.000041473               0.000000000               0.000000000               0.000000000               0.000000000               0.000161021               0.000170393               0.000034696               0.000039083               0.000043769               0.000082853               0.000000000               0.000000000               0.000000000               0.000000000               0.000222469               0.000328346               0.000042010               0.000042382               0.000095320               0.000137702               0.000000000               0.000000000               0.000000000               0.000000000               0.000254820               0.000482774               0.000040446               0.000035210               0.000149186               0.000184397               0.000000000               0.000000000               0.000000000               0.000000000               0.000274545               0.000627560               0.000035630               0.000024509               0.000201015               0.000225524               0.000000000               0.000000000               0.000000000               0.000000000               0.000289150               0.000762478               0.000029842               0.000013121               0.000249783               0.000262904               0.000000000               0.000000000               0.000000000               0.000000000               0.000304836               0.000886955               0.000023341               0.000003444               0.000294501               0.000297945               0.000000000               0.000000000               0.000000000               0.000000000               0.000325262               0.001003767               0.000016144              -0.000003498               0.000335752               0.000332254               0.000000000               0.000000000               0.000000000               0.000000000               0.000349484               0.001107996               0.000009724              -0.000007443               0.000371809               0.000364366               0.000000000               0.000000000               0.000000000               0.000000000               0.000375858               0.001202260               0.000005776              -0.000009336               0.000403861               0.000394525               0.000000000               0.000000000               0.000000000               0.000000000               0.000401238               0.001289970               0.000004450              -0.000010782               0.000433580               0.000422798               0.000000000               0.000000000               0.000000000               0.000000000               0.000422597               0.001366231               0.000003809              -0.000012305               0.000459508               0.000447203               0.000000000               0.000000000               0.000000000               0.000000000               0.000439963               0.001431381               0.000003528              -0.000013936               0.000481768               0.000467831               0.000000000               0.000000000               0.000000000               0.000000000               0.000456015               0.001494969               0.000003951              -0.000015865               0.000503606               0.000487741               0.000000000               0.000000000               0.000000000               0.000000000               0.000471606               0.001558708               0.000003130              -0.000017986               0.000525560               0.000507573               0.000000000               0.000000000               0.000000000               0.000000000               0.000488427               0.001623935               0.000001397              -0.000019832               0.000547917               0.000528085               0.000000000               0.000000000               0.000000000               0.000000000               0.000496932               0.001657210               0.000000388              -0.000020802               0.000559332               0.000538530               0.000000000               0.000000000               0.000000000               0.000000000               0.000000000               0.000000000               0.000000000               0.000000000               0.000000000               0.000000000               0.000000000               0.000000000               0.000000000               0.000000000               0.000000000               0.000000000               0.000000000               0.000000000               0.000000000               0.000000000               0.000000000               0.000000000               0.000000000               0.000000000               0.000000000               0.000000000               0.000000000               0.000000000               0.000000000               0.000000000               0.000000000               0.000000000               0.000000000               0.000000000               0.000000000               0.000000000               0.000000000               0.000000000               0.000000000               0.000000000               0.000000000               0.000000000               0.000000000               0.000000000               0.000000000               0.000000000               0.000000000               0.000000000               0.000000000               0.000000000               0.000000000               0.000000000               0.000000000               0.000000000               0.000000000               0.000000000               0.000000000               0.000000000               0.000000000               0.000000000               0.000000000               0.000000000               0.000000000               0.000000000               0.000000000               0.000000000               0.000000000               0.000000000               0.000000000               0.000000000               0.000000000               0.000000000               0.000000000               0.000000000               0.000000000               0.000000000               0.000000000               0.000000000               0.000000000               0.000000000               0.000000000               0.000000000               0.000000000               0.000000000               0.000000000               0.000000000               0.000000000               0.000000000               0.000000000               0.000000000               0.000000000               0.000000000               0.000000000               0.000000000               0.000000000               0.000000000               0.000000000               0.000000000               0.000000000               0.000000000               0.000000000               0.000000000               0.000000000               0.000000000               0.000000000               0.000000000               0.000000000               0.000000000               0.000000000               0.000000000               0.000000000               0.000000000               0.000000000               0.000000000               0.000000000               0.000000000               0.000000000               0.000000000               0.000000000               0.000000000               0.000000000               0.000000000               0.000000000               0.000000000               0.000000000               0.000000000               0.000000000               0.000000000               0.000000000               0.000000000               0.000000000               0.000000000               0.000000000               0.000000000               0.000000000               0.000000000               0.000000000               0.000000000               0.000000000               0.000000000               0.000000000               0.000000000               0.000000000               0.000000000               0.000000000               0.000000000               0.000000000               0.000000000               0.000000000               0.000000000               0.000000000               0.000000000               0.000000000               0.000000000               0.000000000               0.000000000               0.000000000               0.000000000               0.000000000               0.000000000               0.000000000               0.000000000               0.000000000               0.000000000               0.000000000               0.000000000               0.000000000               0.000000000               0.000000000               0.000000000               0.000000000               0.000000000               0.000000000               0.000000000 </DataArray>
</PointData>
</Piece>
</UnstructuredGrid> </VTKFile>
