<?xml version="1.0"?>
<VTKFile type="UnstructuredGrid" version="0.1">
<UnstructuredGrid>
<Piece NumberOfPoints="      1156" NumberOfCells="      1024">
<Points>
<DataArray type="Float64"                                    Name="coordinates"                                                      NumberOfComponents=" 3" format="ascii">
              0.133000000               0.000000000               0.000000000               0.155937500               0.000000000               0.000000000               0.178875000               0.000000000               0.000000000               0.201812500               0.000000000               0.000000000               0.224750000               0.000000000               0.000000000               0.247687500               0.000000000               0.000000000               0.270625000               0.000000000               0.000000000               0.293562500               0.000000000               0.000000000               0.316500000               0.000000000               0.000000000               0.339437500               0.000000000               0.000000000               0.362375000               0.000000000               0.000000000               0.385312500               0.000000000               0.000000000               0.408250000               0.000000000               0.000000000               0.431187500               0.000000000               0.000000000               0.454125000               0.000000000               0.000000000               0.477062500               0.000000000               0.000000000               0.500000000               0.000000000               0.000000000               0.132359569               0.013036280               0.000000000               0.155337096               0.016127762               0.000000000               0.178314623               0.019219245               0.000000000               0.201292150               0.022310727               0.000000000               0.224269676               0.025402210               0.000000000               0.247247203               0.028493692               0.000000000               0.270224730               0.031585175               0.000000000               0.293202257               0.034676657               0.000000000               0.316179784               0.037768140               0.000000000               0.339157311               0.040859622               0.000000000               0.362134838               0.043951105               0.000000000               0.385112365               0.047042587               0.000000000               0.408089892               0.050134070               0.000000000               0.431067419               0.053225552               0.000000000               0.454044946               0.056317035               0.000000000               0.477022473               0.059408517               0.000000000               0.500000000               0.062500000               0.000000000               0.130444442               0.025947013               0.000000000               0.153541665               0.032137825               0.000000000               0.176638887               0.038328636               0.000000000               0.199736109               0.044519448               0.000000000               0.222833332               0.050710260               0.000000000               0.245930554               0.056901071               0.000000000               0.269027776               0.063091883               0.000000000               0.292124999               0.069282695               0.000000000               0.315222221               0.075473506               0.000000000               0.338319444               0.081664318               0.000000000               0.361416666               0.087855130               0.000000000               0.384513888               0.094045942               0.000000000               0.407611111               0.100236753               0.000000000               0.430708333               0.106427565               0.000000000               0.453805555               0.112618377               0.000000000               0.476902778               0.118809188               0.000000000               0.500000000               0.125000000               0.000000000               0.127273065               0.038607862               0.000000000               0.150568498               0.047913621               0.000000000               0.173863932               0.057219379               0.000000000               0.197159365               0.066525138               0.000000000               0.220454798               0.075830897               0.000000000               0.243750232               0.085136655               0.000000000               0.267045665               0.094442414               0.000000000               0.290341099               0.103748172               0.000000000               0.313636532               0.113053931               0.000000000               0.336931966               0.122359690               0.000000000               0.360227399               0.131665448               0.000000000               0.383522833               0.140971207               0.000000000               0.406818266               0.150276966               0.000000000               0.430113700               0.159582724               0.000000000               0.453409133               0.168888483               0.000000000               0.476704567               0.178194241               0.000000000               0.500000000               0.187500000               0.000000000               0.122875978               0.050896897               0.000000000               0.146446229               0.063340840               0.000000000               0.170016481               0.075784784               0.000000000               0.193586732               0.088228728               0.000000000               0.217156983               0.100672672               0.000000000               0.240727235               0.113116616               0.000000000               0.264297486               0.125560560               0.000000000               0.287867738               0.138004504               0.000000000               0.311437989               0.150448448               0.000000000               0.335008240               0.162892392               0.000000000               0.358578492               0.175336336               0.000000000               0.382148743               0.187780280               0.000000000               0.405718994               0.200224224               0.000000000               0.429289246               0.212668168               0.000000000               0.452859497               0.225112112               0.000000000               0.476429749               0.237556056               0.000000000               0.500000000               0.250000000               0.000000000               0.117295528               0.062695766               0.000000000               0.141214558               0.078308531               0.000000000               0.165133587               0.093921295               0.000000000               0.189052617               0.109534060               0.000000000               0.212971646               0.125146824               0.000000000               0.236890676               0.140759589               0.000000000               0.260809705               0.156372354               0.000000000               0.284728735               0.171985118               0.000000000               0.308647764               0.187597883               0.000000000               0.332566794               0.203210648               0.000000000               0.356485823               0.218823412               0.000000000               0.380404853               0.234436177               0.000000000               0.404323882               0.250048941               0.000000000               0.428242912               0.265661706               0.000000000               0.452161941               0.281274471               0.000000000               0.476080971               0.296887235               0.000000000               0.500000000               0.312500000               0.000000000               0.110585458               0.073890841               0.000000000               0.134923867               0.092710163               0.000000000               0.159262276               0.111529486               0.000000000               0.183600685               0.130348808               0.000000000               0.207939094               0.149168131               0.000000000               0.232277503               0.167987453               0.000000000               0.256615912               0.186806776               0.000000000               0.280954320               0.205626098               0.000000000               0.305292729               0.224445420               0.000000000               0.329631138               0.243264743               0.000000000               0.353969547               0.262084065               0.000000000               0.378307956               0.280903388               0.000000000               0.402646365               0.299722710               0.000000000               0.426984773               0.318542033               0.000000000               0.451323182               0.337361355               0.000000000               0.475661591               0.356180678               0.000000000               0.500000000               0.375000000               0.000000000               0.102810390               0.084374307               0.000000000               0.127634741               0.106444663               0.000000000               0.152459092               0.128515018               0.000000000               0.177283442               0.150585374               0.000000000               0.202107793               0.172655730               0.000000000               0.226932143               0.194726086               0.000000000               0.251756494               0.216796442               0.000000000               0.276580845               0.238866798               0.000000000               0.301405195               0.260937153               0.000000000               0.326229546               0.283007509               0.000000000               0.351053896               0.305077865               0.000000000               0.375878247               0.327148221               0.000000000               0.400702598               0.349218577               0.000000000               0.425526948               0.371288933               0.000000000               0.450351299               0.393359288               0.000000000               0.475175649               0.415429644               0.000000000               0.500000000               0.437500000               0.000000000               0.094045202               0.094045202               0.000000000               0.119417377               0.119417377               0.000000000               0.144789552               0.144789552               0.000000000               0.170161727               0.170161727               0.000000000               0.195533901               0.195533901               0.000000000               0.220906076               0.220906076               0.000000000               0.246278251               0.246278251               0.000000000               0.271650426               0.271650426               0.000000000               0.297022601               0.297022601               0.000000000               0.322394776               0.322394776               0.000000000               0.347766951               0.347766951               0.000000000               0.373139126               0.373139126               0.000000000               0.398511300               0.398511300               0.000000000               0.423883475               0.423883475               0.000000000               0.449255650               0.449255650               0.000000000               0.474627825               0.474627825               0.000000000               0.500000000               0.500000000               0.000000000               0.084374307               0.102810390               0.000000000               0.106444663               0.127634741               0.000000000               0.128515018               0.152459092               0.000000000               0.150585374               0.177283442               0.000000000               0.172655730               0.202107793               0.000000000               0.194726086               0.226932143               0.000000000               0.216796442               0.251756494               0.000000000               0.238866798               0.276580845               0.000000000               0.260937153               0.301405195               0.000000000               0.283007509               0.326229546               0.000000000               0.305077865               0.351053896               0.000000000               0.327148221               0.375878247               0.000000000               0.349218577               0.400702598               0.000000000               0.371288933               0.425526948               0.000000000               0.393359288               0.450351299               0.000000000               0.415429644               0.475175649               0.000000000               0.437500000               0.500000000               0.000000000               0.073890841               0.110585458               0.000000000               0.092710163               0.134923867               0.000000000               0.111529486               0.159262276               0.000000000               0.130348808               0.183600685               0.000000000               0.149168131               0.207939094               0.000000000               0.167987453               0.232277503               0.000000000               0.186806776               0.256615912               0.000000000               0.205626098               0.280954320               0.000000000               0.224445420               0.305292729               0.000000000               0.243264743               0.329631138               0.000000000               0.262084065               0.353969547               0.000000000               0.280903388               0.378307956               0.000000000               0.299722710               0.402646365               0.000000000               0.318542033               0.426984773               0.000000000               0.337361355               0.451323182               0.000000000               0.356180678               0.475661591               0.000000000               0.375000000               0.500000000               0.000000000               0.062695766               0.117295528               0.000000000               0.078308531               0.141214558               0.000000000               0.093921295               0.165133587               0.000000000               0.109534060               0.189052617               0.000000000               0.125146824               0.212971646               0.000000000               0.140759589               0.236890676               0.000000000               0.156372354               0.260809705               0.000000000               0.171985118               0.284728735               0.000000000               0.187597883               0.308647764               0.000000000               0.203210648               0.332566794               0.000000000               0.218823412               0.356485823               0.000000000               0.234436177               0.380404853               0.000000000               0.250048941               0.404323882               0.000000000               0.265661706               0.428242912               0.000000000               0.281274471               0.452161941               0.000000000               0.296887235               0.476080971               0.000000000               0.312500000               0.500000000               0.000000000               0.050896897               0.122875978               0.000000000               0.063340840               0.146446229               0.000000000               0.075784784               0.170016481               0.000000000               0.088228728               0.193586732               0.000000000               0.100672672               0.217156983               0.000000000               0.113116616               0.240727235               0.000000000               0.125560560               0.264297486               0.000000000               0.138004504               0.287867738               0.000000000               0.150448448               0.311437989               0.000000000               0.162892392               0.335008240               0.000000000               0.175336336               0.358578492               0.000000000               0.187780280               0.382148743               0.000000000               0.200224224               0.405718994               0.000000000               0.212668168               0.429289246               0.000000000               0.225112112               0.452859497               0.000000000               0.237556056               0.476429749               0.000000000               0.250000000               0.500000000               0.000000000               0.038607862               0.127273065               0.000000000               0.047913621               0.150568498               0.000000000               0.057219379               0.173863932               0.000000000               0.066525138               0.197159365               0.000000000               0.075830897               0.220454798               0.000000000               0.085136655               0.243750232               0.000000000               0.094442414               0.267045665               0.000000000               0.103748172               0.290341099               0.000000000               0.113053931               0.313636532               0.000000000               0.122359690               0.336931966               0.000000000               0.131665448               0.360227399               0.000000000               0.140971207               0.383522833               0.000000000               0.150276966               0.406818266               0.000000000               0.159582724               0.430113700               0.000000000               0.168888483               0.453409133               0.000000000               0.178194241               0.476704567               0.000000000               0.187500000               0.500000000               0.000000000               0.025947013               0.130444442               0.000000000               0.032137825               0.153541665               0.000000000               0.038328636               0.176638887               0.000000000               0.044519448               0.199736109               0.000000000               0.050710260               0.222833332               0.000000000               0.056901071               0.245930554               0.000000000               0.063091883               0.269027776               0.000000000               0.069282695               0.292124999               0.000000000               0.075473506               0.315222221               0.000000000               0.081664318               0.338319444               0.000000000               0.087855130               0.361416666               0.000000000               0.094045942               0.384513888               0.000000000               0.100236753               0.407611111               0.000000000               0.106427565               0.430708333               0.000000000               0.112618377               0.453805555               0.000000000               0.118809188               0.476902778               0.000000000               0.125000000               0.500000000               0.000000000               0.013036280               0.132359569               0.000000000               0.016127762               0.155337096               0.000000000               0.019219245               0.178314623               0.000000000               0.022310727               0.201292150               0.000000000               0.025402210               0.224269676               0.000000000               0.028493692               0.247247203               0.000000000               0.031585175               0.270224730               0.000000000               0.034676657               0.293202257               0.000000000               0.037768140               0.316179784               0.000000000               0.040859622               0.339157311               0.000000000               0.043951105               0.362134838               0.000000000               0.047042587               0.385112365               0.000000000               0.050134070               0.408089892               0.000000000               0.053225552               0.431067419               0.000000000               0.056317035               0.454044946               0.000000000               0.059408517               0.477022473               0.000000000               0.062500000               0.500000000               0.000000000               0.000000000               0.133000000               0.000000000               0.000000000               0.155937500               0.000000000               0.000000000               0.178875000               0.000000000               0.000000000               0.201812500               0.000000000               0.000000000               0.224750000               0.000000000               0.000000000               0.247687500               0.000000000               0.000000000               0.270625000               0.000000000               0.000000000               0.293562500               0.000000000               0.000000000               0.316500000               0.000000000               0.000000000               0.339437500               0.000000000               0.000000000               0.362375000               0.000000000               0.000000000               0.385312500               0.000000000               0.000000000               0.408250000               0.000000000               0.000000000               0.431187500               0.000000000               0.000000000               0.454125000               0.000000000               0.000000000               0.477062500               0.000000000               0.000000000               0.500000000               0.000000000               0.133000000               0.000000000               0.000000000               0.155937500               0.000000000               0.000000000               0.178875000               0.000000000               0.000000000               0.201812500               0.000000000               0.000000000               0.224750000               0.000000000               0.000000000               0.247687500               0.000000000               0.000000000               0.270625000               0.000000000               0.000000000               0.293562500               0.000000000               0.000000000               0.316500000               0.000000000               0.000000000               0.339437500               0.000000000               0.000000000               0.362375000               0.000000000               0.000000000               0.385312500               0.000000000               0.000000000               0.408250000               0.000000000               0.000000000               0.431187500               0.000000000               0.000000000               0.454125000               0.000000000               0.000000000               0.477062500               0.000000000               0.000000000               0.500000000               0.000000000               0.000000000               0.132359569              -0.013036280               0.000000000               0.155337096              -0.016127762               0.000000000               0.178314623              -0.019219245               0.000000000               0.201292150              -0.022310727               0.000000000               0.224269676              -0.025402210               0.000000000               0.247247203              -0.028493692               0.000000000               0.270224730              -0.031585175               0.000000000               0.293202257              -0.034676657               0.000000000               0.316179784              -0.037768140               0.000000000               0.339157311              -0.040859622               0.000000000               0.362134838              -0.043951105               0.000000000               0.385112365              -0.047042587               0.000000000               0.408089892              -0.050134070               0.000000000               0.431067419              -0.053225552               0.000000000               0.454044946              -0.056317035               0.000000000               0.477022473              -0.059408517               0.000000000               0.500000000              -0.062500000               0.000000000               0.130444442              -0.025947013               0.000000000               0.153541665              -0.032137825               0.000000000               0.176638887              -0.038328636               0.000000000               0.199736109              -0.044519448               0.000000000               0.222833332              -0.050710260               0.000000000               0.245930554              -0.056901071               0.000000000               0.269027776              -0.063091883               0.000000000               0.292124999              -0.069282695               0.000000000               0.315222221              -0.075473506               0.000000000               0.338319444              -0.081664318               0.000000000               0.361416666              -0.087855130               0.000000000               0.384513888              -0.094045942               0.000000000               0.407611111              -0.100236753               0.000000000               0.430708333              -0.106427565               0.000000000               0.453805555              -0.112618377               0.000000000               0.476902778              -0.118809188               0.000000000               0.500000000              -0.125000000               0.000000000               0.127273065              -0.038607862               0.000000000               0.150568498              -0.047913621               0.000000000               0.173863932              -0.057219379               0.000000000               0.197159365              -0.066525138               0.000000000               0.220454798              -0.075830897               0.000000000               0.243750232              -0.085136655               0.000000000               0.267045665              -0.094442414               0.000000000               0.290341099              -0.103748172               0.000000000               0.313636532              -0.113053931               0.000000000               0.336931966              -0.122359690               0.000000000               0.360227399              -0.131665448               0.000000000               0.383522833              -0.140971207               0.000000000               0.406818266              -0.150276966               0.000000000               0.430113700              -0.159582724               0.000000000               0.453409133              -0.168888483               0.000000000               0.476704567              -0.178194241               0.000000000               0.500000000              -0.187500000               0.000000000               0.122875978              -0.050896897               0.000000000               0.146446229              -0.063340840               0.000000000               0.170016481              -0.075784784               0.000000000               0.193586732              -0.088228728               0.000000000               0.217156983              -0.100672672               0.000000000               0.240727235              -0.113116616               0.000000000               0.264297486              -0.125560560               0.000000000               0.287867738              -0.138004504               0.000000000               0.311437989              -0.150448448               0.000000000               0.335008240              -0.162892392               0.000000000               0.358578492              -0.175336336               0.000000000               0.382148743              -0.187780280               0.000000000               0.405718994              -0.200224224               0.000000000               0.429289246              -0.212668168               0.000000000               0.452859497              -0.225112112               0.000000000               0.476429749              -0.237556056               0.000000000               0.500000000              -0.250000000               0.000000000               0.117295528              -0.062695766               0.000000000               0.141214558              -0.078308531               0.000000000               0.165133587              -0.093921295               0.000000000               0.189052617              -0.109534060               0.000000000               0.212971646              -0.125146824               0.000000000               0.236890676              -0.140759589               0.000000000               0.260809705              -0.156372354               0.000000000               0.284728735              -0.171985118               0.000000000               0.308647764              -0.187597883               0.000000000               0.332566794              -0.203210648               0.000000000               0.356485823              -0.218823412               0.000000000               0.380404853              -0.234436177               0.000000000               0.404323882              -0.250048941               0.000000000               0.428242912              -0.265661706               0.000000000               0.452161941              -0.281274471               0.000000000               0.476080971              -0.296887235               0.000000000               0.500000000              -0.312500000               0.000000000               0.110585458              -0.073890841               0.000000000               0.134923867              -0.092710163               0.000000000               0.159262276              -0.111529486               0.000000000               0.183600685              -0.130348808               0.000000000               0.207939094              -0.149168131               0.000000000               0.232277503              -0.167987453               0.000000000               0.256615912              -0.186806776               0.000000000               0.280954320              -0.205626098               0.000000000               0.305292729              -0.224445420               0.000000000               0.329631138              -0.243264743               0.000000000               0.353969547              -0.262084065               0.000000000               0.378307956              -0.280903388               0.000000000               0.402646365              -0.299722710               0.000000000               0.426984773              -0.318542033               0.000000000               0.451323182              -0.337361355               0.000000000               0.475661591              -0.356180678               0.000000000               0.500000000              -0.375000000               0.000000000               0.102810390              -0.084374307               0.000000000               0.127634741              -0.106444663               0.000000000               0.152459092              -0.128515018               0.000000000               0.177283442              -0.150585374               0.000000000               0.202107793              -0.172655730               0.000000000               0.226932143              -0.194726086               0.000000000               0.251756494              -0.216796442               0.000000000               0.276580845              -0.238866798               0.000000000               0.301405195              -0.260937153               0.000000000               0.326229546              -0.283007509               0.000000000               0.351053896              -0.305077865               0.000000000               0.375878247              -0.327148221               0.000000000               0.400702598              -0.349218577               0.000000000               0.425526948              -0.371288933               0.000000000               0.450351299              -0.393359288               0.000000000               0.475175649              -0.415429644               0.000000000               0.500000000              -0.437500000               0.000000000               0.094045202              -0.094045202               0.000000000               0.119417377              -0.119417377               0.000000000               0.144789552              -0.144789552               0.000000000               0.170161727              -0.170161727               0.000000000               0.195533901              -0.195533901               0.000000000               0.220906076              -0.220906076               0.000000000               0.246278251              -0.246278251               0.000000000               0.271650426              -0.271650426               0.000000000               0.297022601              -0.297022601               0.000000000               0.322394776              -0.322394776               0.000000000               0.347766951              -0.347766951               0.000000000               0.373139126              -0.373139126               0.000000000               0.398511300              -0.398511300               0.000000000               0.423883475              -0.423883475               0.000000000               0.449255650              -0.449255650               0.000000000               0.474627825              -0.474627825               0.000000000               0.500000000              -0.500000000               0.000000000               0.084374307              -0.102810390               0.000000000               0.106444663              -0.127634741               0.000000000               0.128515018              -0.152459092               0.000000000               0.150585374              -0.177283442               0.000000000               0.172655730              -0.202107793               0.000000000               0.194726086              -0.226932143               0.000000000               0.216796442              -0.251756494               0.000000000               0.238866798              -0.276580845               0.000000000               0.260937153              -0.301405195               0.000000000               0.283007509              -0.326229546               0.000000000               0.305077865              -0.351053896               0.000000000               0.327148221              -0.375878247               0.000000000               0.349218577              -0.400702598               0.000000000               0.371288933              -0.425526948               0.000000000               0.393359288              -0.450351299               0.000000000               0.415429644              -0.475175649               0.000000000               0.437500000              -0.500000000               0.000000000               0.073890841              -0.110585458               0.000000000               0.092710163              -0.134923867               0.000000000               0.111529486              -0.159262276               0.000000000               0.130348808              -0.183600685               0.000000000               0.149168131              -0.207939094               0.000000000               0.167987453              -0.232277503               0.000000000               0.186806776              -0.256615912               0.000000000               0.205626098              -0.280954320               0.000000000               0.224445420              -0.305292729               0.000000000               0.243264743              -0.329631138               0.000000000               0.262084065              -0.353969547               0.000000000               0.280903388              -0.378307956               0.000000000               0.299722710              -0.402646365               0.000000000               0.318542033              -0.426984773               0.000000000               0.337361355              -0.451323182               0.000000000               0.356180678              -0.475661591               0.000000000               0.375000000              -0.500000000               0.000000000               0.062695766              -0.117295528               0.000000000               0.078308531              -0.141214558               0.000000000               0.093921295              -0.165133587               0.000000000               0.109534060              -0.189052617               0.000000000               0.125146824              -0.212971646               0.000000000               0.140759589              -0.236890676               0.000000000               0.156372354              -0.260809705               0.000000000               0.171985118              -0.284728735               0.000000000               0.187597883              -0.308647764               0.000000000               0.203210648              -0.332566794               0.000000000               0.218823412              -0.356485823               0.000000000               0.234436177              -0.380404853               0.000000000               0.250048941              -0.404323882               0.000000000               0.265661706              -0.428242912               0.000000000               0.281274471              -0.452161941               0.000000000               0.296887235              -0.476080971               0.000000000               0.312500000              -0.500000000               0.000000000               0.050896897              -0.122875978               0.000000000               0.063340840              -0.146446229               0.000000000               0.075784784              -0.170016481               0.000000000               0.088228728              -0.193586732               0.000000000               0.100672672              -0.217156983               0.000000000               0.113116616              -0.240727235               0.000000000               0.125560560              -0.264297486               0.000000000               0.138004504              -0.287867738               0.000000000               0.150448448              -0.311437989               0.000000000               0.162892392              -0.335008240               0.000000000               0.175336336              -0.358578492               0.000000000               0.187780280              -0.382148743               0.000000000               0.200224224              -0.405718994               0.000000000               0.212668168              -0.429289246               0.000000000               0.225112112              -0.452859497               0.000000000               0.237556056              -0.476429749               0.000000000               0.250000000              -0.500000000               0.000000000               0.038607862              -0.127273065               0.000000000               0.047913621              -0.150568498               0.000000000               0.057219379              -0.173863932               0.000000000               0.066525138              -0.197159365               0.000000000               0.075830897              -0.220454798               0.000000000               0.085136655              -0.243750232               0.000000000               0.094442414              -0.267045665               0.000000000               0.103748172              -0.290341099               0.000000000               0.113053931              -0.313636532               0.000000000               0.122359690              -0.336931966               0.000000000               0.131665448              -0.360227399               0.000000000               0.140971207              -0.383522833               0.000000000               0.150276966              -0.406818266               0.000000000               0.159582724              -0.430113700               0.000000000               0.168888483              -0.453409133               0.000000000               0.178194241              -0.476704567               0.000000000               0.187500000              -0.500000000               0.000000000               0.025947013              -0.130444442               0.000000000               0.032137825              -0.153541665               0.000000000               0.038328636              -0.176638887               0.000000000               0.044519448              -0.199736109               0.000000000               0.050710260              -0.222833332               0.000000000               0.056901071              -0.245930554               0.000000000               0.063091883              -0.269027776               0.000000000               0.069282695              -0.292124999               0.000000000               0.075473506              -0.315222221               0.000000000               0.081664318              -0.338319444               0.000000000               0.087855130              -0.361416666               0.000000000               0.094045942              -0.384513888               0.000000000               0.100236753              -0.407611111               0.000000000               0.106427565              -0.430708333               0.000000000               0.112618377              -0.453805555               0.000000000               0.118809188              -0.476902778               0.000000000               0.125000000              -0.500000000               0.000000000               0.013036280              -0.132359569               0.000000000               0.016127762              -0.155337096               0.000000000               0.019219245              -0.178314623               0.000000000               0.022310727              -0.201292150               0.000000000               0.025402210              -0.224269676               0.000000000               0.028493692              -0.247247203               0.000000000               0.031585175              -0.270224730               0.000000000               0.034676657              -0.293202257               0.000000000               0.037768140              -0.316179784               0.000000000               0.040859622              -0.339157311               0.000000000               0.043951105              -0.362134838               0.000000000               0.047042587              -0.385112365               0.000000000               0.050134070              -0.408089892               0.000000000               0.053225552              -0.431067419               0.000000000               0.056317035              -0.454044946               0.000000000               0.059408517              -0.477022473               0.000000000               0.062500000              -0.500000000               0.000000000               0.000000000              -0.133000000               0.000000000               0.000000000              -0.155937500               0.000000000               0.000000000              -0.178875000               0.000000000               0.000000000              -0.201812500               0.000000000               0.000000000              -0.224750000               0.000000000               0.000000000              -0.247687500               0.000000000               0.000000000              -0.270625000               0.000000000               0.000000000              -0.293562500               0.000000000               0.000000000              -0.316500000               0.000000000               0.000000000              -0.339437500               0.000000000               0.000000000              -0.362375000               0.000000000               0.000000000              -0.385312500               0.000000000               0.000000000              -0.408250000               0.000000000               0.000000000              -0.431187500               0.000000000               0.000000000              -0.454125000               0.000000000               0.000000000              -0.477062500               0.000000000               0.000000000              -0.500000000               0.000000000              -0.133000000               0.000000000               0.000000000              -0.155937500               0.000000000               0.000000000              -0.178875000               0.000000000               0.000000000              -0.201812500               0.000000000               0.000000000              -0.224750000               0.000000000               0.000000000              -0.247687500               0.000000000               0.000000000              -0.270625000               0.000000000               0.000000000              -0.293562500               0.000000000               0.000000000              -0.316500000               0.000000000               0.000000000              -0.339437500               0.000000000               0.000000000              -0.362375000               0.000000000               0.000000000              -0.385312500               0.000000000               0.000000000              -0.408250000               0.000000000               0.000000000              -0.431187500               0.000000000               0.000000000              -0.454125000               0.000000000               0.000000000              -0.477062500               0.000000000               0.000000000              -0.500000000               0.000000000               0.000000000              -0.132359569              -0.013036280               0.000000000              -0.155337096              -0.016127762               0.000000000              -0.178314623              -0.019219245               0.000000000              -0.201292150              -0.022310727               0.000000000              -0.224269676              -0.025402210               0.000000000              -0.247247203              -0.028493692               0.000000000              -0.270224730              -0.031585175               0.000000000              -0.293202257              -0.034676657               0.000000000              -0.316179784              -0.037768140               0.000000000              -0.339157311              -0.040859622               0.000000000              -0.362134838              -0.043951105               0.000000000              -0.385112365              -0.047042587               0.000000000              -0.408089892              -0.050134070               0.000000000              -0.431067419              -0.053225552               0.000000000              -0.454044946              -0.056317035               0.000000000              -0.477022473              -0.059408517               0.000000000              -0.500000000              -0.062500000               0.000000000              -0.130444442              -0.025947013               0.000000000              -0.153541665              -0.032137825               0.000000000              -0.176638887              -0.038328636               0.000000000              -0.199736109              -0.044519448               0.000000000              -0.222833332              -0.050710260               0.000000000              -0.245930554              -0.056901071               0.000000000              -0.269027776              -0.063091883               0.000000000              -0.292124999              -0.069282695               0.000000000              -0.315222221              -0.075473506               0.000000000              -0.338319444              -0.081664318               0.000000000              -0.361416666              -0.087855130               0.000000000              -0.384513888              -0.094045942               0.000000000              -0.407611111              -0.100236753               0.000000000              -0.430708333              -0.106427565               0.000000000              -0.453805555              -0.112618377               0.000000000              -0.476902778              -0.118809188               0.000000000              -0.500000000              -0.125000000               0.000000000              -0.127273065              -0.038607862               0.000000000              -0.150568498              -0.047913621               0.000000000              -0.173863932              -0.057219379               0.000000000              -0.197159365              -0.066525138               0.000000000              -0.220454798              -0.075830897               0.000000000              -0.243750232              -0.085136655               0.000000000              -0.267045665              -0.094442414               0.000000000              -0.290341099              -0.103748172               0.000000000              -0.313636532              -0.113053931               0.000000000              -0.336931966              -0.122359690               0.000000000              -0.360227399              -0.131665448               0.000000000              -0.383522833              -0.140971207               0.000000000              -0.406818266              -0.150276966               0.000000000              -0.430113700              -0.159582724               0.000000000              -0.453409133              -0.168888483               0.000000000              -0.476704567              -0.178194241               0.000000000              -0.500000000              -0.187500000               0.000000000              -0.122875978              -0.050896897               0.000000000              -0.146446229              -0.063340840               0.000000000              -0.170016481              -0.075784784               0.000000000              -0.193586732              -0.088228728               0.000000000              -0.217156983              -0.100672672               0.000000000              -0.240727235              -0.113116616               0.000000000              -0.264297486              -0.125560560               0.000000000              -0.287867738              -0.138004504               0.000000000              -0.311437989              -0.150448448               0.000000000              -0.335008240              -0.162892392               0.000000000              -0.358578492              -0.175336336               0.000000000              -0.382148743              -0.187780280               0.000000000              -0.405718994              -0.200224224               0.000000000              -0.429289246              -0.212668168               0.000000000              -0.452859497              -0.225112112               0.000000000              -0.476429749              -0.237556056               0.000000000              -0.500000000              -0.250000000               0.000000000              -0.117295528              -0.062695766               0.000000000              -0.141214558              -0.078308531               0.000000000              -0.165133587              -0.093921295               0.000000000              -0.189052617              -0.109534060               0.000000000              -0.212971646              -0.125146824               0.000000000              -0.236890676              -0.140759589               0.000000000              -0.260809705              -0.156372354               0.000000000              -0.284728735              -0.171985118               0.000000000              -0.308647764              -0.187597883               0.000000000              -0.332566794              -0.203210648               0.000000000              -0.356485823              -0.218823412               0.000000000              -0.380404853              -0.234436177               0.000000000              -0.404323882              -0.250048941               0.000000000              -0.428242912              -0.265661706               0.000000000              -0.452161941              -0.281274471               0.000000000              -0.476080971              -0.296887235               0.000000000              -0.500000000              -0.312500000               0.000000000              -0.110585458              -0.073890841               0.000000000              -0.134923867              -0.092710163               0.000000000              -0.159262276              -0.111529486               0.000000000              -0.183600685              -0.130348808               0.000000000              -0.207939094              -0.149168131               0.000000000              -0.232277503              -0.167987453               0.000000000              -0.256615912              -0.186806776               0.000000000              -0.280954320              -0.205626098               0.000000000              -0.305292729              -0.224445420               0.000000000              -0.329631138              -0.243264743               0.000000000              -0.353969547              -0.262084065               0.000000000              -0.378307956              -0.280903388               0.000000000              -0.402646365              -0.299722710               0.000000000              -0.426984773              -0.318542033               0.000000000              -0.451323182              -0.337361355               0.000000000              -0.475661591              -0.356180678               0.000000000              -0.500000000              -0.375000000               0.000000000              -0.102810390              -0.084374307               0.000000000              -0.127634741              -0.106444663               0.000000000              -0.152459092              -0.128515018               0.000000000              -0.177283442              -0.150585374               0.000000000              -0.202107793              -0.172655730               0.000000000              -0.226932143              -0.194726086               0.000000000              -0.251756494              -0.216796442               0.000000000              -0.276580845              -0.238866798               0.000000000              -0.301405195              -0.260937153               0.000000000              -0.326229546              -0.283007509               0.000000000              -0.351053896              -0.305077865               0.000000000              -0.375878247              -0.327148221               0.000000000              -0.400702598              -0.349218577               0.000000000              -0.425526948              -0.371288933               0.000000000              -0.450351299              -0.393359288               0.000000000              -0.475175649              -0.415429644               0.000000000              -0.500000000              -0.437500000               0.000000000              -0.094045202              -0.094045202               0.000000000              -0.119417377              -0.119417377               0.000000000              -0.144789552              -0.144789552               0.000000000              -0.170161727              -0.170161727               0.000000000              -0.195533901              -0.195533901               0.000000000              -0.220906076              -0.220906076               0.000000000              -0.246278251              -0.246278251               0.000000000              -0.271650426              -0.271650426               0.000000000              -0.297022601              -0.297022601               0.000000000              -0.322394776              -0.322394776               0.000000000              -0.347766951              -0.347766951               0.000000000              -0.373139126              -0.373139126               0.000000000              -0.398511300              -0.398511300               0.000000000              -0.423883475              -0.423883475               0.000000000              -0.449255650              -0.449255650               0.000000000              -0.474627825              -0.474627825               0.000000000              -0.500000000              -0.500000000               0.000000000              -0.084374307              -0.102810390               0.000000000              -0.106444663              -0.127634741               0.000000000              -0.128515018              -0.152459092               0.000000000              -0.150585374              -0.177283442               0.000000000              -0.172655730              -0.202107793               0.000000000              -0.194726086              -0.226932143               0.000000000              -0.216796442              -0.251756494               0.000000000              -0.238866798              -0.276580845               0.000000000              -0.260937153              -0.301405195               0.000000000              -0.283007509              -0.326229546               0.000000000              -0.305077865              -0.351053896               0.000000000              -0.327148221              -0.375878247               0.000000000              -0.349218577              -0.400702598               0.000000000              -0.371288933              -0.425526948               0.000000000              -0.393359288              -0.450351299               0.000000000              -0.415429644              -0.475175649               0.000000000              -0.437500000              -0.500000000               0.000000000              -0.073890841              -0.110585458               0.000000000              -0.092710163              -0.134923867               0.000000000              -0.111529486              -0.159262276               0.000000000              -0.130348808              -0.183600685               0.000000000              -0.149168131              -0.207939094               0.000000000              -0.167987453              -0.232277503               0.000000000              -0.186806776              -0.256615912               0.000000000              -0.205626098              -0.280954320               0.000000000              -0.224445420              -0.305292729               0.000000000              -0.243264743              -0.329631138               0.000000000              -0.262084065              -0.353969547               0.000000000              -0.280903388              -0.378307956               0.000000000              -0.299722710              -0.402646365               0.000000000              -0.318542033              -0.426984773               0.000000000              -0.337361355              -0.451323182               0.000000000              -0.356180678              -0.475661591               0.000000000              -0.375000000              -0.500000000               0.000000000              -0.062695766              -0.117295528               0.000000000              -0.078308531              -0.141214558               0.000000000              -0.093921295              -0.165133587               0.000000000              -0.109534060              -0.189052617               0.000000000              -0.125146824              -0.212971646               0.000000000              -0.140759589              -0.236890676               0.000000000              -0.156372354              -0.260809705               0.000000000              -0.171985118              -0.284728735               0.000000000              -0.187597883              -0.308647764               0.000000000              -0.203210648              -0.332566794               0.000000000              -0.218823412              -0.356485823               0.000000000              -0.234436177              -0.380404853               0.000000000              -0.250048941              -0.404323882               0.000000000              -0.265661706              -0.428242912               0.000000000              -0.281274471              -0.452161941               0.000000000              -0.296887235              -0.476080971               0.000000000              -0.312500000              -0.500000000               0.000000000              -0.050896897              -0.122875978               0.000000000              -0.063340840              -0.146446229               0.000000000              -0.075784784              -0.170016481               0.000000000              -0.088228728              -0.193586732               0.000000000              -0.100672672              -0.217156983               0.000000000              -0.113116616              -0.240727235               0.000000000              -0.125560560              -0.264297486               0.000000000              -0.138004504              -0.287867738               0.000000000              -0.150448448              -0.311437989               0.000000000              -0.162892392              -0.335008240               0.000000000              -0.175336336              -0.358578492               0.000000000              -0.187780280              -0.382148743               0.000000000              -0.200224224              -0.405718994               0.000000000              -0.212668168              -0.429289246               0.000000000              -0.225112112              -0.452859497               0.000000000              -0.237556056              -0.476429749               0.000000000              -0.250000000              -0.500000000               0.000000000              -0.038607862              -0.127273065               0.000000000              -0.047913621              -0.150568498               0.000000000              -0.057219379              -0.173863932               0.000000000              -0.066525138              -0.197159365               0.000000000              -0.075830897              -0.220454798               0.000000000              -0.085136655              -0.243750232               0.000000000              -0.094442414              -0.267045665               0.000000000              -0.103748172              -0.290341099               0.000000000              -0.113053931              -0.313636532               0.000000000              -0.122359690              -0.336931966               0.000000000              -0.131665448              -0.360227399               0.000000000              -0.140971207              -0.383522833               0.000000000              -0.150276966              -0.406818266               0.000000000              -0.159582724              -0.430113700               0.000000000              -0.168888483              -0.453409133               0.000000000              -0.178194241              -0.476704567               0.000000000              -0.187500000              -0.500000000               0.000000000              -0.025947013              -0.130444442               0.000000000              -0.032137825              -0.153541665               0.000000000              -0.038328636              -0.176638887               0.000000000              -0.044519448              -0.199736109               0.000000000              -0.050710260              -0.222833332               0.000000000              -0.056901071              -0.245930554               0.000000000              -0.063091883              -0.269027776               0.000000000              -0.069282695              -0.292124999               0.000000000              -0.075473506              -0.315222221               0.000000000              -0.081664318              -0.338319444               0.000000000              -0.087855130              -0.361416666               0.000000000              -0.094045942              -0.384513888               0.000000000              -0.100236753              -0.407611111               0.000000000              -0.106427565              -0.430708333               0.000000000              -0.112618377              -0.453805555               0.000000000              -0.118809188              -0.476902778               0.000000000              -0.125000000              -0.500000000               0.000000000              -0.013036280              -0.132359569               0.000000000              -0.016127762              -0.155337096               0.000000000              -0.019219245              -0.178314623               0.000000000              -0.022310727              -0.201292150               0.000000000              -0.025402210              -0.224269676               0.000000000              -0.028493692              -0.247247203               0.000000000              -0.031585175              -0.270224730               0.000000000              -0.034676657              -0.293202257               0.000000000              -0.037768140              -0.316179784               0.000000000              -0.040859622              -0.339157311               0.000000000              -0.043951105              -0.362134838               0.000000000              -0.047042587              -0.385112365               0.000000000              -0.050134070              -0.408089892               0.000000000              -0.053225552              -0.431067419               0.000000000              -0.056317035              -0.454044946               0.000000000              -0.059408517              -0.477022473               0.000000000              -0.062500000              -0.500000000               0.000000000               0.000000000              -0.133000000               0.000000000               0.000000000              -0.155937500               0.000000000               0.000000000              -0.178875000               0.000000000               0.000000000              -0.201812500               0.000000000               0.000000000              -0.224750000               0.000000000               0.000000000              -0.247687500               0.000000000               0.000000000              -0.270625000               0.000000000               0.000000000              -0.293562500               0.000000000               0.000000000              -0.316500000               0.000000000               0.000000000              -0.339437500               0.000000000               0.000000000              -0.362375000               0.000000000               0.000000000              -0.385312500               0.000000000               0.000000000              -0.408250000               0.000000000               0.000000000              -0.431187500               0.000000000               0.000000000              -0.454125000               0.000000000               0.000000000              -0.477062500               0.000000000               0.000000000              -0.500000000               0.000000000              -0.133000000               0.000000000               0.000000000              -0.155937500               0.000000000               0.000000000              -0.178875000               0.000000000               0.000000000              -0.201812500               0.000000000               0.000000000              -0.224750000               0.000000000               0.000000000              -0.247687500               0.000000000               0.000000000              -0.270625000               0.000000000               0.000000000              -0.293562500               0.000000000               0.000000000              -0.316500000               0.000000000               0.000000000              -0.339437500               0.000000000               0.000000000              -0.362375000               0.000000000               0.000000000              -0.385312500               0.000000000               0.000000000              -0.408250000               0.000000000               0.000000000              -0.431187500               0.000000000               0.000000000              -0.454125000               0.000000000               0.000000000              -0.477062500               0.000000000               0.000000000              -0.500000000               0.000000000               0.000000000              -0.132359569               0.013036280               0.000000000              -0.155337096               0.016127762               0.000000000              -0.178314623               0.019219245               0.000000000              -0.201292150               0.022310727               0.000000000              -0.224269676               0.025402210               0.000000000              -0.247247203               0.028493692               0.000000000              -0.270224730               0.031585175               0.000000000              -0.293202257               0.034676657               0.000000000              -0.316179784               0.037768140               0.000000000              -0.339157311               0.040859622               0.000000000              -0.362134838               0.043951105               0.000000000              -0.385112365               0.047042587               0.000000000              -0.408089892               0.050134070               0.000000000              -0.431067419               0.053225552               0.000000000              -0.454044946               0.056317035               0.000000000              -0.477022473               0.059408517               0.000000000              -0.500000000               0.062500000               0.000000000              -0.130444442               0.025947013               0.000000000              -0.153541665               0.032137825               0.000000000              -0.176638887               0.038328636               0.000000000              -0.199736109               0.044519448               0.000000000              -0.222833332               0.050710260               0.000000000              -0.245930554               0.056901071               0.000000000              -0.269027776               0.063091883               0.000000000              -0.292124999               0.069282695               0.000000000              -0.315222221               0.075473506               0.000000000              -0.338319444               0.081664318               0.000000000              -0.361416666               0.087855130               0.000000000              -0.384513888               0.094045942               0.000000000              -0.407611111               0.100236753               0.000000000              -0.430708333               0.106427565               0.000000000              -0.453805555               0.112618377               0.000000000              -0.476902778               0.118809188               0.000000000              -0.500000000               0.125000000               0.000000000              -0.127273065               0.038607862               0.000000000              -0.150568498               0.047913621               0.000000000              -0.173863932               0.057219379               0.000000000              -0.197159365               0.066525138               0.000000000              -0.220454798               0.075830897               0.000000000              -0.243750232               0.085136655               0.000000000              -0.267045665               0.094442414               0.000000000              -0.290341099               0.103748172               0.000000000              -0.313636532               0.113053931               0.000000000              -0.336931966               0.122359690               0.000000000              -0.360227399               0.131665448               0.000000000              -0.383522833               0.140971207               0.000000000              -0.406818266               0.150276966               0.000000000              -0.430113700               0.159582724               0.000000000              -0.453409133               0.168888483               0.000000000              -0.476704567               0.178194241               0.000000000              -0.500000000               0.187500000               0.000000000              -0.122875978               0.050896897               0.000000000              -0.146446229               0.063340840               0.000000000              -0.170016481               0.075784784               0.000000000              -0.193586732               0.088228728               0.000000000              -0.217156983               0.100672672               0.000000000              -0.240727235               0.113116616               0.000000000              -0.264297486               0.125560560               0.000000000              -0.287867738               0.138004504               0.000000000              -0.311437989               0.150448448               0.000000000              -0.335008240               0.162892392               0.000000000              -0.358578492               0.175336336               0.000000000              -0.382148743               0.187780280               0.000000000              -0.405718994               0.200224224               0.000000000              -0.429289246               0.212668168               0.000000000              -0.452859497               0.225112112               0.000000000              -0.476429749               0.237556056               0.000000000              -0.500000000               0.250000000               0.000000000              -0.117295528               0.062695766               0.000000000              -0.141214558               0.078308531               0.000000000              -0.165133587               0.093921295               0.000000000              -0.189052617               0.109534060               0.000000000              -0.212971646               0.125146824               0.000000000              -0.236890676               0.140759589               0.000000000              -0.260809705               0.156372354               0.000000000              -0.284728735               0.171985118               0.000000000              -0.308647764               0.187597883               0.000000000              -0.332566794               0.203210648               0.000000000              -0.356485823               0.218823412               0.000000000              -0.380404853               0.234436177               0.000000000              -0.404323882               0.250048941               0.000000000              -0.428242912               0.265661706               0.000000000              -0.452161941               0.281274471               0.000000000              -0.476080971               0.296887235               0.000000000              -0.500000000               0.312500000               0.000000000              -0.110585458               0.073890841               0.000000000              -0.134923867               0.092710163               0.000000000              -0.159262276               0.111529486               0.000000000              -0.183600685               0.130348808               0.000000000              -0.207939094               0.149168131               0.000000000              -0.232277503               0.167987453               0.000000000              -0.256615912               0.186806776               0.000000000              -0.280954320               0.205626098               0.000000000              -0.305292729               0.224445420               0.000000000              -0.329631138               0.243264743               0.000000000              -0.353969547               0.262084065               0.000000000              -0.378307956               0.280903388               0.000000000              -0.402646365               0.299722710               0.000000000              -0.426984773               0.318542033               0.000000000              -0.451323182               0.337361355               0.000000000              -0.475661591               0.356180678               0.000000000              -0.500000000               0.375000000               0.000000000              -0.102810390               0.084374307               0.000000000              -0.127634741               0.106444663               0.000000000              -0.152459092               0.128515018               0.000000000              -0.177283442               0.150585374               0.000000000              -0.202107793               0.172655730               0.000000000              -0.226932143               0.194726086               0.000000000              -0.251756494               0.216796442               0.000000000              -0.276580845               0.238866798               0.000000000              -0.301405195               0.260937153               0.000000000              -0.326229546               0.283007509               0.000000000              -0.351053896               0.305077865               0.000000000              -0.375878247               0.327148221               0.000000000              -0.400702598               0.349218577               0.000000000              -0.425526948               0.371288933               0.000000000              -0.450351299               0.393359288               0.000000000              -0.475175649               0.415429644               0.000000000              -0.500000000               0.437500000               0.000000000              -0.094045202               0.094045202               0.000000000              -0.119417377               0.119417377               0.000000000              -0.144789552               0.144789552               0.000000000              -0.170161727               0.170161727               0.000000000              -0.195533901               0.195533901               0.000000000              -0.220906076               0.220906076               0.000000000              -0.246278251               0.246278251               0.000000000              -0.271650426               0.271650426               0.000000000              -0.297022601               0.297022601               0.000000000              -0.322394776               0.322394776               0.000000000              -0.347766951               0.347766951               0.000000000              -0.373139126               0.373139126               0.000000000              -0.398511300               0.398511300               0.000000000              -0.423883475               0.423883475               0.000000000              -0.449255650               0.449255650               0.000000000              -0.474627825               0.474627825               0.000000000              -0.500000000               0.500000000               0.000000000              -0.084374307               0.102810390               0.000000000              -0.106444663               0.127634741               0.000000000              -0.128515018               0.152459092               0.000000000              -0.150585374               0.177283442               0.000000000              -0.172655730               0.202107793               0.000000000              -0.194726086               0.226932143               0.000000000              -0.216796442               0.251756494               0.000000000              -0.238866798               0.276580845               0.000000000              -0.260937153               0.301405195               0.000000000              -0.283007509               0.326229546               0.000000000              -0.305077865               0.351053896               0.000000000              -0.327148221               0.375878247               0.000000000              -0.349218577               0.400702598               0.000000000              -0.371288933               0.425526948               0.000000000              -0.393359288               0.450351299               0.000000000              -0.415429644               0.475175649               0.000000000              -0.437500000               0.500000000               0.000000000              -0.073890841               0.110585458               0.000000000              -0.092710163               0.134923867               0.000000000              -0.111529486               0.159262276               0.000000000              -0.130348808               0.183600685               0.000000000              -0.149168131               0.207939094               0.000000000              -0.167987453               0.232277503               0.000000000              -0.186806776               0.256615912               0.000000000              -0.205626098               0.280954320               0.000000000              -0.224445420               0.305292729               0.000000000              -0.243264743               0.329631138               0.000000000              -0.262084065               0.353969547               0.000000000              -0.280903388               0.378307956               0.000000000              -0.299722710               0.402646365               0.000000000              -0.318542033               0.426984773               0.000000000              -0.337361355               0.451323182               0.000000000              -0.356180678               0.475661591               0.000000000              -0.375000000               0.500000000               0.000000000              -0.062695766               0.117295528               0.000000000              -0.078308531               0.141214558               0.000000000              -0.093921295               0.165133587               0.000000000              -0.109534060               0.189052617               0.000000000              -0.125146824               0.212971646               0.000000000              -0.140759589               0.236890676               0.000000000              -0.156372354               0.260809705               0.000000000              -0.171985118               0.284728735               0.000000000              -0.187597883               0.308647764               0.000000000              -0.203210648               0.332566794               0.000000000              -0.218823412               0.356485823               0.000000000              -0.234436177               0.380404853               0.000000000              -0.250048941               0.404323882               0.000000000              -0.265661706               0.428242912               0.000000000              -0.281274471               0.452161941               0.000000000              -0.296887235               0.476080971               0.000000000              -0.312500000               0.500000000               0.000000000              -0.050896897               0.122875978               0.000000000              -0.063340840               0.146446229               0.000000000              -0.075784784               0.170016481               0.000000000              -0.088228728               0.193586732               0.000000000              -0.100672672               0.217156983               0.000000000              -0.113116616               0.240727235               0.000000000              -0.125560560               0.264297486               0.000000000              -0.138004504               0.287867738               0.000000000              -0.150448448               0.311437989               0.000000000              -0.162892392               0.335008240               0.000000000              -0.175336336               0.358578492               0.000000000              -0.187780280               0.382148743               0.000000000              -0.200224224               0.405718994               0.000000000              -0.212668168               0.429289246               0.000000000              -0.225112112               0.452859497               0.000000000              -0.237556056               0.476429749               0.000000000              -0.250000000               0.500000000               0.000000000              -0.038607862               0.127273065               0.000000000              -0.047913621               0.150568498               0.000000000              -0.057219379               0.173863932               0.000000000              -0.066525138               0.197159365               0.000000000              -0.075830897               0.220454798               0.000000000              -0.085136655               0.243750232               0.000000000              -0.094442414               0.267045665               0.000000000              -0.103748172               0.290341099               0.000000000              -0.113053931               0.313636532               0.000000000              -0.122359690               0.336931966               0.000000000              -0.131665448               0.360227399               0.000000000              -0.140971207               0.383522833               0.000000000              -0.150276966               0.406818266               0.000000000              -0.159582724               0.430113700               0.000000000              -0.168888483               0.453409133               0.000000000              -0.178194241               0.476704567               0.000000000              -0.187500000               0.500000000               0.000000000              -0.025947013               0.130444442               0.000000000              -0.032137825               0.153541665               0.000000000              -0.038328636               0.176638887               0.000000000              -0.044519448               0.199736109               0.000000000              -0.050710260               0.222833332               0.000000000              -0.056901071               0.245930554               0.000000000              -0.063091883               0.269027776               0.000000000              -0.069282695               0.292124999               0.000000000              -0.075473506               0.315222221               0.000000000              -0.081664318               0.338319444               0.000000000              -0.087855130               0.361416666               0.000000000              -0.094045942               0.384513888               0.000000000              -0.100236753               0.407611111               0.000000000              -0.106427565               0.430708333               0.000000000              -0.112618377               0.453805555               0.000000000              -0.118809188               0.476902778               0.000000000              -0.125000000               0.500000000               0.000000000              -0.013036280               0.132359569               0.000000000              -0.016127762               0.155337096               0.000000000              -0.019219245               0.178314623               0.000000000              -0.022310727               0.201292150               0.000000000              -0.025402210               0.224269676               0.000000000              -0.028493692               0.247247203               0.000000000              -0.031585175               0.270224730               0.000000000              -0.034676657               0.293202257               0.000000000              -0.037768140               0.316179784               0.000000000              -0.040859622               0.339157311               0.000000000              -0.043951105               0.362134838               0.000000000              -0.047042587               0.385112365               0.000000000              -0.050134070               0.408089892               0.000000000              -0.053225552               0.431067419               0.000000000              -0.056317035               0.454044946               0.000000000              -0.059408517               0.477022473               0.000000000              -0.062500000               0.500000000               0.000000000               0.000000000               0.133000000               0.000000000               0.000000000               0.155937500               0.000000000               0.000000000               0.178875000               0.000000000               0.000000000               0.201812500               0.000000000               0.000000000               0.224750000               0.000000000               0.000000000               0.247687500               0.000000000               0.000000000               0.270625000               0.000000000               0.000000000               0.293562500               0.000000000               0.000000000               0.316500000               0.000000000               0.000000000               0.339437500               0.000000000               0.000000000               0.362375000               0.000000000               0.000000000               0.385312500               0.000000000               0.000000000               0.408250000               0.000000000               0.000000000               0.431187500               0.000000000               0.000000000               0.454125000               0.000000000               0.000000000               0.477062500               0.000000000               0.000000000               0.500000000               0.000000000 </DataArray>
</Points>
<Cells>
<DataArray type="Int32"                                    Name="connectivity"                                                      NumberOfComponents=" 1" format="ascii">
         0          1         18         17          1          2         19         18          2          3         20         19          3          4         21         20          4          5         22         21          5          6         23         22          6          7         24         23          7          8         25         24          8          9         26         25          9         10         27         26         10         11         28         27         11         12         29         28         12         13         30         29         13         14         31         30         14         15         32         31         15         16         33         32         17         18         35         34         18         19         36         35         19         20         37         36         20         21         38         37         21         22         39         38         22         23         40         39         23         24         41         40         24         25         42         41         25         26         43         42         26         27         44         43         27         28         45         44         28         29         46         45         29         30         47         46         30         31         48         47         31         32         49         48         32         33         50         49         34         35         52         51         35         36         53         52         36         37         54         53         37         38         55         54         38         39         56         55         39         40         57         56         40         41         58         57         41         42         59         58         42         43         60         59         43         44         61         60         44         45         62         61         45         46         63         62         46         47         64         63         47         48         65         64         48         49         66         65         49         50         67         66         51         52         69         68         52         53         70         69         53         54         71         70         54         55         72         71         55         56         73         72         56         57         74         73         57         58         75         74         58         59         76         75         59         60         77         76         60         61         78         77         61         62         79         78         62         63         80         79         63         64         81         80         64         65         82         81         65         66         83         82         66         67         84         83         68         69         86         85         69         70         87         86         70         71         88         87         71         72         89         88         72         73         90         89         73         74         91         90         74         75         92         91         75         76         93         92         76         77         94         93         77         78         95         94         78         79         96         95         79         80         97         96         80         81         98         97         81         82         99         98         82         83        100         99         83         84        101        100         85         86        103        102         86         87        104        103         87         88        105        104         88         89        106        105         89         90        107        106         90         91        108        107         91         92        109        108         92         93        110        109         93         94        111        110         94         95        112        111         95         96        113        112         96         97        114        113         97         98        115        114         98         99        116        115         99        100        117        116        100        101        118        117        102        103        120        119        103        104        121        120        104        105        122        121        105        106        123        122        106        107        124        123        107        108        125        124        108        109        126        125        109        110        127        126        110        111        128        127        111        112        129        128        112        113        130        129        113        114        131        130        114        115        132        131        115        116        133        132        116        117        134        133        117        118        135        134        119        120        137        136        120        121        138        137        121        122        139        138        122        123        140        139        123        124        141        140        124        125        142        141        125        126        143        142        126        127        144        143        127        128        145        144        128        129        146        145        129        130        147        146        130        131        148        147        131        132        149        148        132        133        150        149        133        134        151        150        134        135        152        151        136        137        154        153        137        138        155        154        138        139        156        155        139        140        157        156        140        141        158        157        141        142        159        158        142        143        160        159        143        144        161        160        144        145        162        161        145        146        163        162        146        147        164        163        147        148        165        164        148        149        166        165        149        150        167        166        150        151        168        167        151        152        169        168        153        154        171        170        154        155        172        171        155        156        173        172        156        157        174        173        157        158        175        174        158        159        176        175        159        160        177        176        160        161        178        177        161        162        179        178        162        163        180        179        163        164        181        180        164        165        182        181        165        166        183        182        166        167        184        183        167        168        185        184        168        169        186        185        170        171        188        187        171        172        189        188        172        173        190        189        173        174        191        190        174        175        192        191        175        176        193        192        176        177        194        193        177        178        195        194        178        179        196        195        179        180        197        196        180        181        198        197        181        182        199        198        182        183        200        199        183        184        201        200        184        185        202        201        185        186        203        202        187        188        205        204        188        189        206        205        189        190        207        206        190        191        208        207        191        192        209        208        192        193        210        209        193        194        211        210        194        195        212        211        195        196        213        212        196        197        214        213        197        198        215        214        198        199        216        215        199        200        217        216        200        201        218        217        201        202        219        218        202        203        220        219        204        205        222        221        205        206        223        222        206        207        224        223        207        208        225        224        208        209        226        225        209        210        227        226        210        211        228        227        211        212        229        228        212        213        230        229        213        214        231        230        214        215        232        231        215        216        233        232        216        217        234        233        217        218        235        234        218        219        236        235        219        220        237        236        221        222        239        238        222        223        240        239        223        224        241        240        224        225        242        241        225        226        243        242        226        227        244        243        227        228        245        244        228        229        246        245        229        230        247        246        230        231        248        247        231        232        249        248        232        233        250        249        233        234        251        250        234        235        252        251        235        236        253        252        236        237        254        253        238        239        256        255        239        240        257        256        240        241        258        257        241        242        259        258        242        243        260        259        243        244        261        260        244        245        262        261        245        246        263        262        246        247        264        263        247        248        265        264        248        249        266        265        249        250        267        266        250        251        268        267        251        252        269        268        252        253        270        269        253        254        271        270        255        256        273        272        256        257        274        273        257        258        275        274        258        259        276        275        259        260        277        276        260        261        278        277        261        262        279        278        262        263        280        279        263        264        281        280        264        265        282        281        265        266        283        282        266        267        284        283        267        268        285        284        268        269        286        285        269        270        287        286        270        271        288        287        306        307          1          0        307        308          2          1        308        309          3          2        309        310          4          3        310        311          5          4        311        312          6          5        312        313          7          6        313        314          8          7        314        315          9          8        315        316         10          9        316        317         11         10        317        318         12         11        318        319         13         12        319        320         14         13        320        321         15         14        321        322         16         15        323        324        307        306        324        325        308        307        325        326        309        308        326        327        310        309        327        328        311        310        328        329        312        311        329        330        313        312        330        331        314        313        331        332        315        314        332        333        316        315        333        334        317        316        334        335        318        317        335        336        319        318        336        337        320        319        337        338        321        320        338        339        322        321        340        341        324        323        341        342        325        324        342        343        326        325        343        344        327        326        344        345        328        327        345        346        329        328        346        347        330        329        347        348        331        330        348        349        332        331        349        350        333        332        350        351        334        333        351        352        335        334        352        353        336        335        353        354        337        336        354        355        338        337        355        356        339        338        357        358        341        340        358        359        342        341        359        360        343        342        360        361        344        343        361        362        345        344        362        363        346        345        363        364        347        346        364        365        348        347        365        366        349        348        366        367        350        349        367        368        351        350        368        369        352        351        369        370        353        352        370        371        354        353        371        372        355        354        372        373        356        355        374        375        358        357        375        376        359        358        376        377        360        359        377        378        361        360        378        379        362        361        379        380        363        362        380        381        364        363        381        382        365        364        382        383        366        365        383        384        367        366        384        385        368        367        385        386        369        368        386        387        370        369        387        388        371        370        388        389        372        371        389        390        373        372        391        392        375        374        392        393        376        375        393        394        377        376        394        395        378        377        395        396        379        378        396        397        380        379        397        398        381        380        398        399        382        381        399        400        383        382        400        401        384        383        401        402        385        384        402        403        386        385        403        404        387        386        404        405        388        387        405        406        389        388        406        407        390        389        408        409        392        391        409        410        393        392        410        411        394        393        411        412        395        394        412        413        396        395        413        414        397        396        414        415        398        397        415        416        399        398        416        417        400        399        417        418        401        400        418        419        402        401        419        420        403        402        420        421        404        403        421        422        405        404        422        423        406        405        423        424        407        406        425        426        409        408        426        427        410        409        427        428        411        410        428        429        412        411        429        430        413        412        430        431        414        413        431        432        415        414        432        433        416        415        433        434        417        416        434        435        418        417        435        436        419        418        436        437        420        419        437        438        421        420        438        439        422        421        439        440        423        422        440        441        424        423        442        443        426        425        443        444        427        426        444        445        428        427        445        446        429        428        446        447        430        429        447        448        431        430        448        449        432        431        449        450        433        432        450        451        434        433        451        452        435        434        452        453        436        435        453        454        437        436        454        455        438        437        455        456        439        438        456        457        440        439        457        458        441        440        459        460        443        442        460        461        444        443        461        462        445        444        462        463        446        445        463        464        447        446        464        465        448        447        465        466        449        448        466        467        450        449        467        468        451        450        468        469        452        451        469        470        453        452        470        471        454        453        471        472        455        454        472        473        456        455        473        474        457        456        474        475        458        457        476        477        460        459        477        478        461        460        478        479        462        461        479        480        463        462        480        481        464        463        481        482        465        464        482        483        466        465        483        484        467        466        484        485        468        467        485        486        469        468        486        487        470        469        487        488        471        470        488        489        472        471        489        490        473        472        490        491        474        473        491        492        475        474        493        494        477        476        494        495        478        477        495        496        479        478        496        497        480        479        497        498        481        480        498        499        482        481        499        500        483        482        500        501        484        483        501        502        485        484        502        503        486        485        503        504        487        486        504        505        488        487        505        506        489        488        506        507        490        489        507        508        491        490        508        509        492        491        510        511        494        493        511        512        495        494        512        513        496        495        513        514        497        496        514        515        498        497        515        516        499        498        516        517        500        499        517        518        501        500        518        519        502        501        519        520        503        502        520        521        504        503        521        522        505        504        522        523        506        505        523        524        507        506        524        525        508        507        525        526        509        508        527        528        511        510        528        529        512        511        529        530        513        512        530        531        514        513        531        532        515        514        532        533        516        515        533        534        517        516        534        535        518        517        535        536        519        518        536        537        520        519        537        538        521        520        538        539        522        521        539        540        523        522        540        541        524        523        541        542        525        524        542        543        526        525        544        545        528        527        545        546        529        528        546        547        530        529        547        548        531        530        548        549        532        531        549        550        533        532        550        551        534        533        551        552        535        534        552        553        536        535        553        554        537        536        554        555        538        537        555        556        539        538        556        557        540        539        557        558        541        540        558        559        542        541        559        560        543        542        561        562        545        544        562        563        546        545        563        564        547        546        564        565        548        547        565        566        549        548        566        567        550        549        567        568        551        550        568        569        552        551        569        570        553        552        570        571        554        553        571        572        555        554        572        573        556        555        573        574        557        556        574        575        558        557        575        576        559        558        576        577        560        559        578        579        596        595        579        580        597        596        580        581        598        597        581        582        599        598        582        583        600        599        583        584        601        600        584        585        602        601        585        586        603        602        586        587        604        603        587        588        605        604        588        589        606        605        589        590        607        606        590        591        608        607        591        592        609        608        592        593        610        609        593        594        611        610        595        596        613        612        596        597        614        613        597        598        615        614        598        599        616        615        599        600        617        616        600        601        618        617        601        602        619        618        602        603        620        619        603        604        621        620        604        605        622        621        605        606        623        622        606        607        624        623        607        608        625        624        608        609        626        625        609        610        627        626        610        611        628        627        612        613        630        629        613        614        631        630        614        615        632        631        615        616        633        632        616        617        634        633        617        618        635        634        618        619        636        635        619        620        637        636        620        621        638        637        621        622        639        638        622        623        640        639        623        624        641        640        624        625        642        641        625        626        643        642        626        627        644        643        627        628        645        644        629        630        647        646        630        631        648        647        631        632        649        648        632        633        650        649        633        634        651        650        634        635        652        651        635        636        653        652        636        637        654        653        637        638        655        654        638        639        656        655        639        640        657        656        640        641        658        657        641        642        659        658        642        643        660        659        643        644        661        660        644        645        662        661        646        647        664        663        647        648        665        664        648        649        666        665        649        650        667        666        650        651        668        667        651        652        669        668        652        653        670        669        653        654        671        670        654        655        672        671        655        656        673        672        656        657        674        673        657        658        675        674        658        659        676        675        659        660        677        676        660        661        678        677        661        662        679        678        663        664        681        680        664        665        682        681        665        666        683        682        666        667        684        683        667        668        685        684        668        669        686        685        669        670        687        686        670        671        688        687        671        672        689        688        672        673        690        689        673        674        691        690        674        675        692        691        675        676        693        692        676        677        694        693        677        678        695        694        678        679        696        695        680        681        698        697        681        682        699        698        682        683        700        699        683        684        701        700        684        685        702        701        685        686        703        702        686        687        704        703        687        688        705        704        688        689        706        705        689        690        707        706        690        691        708        707        691        692        709        708        692        693        710        709        693        694        711        710        694        695        712        711        695        696        713        712        697        698        715        714        698        699        716        715        699        700        717        716        700        701        718        717        701        702        719        718        702        703        720        719        703        704        721        720        704        705        722        721        705        706        723        722        706        707        724        723        707        708        725        724        708        709        726        725        709        710        727        726        710        711        728        727        711        712        729        728        712        713        730        729        714        715        732        731        715        716        733        732        716        717        734        733        717        718        735        734        718        719        736        735        719        720        737        736        720        721        738        737        721        722        739        738        722        723        740        739        723        724        741        740        724        725        742        741        725        726        743        742        726        727        744        743        727        728        745        744        728        729        746        745        729        730        747        746        731        732        749        748        732        733        750        749        733        734        751        750        734        735        752        751        735        736        753        752        736        737        754        753        737        738        755        754        738        739        756        755        739        740        757        756        740        741        758        757        741        742        759        758        742        743        760        759        743        744        761        760        744        745        762        761        745        746        763        762        746        747        764        763        748        749        766        765        749        750        767        766        750        751        768        767        751        752        769        768        752        753        770        769        753        754        771        770        754        755        772        771        755        756        773        772        756        757        774        773        757        758        775        774        758        759        776        775        759        760        777        776        760        761        778        777        761        762        779        778        762        763        780        779        763        764        781        780        765        766        783        782        766        767        784        783        767        768        785        784        768        769        786        785        769        770        787        786        770        771        788        787        771        772        789        788        772        773        790        789        773        774        791        790        774        775        792        791        775        776        793        792        776        777        794        793        777        778        795        794        778        779        796        795        779        780        797        796        780        781        798        797        782        783        800        799        783        784        801        800        784        785        802        801        785        786        803        802        786        787        804        803        787        788        805        804        788        789        806        805        789        790        807        806        790        791        808        807        791        792        809        808        792        793        810        809        793        794        811        810        794        795        812        811        795        796        813        812        796        797        814        813        797        798        815        814        799        800        817        816        800        801        818        817        801        802        819        818        802        803        820        819        803        804        821        820        804        805        822        821        805        806        823        822        806        807        824        823        807        808        825        824        808        809        826        825        809        810        827        826        810        811        828        827        811        812        829        828        812        813        830        829        813        814        831        830        814        815        832        831        816        817        834        833        817        818        835        834        818        819        836        835        819        820        837        836        820        821        838        837        821        822        839        838        822        823        840        839        823        824        841        840        824        825        842        841        825        826        843        842        826        827        844        843        827        828        845        844        828        829        846        845        829        830        847        846        830        831        848        847        831        832        849        848        833        834        562        561        834        835        563        562        835        836        564        563        836        837        565        564        837        838        566        565        838        839        567        566        839        840        568        567        840        841        569        568        841        842        570        569        842        843        571        570        843        844        572        571        844        845        573        572        845        846        574        573        846        847        575        574        847        848        576        575        848        849        577        576        884        885        579        578        885        886        580        579        886        887        581        580        887        888        582        581        888        889        583        582        889        890        584        583        890        891        585        584        891        892        586        585        892        893        587        586        893        894        588        587        894        895        589        588        895        896        590        589        896        897        591        590        897        898        592        591        898        899        593        592        899        900        594        593        901        902        885        884        902        903        886        885        903        904        887        886        904        905        888        887        905        906        889        888        906        907        890        889        907        908        891        890        908        909        892        891        909        910        893        892        910        911        894        893        911        912        895        894        912        913        896        895        913        914        897        896        914        915        898        897        915        916        899        898        916        917        900        899        918        919        902        901        919        920        903        902        920        921        904        903        921        922        905        904        922        923        906        905        923        924        907        906        924        925        908        907        925        926        909        908        926        927        910        909        927        928        911        910        928        929        912        911        929        930        913        912        930        931        914        913        931        932        915        914        932        933        916        915        933        934        917        916        935        936        919        918        936        937        920        919        937        938        921        920        938        939        922        921        939        940        923        922        940        941        924        923        941        942        925        924        942        943        926        925        943        944        927        926        944        945        928        927        945        946        929        928        946        947        930        929        947        948        931        930        948        949        932        931        949        950        933        932        950        951        934        933        952        953        936        935        953        954        937        936        954        955        938        937        955        956        939        938        956        957        940        939        957        958        941        940        958        959        942        941        959        960        943        942        960        961        944        943        961        962        945        944        962        963        946        945        963        964        947        946        964        965        948        947        965        966        949        948        966        967        950        949        967        968        951        950        969        970        953        952        970        971        954        953        971        972        955        954        972        973        956        955        973        974        957        956        974        975        958        957        975        976        959        958        976        977        960        959        977        978        961        960        978        979        962        961        979        980        963        962        980        981        964        963        981        982        965        964        982        983        966        965        983        984        967        966        984        985        968        967        986        987        970        969        987        988        971        970        988        989        972        971        989        990        973        972        990        991        974        973        991        992        975        974        992        993        976        975        993        994        977        976        994        995        978        977        995        996        979        978        996        997        980        979        997        998        981        980        998        999        982        981        999       1000        983        982       1000       1001        984        983       1001       1002        985        984       1003       1004        987        986       1004       1005        988        987       1005       1006        989        988       1006       1007        990        989       1007       1008        991        990       1008       1009        992        991       1009       1010        993        992       1010       1011        994        993       1011       1012        995        994       1012       1013        996        995       1013       1014        997        996       1014       1015        998        997       1015       1016        999        998       1016       1017       1000        999       1017       1018       1001       1000       1018       1019       1002       1001       1020       1021       1004       1003       1021       1022       1005       1004       1022       1023       1006       1005       1023       1024       1007       1006       1024       1025       1008       1007       1025       1026       1009       1008       1026       1027       1010       1009       1027       1028       1011       1010       1028       1029       1012       1011       1029       1030       1013       1012       1030       1031       1014       1013       1031       1032       1015       1014       1032       1033       1016       1015       1033       1034       1017       1016       1034       1035       1018       1017       1035       1036       1019       1018       1037       1038       1021       1020       1038       1039       1022       1021       1039       1040       1023       1022       1040       1041       1024       1023       1041       1042       1025       1024       1042       1043       1026       1025       1043       1044       1027       1026       1044       1045       1028       1027       1045       1046       1029       1028       1046       1047       1030       1029       1047       1048       1031       1030       1048       1049       1032       1031       1049       1050       1033       1032       1050       1051       1034       1033       1051       1052       1035       1034       1052       1053       1036       1035       1054       1055       1038       1037       1055       1056       1039       1038       1056       1057       1040       1039       1057       1058       1041       1040       1058       1059       1042       1041       1059       1060       1043       1042       1060       1061       1044       1043       1061       1062       1045       1044       1062       1063       1046       1045       1063       1064       1047       1046       1064       1065       1048       1047       1065       1066       1049       1048       1066       1067       1050       1049       1067       1068       1051       1050       1068       1069       1052       1051       1069       1070       1053       1052       1071       1072       1055       1054       1072       1073       1056       1055       1073       1074       1057       1056       1074       1075       1058       1057       1075       1076       1059       1058       1076       1077       1060       1059       1077       1078       1061       1060       1078       1079       1062       1061       1079       1080       1063       1062       1080       1081       1064       1063       1081       1082       1065       1064       1082       1083       1066       1065       1083       1084       1067       1066       1084       1085       1068       1067       1085       1086       1069       1068       1086       1087       1070       1069       1088       1089       1072       1071       1089       1090       1073       1072       1090       1091       1074       1073       1091       1092       1075       1074       1092       1093       1076       1075       1093       1094       1077       1076       1094       1095       1078       1077       1095       1096       1079       1078       1096       1097       1080       1079       1097       1098       1081       1080       1098       1099       1082       1081       1099       1100       1083       1082       1100       1101       1084       1083       1101       1102       1085       1084       1102       1103       1086       1085       1103       1104       1087       1086       1105       1106       1089       1088       1106       1107       1090       1089       1107       1108       1091       1090       1108       1109       1092       1091       1109       1110       1093       1092       1110       1111       1094       1093       1111       1112       1095       1094       1112       1113       1096       1095       1113       1114       1097       1096       1114       1115       1098       1097       1115       1116       1099       1098       1116       1117       1100       1099       1117       1118       1101       1100       1118       1119       1102       1101       1119       1120       1103       1102       1120       1121       1104       1103       1122       1123       1106       1105       1123       1124       1107       1106       1124       1125       1108       1107       1125       1126       1109       1108       1126       1127       1110       1109       1127       1128       1111       1110       1128       1129       1112       1111       1129       1130       1113       1112       1130       1131       1114       1113       1131       1132       1115       1114       1132       1133       1116       1115       1133       1134       1117       1116       1134       1135       1118       1117       1135       1136       1119       1118       1136       1137       1120       1119       1137       1138       1121       1120        272        273       1123       1122        273        274       1124       1123        274        275       1125       1124        275        276       1126       1125        276        277       1127       1126        277        278       1128       1127        278        279       1129       1128        279        280       1130       1129        280        281       1131       1130        281        282       1132       1131        282        283       1133       1132        283        284       1134       1133        284        285       1135       1134        285        286       1136       1135        286        287       1137       1136        287        288       1138       1137 </DataArray>
<DataArray type="Int32"                                    Name="offsets"                                                      NumberOfComponents=" 1" format="ascii">
         4          8         12         16         20         24         28         32         36         40         44         48         52         56         60         64         68         72         76         80         84         88         92         96        100        104        108        112        116        120        124        128        132        136        140        144        148        152        156        160        164        168        172        176        180        184        188        192        196        200        204        208        212        216        220        224        228        232        236        240        244        248        252        256        260        264        268        272        276        280        284        288        292        296        300        304        308        312        316        320        324        328        332        336        340        344        348        352        356        360        364        368        372        376        380        384        388        392        396        400        404        408        412        416        420        424        428        432        436        440        444        448        452        456        460        464        468        472        476        480        484        488        492        496        500        504        508        512        516        520        524        528        532        536        540        544        548        552        556        560        564        568        572        576        580        584        588        592        596        600        604        608        612        616        620        624        628        632        636        640        644        648        652        656        660        664        668        672        676        680        684        688        692        696        700        704        708        712        716        720        724        728        732        736        740        744        748        752        756        760        764        768        772        776        780        784        788        792        796        800        804        808        812        816        820        824        828        832        836        840        844        848        852        856        860        864        868        872        876        880        884        888        892        896        900        904        908        912        916        920        924        928        932        936        940        944        948        952        956        960        964        968        972        976        980        984        988        992        996       1000       1004       1008       1012       1016       1020       1024       1028       1032       1036       1040       1044       1048       1052       1056       1060       1064       1068       1072       1076       1080       1084       1088       1092       1096       1100       1104       1108       1112       1116       1120       1124       1128       1132       1136       1140       1144       1148       1152       1156       1160       1164       1168       1172       1176       1180       1184       1188       1192       1196       1200       1204       1208       1212       1216       1220       1224       1228       1232       1236       1240       1244       1248       1252       1256       1260       1264       1268       1272       1276       1280       1284       1288       1292       1296       1300       1304       1308       1312       1316       1320       1324       1328       1332       1336       1340       1344       1348       1352       1356       1360       1364       1368       1372       1376       1380       1384       1388       1392       1396       1400       1404       1408       1412       1416       1420       1424       1428       1432       1436       1440       1444       1448       1452       1456       1460       1464       1468       1472       1476       1480       1484       1488       1492       1496       1500       1504       1508       1512       1516       1520       1524       1528       1532       1536       1540       1544       1548       1552       1556       1560       1564       1568       1572       1576       1580       1584       1588       1592       1596       1600       1604       1608       1612       1616       1620       1624       1628       1632       1636       1640       1644       1648       1652       1656       1660       1664       1668       1672       1676       1680       1684       1688       1692       1696       1700       1704       1708       1712       1716       1720       1724       1728       1732       1736       1740       1744       1748       1752       1756       1760       1764       1768       1772       1776       1780       1784       1788       1792       1796       1800       1804       1808       1812       1816       1820       1824       1828       1832       1836       1840       1844       1848       1852       1856       1860       1864       1868       1872       1876       1880       1884       1888       1892       1896       1900       1904       1908       1912       1916       1920       1924       1928       1932       1936       1940       1944       1948       1952       1956       1960       1964       1968       1972       1976       1980       1984       1988       1992       1996       2000       2004       2008       2012       2016       2020       2024       2028       2032       2036       2040       2044       2048       2052       2056       2060       2064       2068       2072       2076       2080       2084       2088       2092       2096       2100       2104       2108       2112       2116       2120       2124       2128       2132       2136       2140       2144       2148       2152       2156       2160       2164       2168       2172       2176       2180       2184       2188       2192       2196       2200       2204       2208       2212       2216       2220       2224       2228       2232       2236       2240       2244       2248       2252       2256       2260       2264       2268       2272       2276       2280       2284       2288       2292       2296       2300       2304       2308       2312       2316       2320       2324       2328       2332       2336       2340       2344       2348       2352       2356       2360       2364       2368       2372       2376       2380       2384       2388       2392       2396       2400       2404       2408       2412       2416       2420       2424       2428       2432       2436       2440       2444       2448       2452       2456       2460       2464       2468       2472       2476       2480       2484       2488       2492       2496       2500       2504       2508       2512       2516       2520       2524       2528       2532       2536       2540       2544       2548       2552       2556       2560       2564       2568       2572       2576       2580       2584       2588       2592       2596       2600       2604       2608       2612       2616       2620       2624       2628       2632       2636       2640       2644       2648       2652       2656       2660       2664       2668       2672       2676       2680       2684       2688       2692       2696       2700       2704       2708       2712       2716       2720       2724       2728       2732       2736       2740       2744       2748       2752       2756       2760       2764       2768       2772       2776       2780       2784       2788       2792       2796       2800       2804       2808       2812       2816       2820       2824       2828       2832       2836       2840       2844       2848       2852       2856       2860       2864       2868       2872       2876       2880       2884       2888       2892       2896       2900       2904       2908       2912       2916       2920       2924       2928       2932       2936       2940       2944       2948       2952       2956       2960       2964       2968       2972       2976       2980       2984       2988       2992       2996       3000       3004       3008       3012       3016       3020       3024       3028       3032       3036       3040       3044       3048       3052       3056       3060       3064       3068       3072       3076       3080       3084       3088       3092       3096       3100       3104       3108       3112       3116       3120       3124       3128       3132       3136       3140       3144       3148       3152       3156       3160       3164       3168       3172       3176       3180       3184       3188       3192       3196       3200       3204       3208       3212       3216       3220       3224       3228       3232       3236       3240       3244       3248       3252       3256       3260       3264       3268       3272       3276       3280       3284       3288       3292       3296       3300       3304       3308       3312       3316       3320       3324       3328       3332       3336       3340       3344       3348       3352       3356       3360       3364       3368       3372       3376       3380       3384       3388       3392       3396       3400       3404       3408       3412       3416       3420       3424       3428       3432       3436       3440       3444       3448       3452       3456       3460       3464       3468       3472       3476       3480       3484       3488       3492       3496       3500       3504       3508       3512       3516       3520       3524       3528       3532       3536       3540       3544       3548       3552       3556       3560       3564       3568       3572       3576       3580       3584       3588       3592       3596       3600       3604       3608       3612       3616       3620       3624       3628       3632       3636       3640       3644       3648       3652       3656       3660       3664       3668       3672       3676       3680       3684       3688       3692       3696       3700       3704       3708       3712       3716       3720       3724       3728       3732       3736       3740       3744       3748       3752       3756       3760       3764       3768       3772       3776       3780       3784       3788       3792       3796       3800       3804       3808       3812       3816       3820       3824       3828       3832       3836       3840       3844       3848       3852       3856       3860       3864       3868       3872       3876       3880       3884       3888       3892       3896       3900       3904       3908       3912       3916       3920       3924       3928       3932       3936       3940       3944       3948       3952       3956       3960       3964       3968       3972       3976       3980       3984       3988       3992       3996       4000       4004       4008       4012       4016       4020       4024       4028       4032       4036       4040       4044       4048       4052       4056       4060       4064       4068       4072       4076       4080       4084       4088       4092       4096 </DataArray>
<DataArray type="UInt8"                                    Name="types"                                                      NumberOfComponents=" 1" format="ascii">
         9          9          9          9          9          9          9          9          9          9          9          9          9          9          9          9          9          9          9          9          9          9          9          9          9          9          9          9          9          9          9          9          9          9          9          9          9          9          9          9          9          9          9          9          9          9          9          9          9          9          9          9          9          9          9          9          9          9          9          9          9          9          9          9          9          9          9          9          9          9          9          9          9          9          9          9          9          9          9          9          9          9          9          9          9          9          9          9          9          9          9          9          9          9          9          9          9          9          9          9          9          9          9          9          9          9          9          9          9          9          9          9          9          9          9          9          9          9          9          9          9          9          9          9          9          9          9          9          9          9          9          9          9          9          9          9          9          9          9          9          9          9          9          9          9          9          9          9          9          9          9          9          9          9          9          9          9          9          9          9          9          9          9          9          9          9          9          9          9          9          9          9          9          9          9          9          9          9          9          9          9          9          9          9          9          9          9          9          9          9          9          9          9          9          9          9          9          9          9          9          9          9          9          9          9          9          9          9          9          9          9          9          9          9          9          9          9          9          9          9          9          9          9          9          9          9          9          9          9          9          9          9          9          9          9          9          9          9          9          9          9          9          9          9          9          9          9          9          9          9          9          9          9          9          9          9          9          9          9          9          9          9          9          9          9          9          9          9          9          9          9          9          9          9          9          9          9          9          9          9          9          9          9          9          9          9          9          9          9          9          9          9          9          9          9          9          9          9          9          9          9          9          9          9          9          9          9          9          9          9          9          9          9          9          9          9          9          9          9          9          9          9          9          9          9          9          9          9          9          9          9          9          9          9          9          9          9          9          9          9          9          9          9          9          9          9          9          9          9          9          9          9          9          9          9          9          9          9          9          9          9          9          9          9          9          9          9          9          9          9          9          9          9          9          9          9          9          9          9          9          9          9          9          9          9          9          9          9          9          9          9          9          9          9          9          9          9          9          9          9          9          9          9          9          9          9          9          9          9          9          9          9          9          9          9          9          9          9          9          9          9          9          9          9          9          9          9          9          9          9          9          9          9          9          9          9          9          9          9          9          9          9          9          9          9          9          9          9          9          9          9          9          9          9          9          9          9          9          9          9          9          9          9          9          9          9          9          9          9          9          9          9          9          9          9          9          9          9          9          9          9          9          9          9          9          9          9          9          9          9          9          9          9          9          9          9          9          9          9          9          9          9          9          9          9          9          9          9          9          9          9          9          9          9          9          9          9          9          9          9          9          9          9          9          9          9          9          9          9          9          9          9          9          9          9          9          9          9          9          9          9          9          9          9          9          9          9          9          9          9          9          9          9          9          9          9          9          9          9          9          9          9          9          9          9          9          9          9          9          9          9          9          9          9          9          9          9          9          9          9          9          9          9          9          9          9          9          9          9          9          9          9          9          9          9          9          9          9          9          9          9          9          9          9          9          9          9          9          9          9          9          9          9          9          9          9          9          9          9          9          9          9          9          9          9          9          9          9          9          9          9          9          9          9          9          9          9          9          9          9          9          9          9          9          9          9          9          9          9          9          9          9          9          9          9          9          9          9          9          9          9          9          9          9          9          9          9          9          9          9          9          9          9          9          9          9          9          9          9          9          9          9          9          9          9          9          9          9          9          9          9          9          9          9          9          9          9          9          9          9          9          9          9          9          9          9          9          9          9          9          9          9          9          9          9          9          9          9          9          9          9          9          9          9          9          9          9          9          9          9          9          9          9          9          9          9          9          9          9          9          9          9          9          9          9          9          9          9          9          9          9          9          9          9          9          9          9          9          9          9          9          9          9          9          9          9          9          9          9          9          9          9          9          9          9          9          9          9          9          9          9          9          9          9          9          9          9          9          9          9          9          9          9          9          9          9          9          9          9          9          9          9          9          9          9          9          9          9          9          9          9          9          9          9          9          9          9          9          9          9          9          9          9          9          9          9          9          9          9          9          9          9          9          9          9          9          9          9          9          9          9          9          9          9          9          9          9          9          9          9          9          9          9          9          9          9          9          9          9          9          9          9          9          9          9          9          9          9          9          9          9          9          9          9          9          9          9          9          9          9          9          9          9          9          9          9          9          9          9          9          9          9          9          9          9          9          9          9          9          9          9          9          9          9          9          9          9          9          9          9          9          9          9          9          9          9          9          9          9          9          9          9          9          9          9          9          9          9          9          9          9          9          9          9          9          9          9          9          9          9          9          9          9          9          9          9          9          9          9          9          9          9          9          9          9          9          9          9          9          9          9          9          9          9          9          9          9          9          9          9          9          9          9          9          9          9          9          9          9          9          9          9          9          9          9          9          9          9          9          9          9          9          9          9          9          9          9          9          9          9          9          9          9          9          9          9          9          9          9          9          9          9          9          9          9          9          9          9          9          9          9          9          9          9 </DataArray>
</Cells>
<CellData>
<DataArray type="Int32"                                    Name="material"                                                      NumberOfComponents=" 1" format="ascii">
         1          1          1          1          1          1          1          1          1          1          1          1          1          1          1          1          1          1          1          1          1          1          1          1          1          1          1          1          1          1          1          1          1          1          1          1          1          1          1          1          1          1          1          1          1          1          1          1          1          1          1          1          1          1          1          1          1          1          1          1          1          1          1          1          1          1          1          1          1          1          1          1          1          1          1          1          1          1          1          1          1          1          1          1          1          1          1          1          1          1          1          1          1          1          1          1          1          1          1          1          1          1          1          1          1          1          1          1          1          1          1          1          1          1          1          1          1          1          1          1          1          1          1          1          1          1          1          1          1          1          1          1          1          1          1          1          1          1          1          1          1          1          1          1          1          1          1          1          1          1          1          1          1          1          1          1          1          1          1          1          1          1          1          1          1          1          1          1          1          1          1          1          1          1          1          1          1          1          1          1          1          1          1          1          1          1          1          1          1          1          1          1          1          1          1          1          1          1          1          1          1          1          1          1          1          1          1          1          1          1          1          1          1          1          1          1          1          1          1          1          1          1          1          1          1          1          1          1          1          1          1          1          1          1          1          1          1          1          1          1          1          1          1          1          1          1          1          1          1          1          1          1          1          1          1          1          1          1          1          1          1          1          1          1          1          1          1          1          1          1          1          1          1          1          1          1          1          1          1          1          1          1          1          1          1          1          1          1          1          1          1          1          1          1          1          1          1          1          1          1          1          1          1          1          1          1          1          1          1          1          1          1          1          1          1          1          1          1          1          1          1          1          1          1          1          1          1          1          1          1          1          1          1          1          1          1          1          1          1          1          1          1          1          1          1          1          1          1          1          1          1          1          1          1          1          1          1          1          1          1          1          1          1          1          1          1          1          1          1          1          1          1          1          1          1          1          1          1          1          1          1          1          1          1          1          1          1          1          1          1          1          1          1          1          1          1          1          1          1          1          1          1          1          1          1          1          1          1          1          1          1          1          1          1          1          1          1          1          1          1          1          1          1          1          1          1          1          1          1          1          1          1          1          1          1          1          1          1          1          1          1          1          1          1          1          1          1          1          1          1          1          1          1          1          1          1          1          1          1          1          1          1          1          1          1          1          1          1          1          1          1          1          1          1          1          1          1          1          1          1          1          1          1          1          1          1          1          1          1          1          1          1          1          1          1          1          1          1          1          1          1          1          1          1          1          1          1          1          1          1          1          1          1          1          1          1          1          1          1          1          1          1          1          1          1          1          1          1          1          1          1          1          1          1          1          1          1          1          1          1          1          1          1          1          1          1          1          1          1          1          1          1          1          1          1          1          1          1          1          1          1          1          1          1          1          1          1          1          1          1          1          1          1          1          1          1          1          1          1          1          1          1          1          1          1          1          1          1          1          1          1          1          1          1          1          1          1          1          1          1          1          1          1          1          1          1          1          1          1          1          1          1          1          1          1          1          1          1          1          1          1          1          1          1          1          1          1          1          1          1          1          1          1          1          1          1          1          1          1          1          1          1          1          1          1          1          1          1          1          1          1          1          1          1          1          1          1          1          1          1          1          1          1          1          1          1          1          1          1          1          1          1          1          1          1          1          1          1          1          1          1          1          1          1          1          1          1          1          1          1          1          1          1          1          1          1          1          1          1          1          1          1          1          1          1          1          1          1          1          1          1          1          1          1          1          1          1          1          1          1          1          1          1          1          1          1          1          1          1          1          1          1          1          1          1          1          1          1          1          1          1          1          1          1          1          1          1          1          1          1          1          1          1          1          1          1          1          1          1          1          1          1          1          1          1          1          1          1          1          1          1          1          1          1          1          1          1          1          1          1          1          1          1          1          1          1          1          1          1          1          1          1          1          1          1          1          1          1          1          1          1          1          1          1          1          1          1          1          1          1          1          1          1          1          1          1          1          1          1          1          1          1          1          1          1          1          1          1          1          1          1          1          1          1          1          1          1          1          1          1          1          1          1          1          1          1          1          1          1          1          1          1          1          1          1          1          1          1          1          1          1          1          1          1          1          1          1          1          1          1          1          1          1          1          1          1          1          1          1          1          1          1          1          1          1          1          1          1          1          1          1          1          1          1          1          1          1          1          1          1          1          1          1          1          1          1          1          1          1          1          1          1          1          1          1          1          1          1          1          1          1          1          1          1          1          1          1          1          1          1          1          1          1          1          1          1          1          1          1          1          1          1          1          1          1          1          1          1          1          1          1          1          1          1          1          1          1          1          1          1          1          1          1          1          1          1          1          1          1          1          1          1          1          1          1          1          1          1          1          1          1          1          1          1          1          1          1          1          1          1          1          1          1          1          1          1          1          1          1          1          1          1          1          1          1          1          1          1          1          1          1          1          1          1          1          1          1          1          1          1          1          1          1          1 </DataArray>
</CellData>
<PointData>
<DataArray type="Float64"                                    Name="u"                                                      NumberOfComponents=" 3" format="ascii">
             -0.000560442               0.000000000               0.999999984              -0.000605945               0.000000000               0.999999984              -0.000626050               0.000000000               0.999999984              -0.000637488               0.000000000               0.999999984              -0.000646544               0.000000000               0.999999984              -0.000655538               0.000000000               0.999999984              -0.000665418               0.000000000               0.999999984              -0.000676581              -0.000000000               0.999999984              -0.000688948               0.000000000               0.999999984              -0.000702210               0.000000000               0.999999984              -0.000716241               0.000000000               0.999999984              -0.000730728               0.000000000               0.999999984              -0.000745482               0.000000000               0.999999984              -0.000760305               0.000000000               0.999999984              -0.000774920              -0.000000000               0.999999984              -0.000788850               0.000000000               0.999999984              -0.000801411              -0.000000000               0.999999984              -0.000557312               0.000116949               0.999999984              -0.000599632               0.000096581               0.999999984              -0.000617771               0.000088196               0.999999984              -0.000627994               0.000086054               0.999999984              -0.000636277               0.000087054               0.999999984              -0.000644808               0.000089725               0.999999984              -0.000654325               0.000093268               0.999999984              -0.000664958               0.000097168               0.999999984              -0.000676670               0.000100963               0.999999984              -0.000689333               0.000104453               0.999999984              -0.000702668               0.000107385               0.999999984              -0.000716336               0.000109477               0.999999984              -0.000730119               0.000110487               0.999999984              -0.000743699               0.000110161               0.999999984              -0.000756796               0.000108046               0.999999984              -0.000769065               0.000103473               0.999999984              -0.000780106               0.000095262               0.999999984              -0.000548082               0.000232701               0.999999984              -0.000581115               0.000192450               0.999999984              -0.000593701               0.000176655               0.999999984              -0.000600684               0.000173165               0.999999984              -0.000606993               0.000175861               0.999999984              -0.000614138               0.000181561               0.999999984              -0.000622477               0.000188817               0.999999984              -0.000631929               0.000196741               0.999999984              -0.000642337               0.000204353               0.999999984              -0.000653304               0.000211431               0.999999984              -0.000664517               0.000217258               0.999999984              -0.000675651               0.000221393               0.999999984              -0.000686380               0.000223609               0.999999984              -0.000696518               0.000223446               0.999999984              -0.000705908               0.000220356               0.999999984              -0.000714434               0.000213461               0.999999984              -0.000722027               0.000201328               0.999999984              -0.000532811               0.000346125               0.999999984              -0.000551191               0.000287085               0.999999984              -0.000555771               0.000265660               0.999999984              -0.000558434               0.000262144               0.999999984              -0.000562221               0.000267414               0.999999984              -0.000567713               0.000276865               0.999999984              -0.000574768               0.000288256               0.999999984              -0.000582805               0.000300130               0.999999984              -0.000591340               0.000311550               0.999999984              -0.000599897               0.000321997               0.999999984              -0.000608120               0.000330832               0.999999984              -0.000615738               0.000337466               0.999999984              -0.000622592               0.000341543               0.999999984              -0.000628633               0.000342711               0.999999984              -0.000633769               0.000340566               0.999999984              -0.000637979               0.000334436               0.999999984              -0.000641425               0.000323703               0.999999984              -0.000511727               0.000456082               0.999999984              -0.000511427               0.000380230               0.999999984              -0.000507152               0.000355305               0.999999984              -0.000505615               0.000353280               0.999999984              -0.000507409               0.000362124               0.999999984              -0.000511696               0.000375836               0.999999984              -0.000517435               0.000391592               0.999999984              -0.000523983               0.000407595               0.999999984              -0.000530592               0.000422826               0.999999984              -0.000536745               0.000436604               0.999999984              -0.000541994               0.000448299               0.999999984              -0.000546163               0.000457371               0.999999984              -0.000549168               0.000463784               0.999999984              -0.000551056               0.000467272               0.999999984              -0.000551789               0.000467457               0.999999984              -0.000551457               0.000464194               0.999999984              -0.000550226               0.000457312               0.999999984              -0.000485339               0.000561441               0.999999984              -0.000463959               0.000471800               0.999999984              -0.000451529               0.000445595               0.999999984              -0.000447147               0.000446309               0.999999984              -0.000447997               0.000459255               0.999999984              -0.000451687               0.000477451               0.999999984              -0.000456856               0.000497594               0.999999984              -0.000462286               0.000517684               0.999999984              -0.000467002               0.000536549               0.999999984              -0.000470583               0.000553540               0.999999984              -0.000472594               0.000567874               0.999999984              -0.000473027               0.000579385               0.999999984              -0.000471873               0.000588239               0.999999984              -0.000469167               0.000594251               0.999999984              -0.000464999               0.000597321               0.999999984              -0.000459475               0.000597418               0.999999984              -0.000452706               0.000594851               0.999999984              -0.000454124               0.000661193               0.999999984              -0.000411266               0.000561725               0.999999984              -0.000392792               0.000536159               0.999999984              -0.000387487               0.000540267               0.999999984              -0.000388781               0.000557394               0.999999984              -0.000393016               0.000579929               0.999999984              -0.000397950               0.000604327               0.999999984              -0.000402091               0.000628227               0.999999984              -0.000404742               0.000650223               0.999999984              -0.000405409               0.000669778               0.999999984              -0.000403911               0.000686389               0.999999984              -0.000400168               0.000699990               0.999999984              -0.000394295               0.000710925               0.999999984              -0.000386393               0.000719298               0.999999984              -0.000376594               0.000725134               0.999999984              -0.000365166               0.000728401               0.999999984              -0.000352401               0.000729521               0.999999984              -0.000418774               0.000754284               0.999999984              -0.000356070               0.000649704               0.999999984              -0.000334402               0.000626114               0.999999984              -0.000330336               0.000633671               0.999999984              -0.000333342               0.000654801               0.999999984              -0.000338443               0.000681541               0.999999984              -0.000343059               0.000709718               0.999999984              -0.000345833               0.000736646               0.999999984              -0.000345988               0.000761130               0.999999984              -0.000343282               0.000782655               0.999999984              -0.000337550               0.000800975               0.999999984              -0.000328819               0.000816221               0.999999984              -0.000317279               0.000828956               0.999999984              -0.000303214               0.000839427               0.999999984              -0.000287067               0.000847743               0.999999984              -0.000269174               0.000854054               0.999999984              -0.000250040               0.000858596               0.999999984              -0.000380659               0.000839059               0.999999984              -0.000300352               0.000735592               0.999999984              -0.000279488               0.000714164               0.999999984              -0.000278194               0.000724857               0.999999984              -0.000283427               0.000749891               0.999999984              -0.000289330               0.000780313               0.999999984              -0.000293291               0.000811626               0.999999984              -0.000294057               0.000841163               0.999999984              -0.000291152               0.000867523               0.999999984              -0.000284176               0.000890443               0.999999984              -0.000273180               0.000909944               0.999999984              -0.000258316               0.000926426               0.999999984              -0.000240175               0.000940591               0.999999984              -0.000219327               0.000952924               0.999999984              -0.000196464               0.000963637               0.999999984              -0.000172501               0.000972885               0.999999984              -0.000148123               0.000980984               0.999999984              -0.000341675               0.000918751               0.999999984              -0.000254450               0.000829447               0.999999984              -0.000230571               0.000803350               0.999999984              -0.000227919               0.000808144               0.999999984              -0.000232698               0.000828378               0.999999984              -0.000238798               0.000855712               0.999999984              -0.000243376               0.000885646               0.999999984              -0.000245307               0.000915279               0.999999984              -0.000243845               0.000943113               0.999999984              -0.000238388               0.000968223               0.999999984              -0.000228849               0.000990487               0.999999984              -0.000215323               0.001009921               0.999999984              -0.000198087               0.001026997               0.999999984              -0.000177798               0.001042332               0.999999984              -0.000154854               0.001056267               0.999999984              -0.000130478               0.001069134               0.999999984              -0.000105973               0.001081033               0.999999984              -0.000299092               0.000990874               0.999999984              -0.000211485               0.000919548               0.999999984              -0.000184653               0.000894151               0.999999984              -0.000179824               0.000895183               0.999999984              -0.000183275               0.000911520               0.999999984              -0.000188933               0.000935989               0.999999984              -0.000193772               0.000964459               0.999999984              -0.000196473               0.000994002               0.999999984              -0.000196131               0.001023074               0.999999984              -0.000192174               0.001050349               0.999999984              -0.000184201               0.001075320               0.999999984              -0.000172140               0.001097848               0.999999984              -0.000155956               0.001118052               0.999999984              -0.000136087               0.001136252               0.999999984              -0.000112892               0.001152920               0.999999984              -0.000087231               0.001168549               0.999999984              -0.000060425               0.001183653               0.999999984              -0.000253785               0.001053897               0.999999984              -0.000171287               0.001003370               0.999999984              -0.000142981               0.000982539               0.999999984              -0.000135883               0.000982701               0.999999984              -0.000137383               0.000996612               0.999999984              -0.000141865               0.001019063               0.999999984              -0.000146456               0.001046214               0.999999984              -0.000149467               0.001075632               0.999999984              -0.000149819               0.001105744               0.999999984              -0.000147037               0.001135233               0.999999984              -0.000140619               0.001163207               0.999999984              -0.000130241               0.001189144               0.999999984              -0.000115573               0.001212980               0.999999984              -0.000096450               0.001234701               0.999999984              -0.000072988               0.001254696               0.999999984              -0.000045645               0.001273363               0.999999984              -0.000015278               0.001291332               0.999999984              -0.000206125               0.001106840               0.999999984              -0.000133773               0.001077669               0.999999984              -0.000106188               0.001064231               0.999999984              -0.000097485               0.001066096               0.999999984              -0.000097071               0.001079295               0.999999984              -0.000100040               0.001100640               0.999999984              -0.000103734               0.001127230               0.999999984              -0.000106493               0.001156784               0.999999984              -0.000107103               0.001187915               0.999999984              -0.000105159               0.001219463               0.999999984              -0.000100237               0.001250481               0.999999984              -0.000091777               0.001280209               0.999999984              -0.000079032               0.001308291               0.999999984              -0.000061469               0.001334487               0.999999984              -0.000038846               0.001358833               0.999999984              -0.000010843               0.001381470               0.999999984               0.000022493               0.001402914               0.999999984              -0.000156478               0.001148918               0.999999984              -0.000098469               0.001139401               0.999999984              -0.000074318               0.001134636               0.999999984              -0.000065365               0.001139882               0.999999984              -0.000063672               0.001154101               0.999999984              -0.000065147               0.001175297               0.999999984              -0.000067669               0.001201774               0.999999984              -0.000069733               0.001231960               0.999999984              -0.000070251               0.001264308               0.999999984              -0.000068840               0.001297795               0.999999984              -0.000065159               0.001331646               0.999999984              -0.000058714               0.001365105               0.999999984              -0.000048433               0.001397604               0.999999984              -0.000033638               0.001428727               0.999999984              -0.000013855               0.001458178               0.999999984               0.000011974               0.001485772               0.999999984               0.000044841               0.001511709               0.999999984              -0.000105249               0.001179475               0.999999984              -0.000064806               0.001185701               0.999999984              -0.000046821               0.001189068               0.999999984              -0.000039421               0.001198173               0.999999984              -0.000037408               0.001214188               0.999999984              -0.000037863               0.001236297               0.999999984              -0.000039204               0.001263228               0.999999984              -0.000040365               0.001294023               0.999999984              -0.000040724               0.001327554               0.999999984              -0.000039823               0.001362789               0.999999984              -0.000037368               0.001398926               0.999999984              -0.000032869               0.001435429               0.999999984              -0.000025652               0.001471746               0.999999984              -0.000015032               0.001507251               0.999999984              -0.000000222               0.001541513               0.999999984               0.000019813               0.001574136               0.999999984               0.000046659               0.001604833               0.999999984              -0.000052916               0.001198002               0.999999984              -0.000032167               0.001214397               0.999999984              -0.000022530               0.001223563               0.999999984              -0.000018370               0.001235839               0.999999984              -0.000017023               0.001253431               0.999999984              -0.000017017               0.001276422               0.999999984              -0.000017531               0.001304035               0.999999984              -0.000017982               0.001335400               0.999999984              -0.000018147               0.001369658               0.999999984              -0.000017767               0.001406050               0.999999984              -0.000016573               0.001443812               0.999999984              -0.000014194               0.001482320               0.999999984              -0.000010485               0.001521074               0.999999984              -0.000004996               0.001559623               0.999999984               0.000002960               0.001597388               0.999999984               0.000013923               0.001633833               0.999999984               0.000029065               0.001668305               0.999999984               0.000000000               0.001204202               0.999999984              -0.000000000               0.001224130               0.999999984               0.000000000               0.001235358               0.999999984              -0.000000000               0.001248799               0.999999984               0.000000000               0.001267101               0.999999984              -0.000000000               0.001290479               0.999999984               0.000000000               0.001318333               0.999999984               0.000000000               0.001349978               0.999999984              -0.000000000               0.001384531               0.999999984               0.000000000               0.001421292               0.999999984               0.000000000               0.001459602               0.999999984              -0.000000000               0.001498899               0.999999984              -0.000000000               0.001538569               0.999999984               0.000000000               0.001578215               0.999999984               0.000000000               0.001617300               0.999999984              -0.000000000               0.001655210               0.999999984               0.000000000               0.001691190               0.999999984              -0.000560442               0.000000000               0.999999984              -0.000605945               0.000000000               0.999999984              -0.000626050               0.000000000               0.999999984              -0.000637488               0.000000000               0.999999984              -0.000646544               0.000000000               0.999999984              -0.000655538               0.000000000               0.999999984              -0.000665418               0.000000000               0.999999984              -0.000676581              -0.000000000               0.999999984              -0.000688948               0.000000000               0.999999984              -0.000702210               0.000000000               0.999999984              -0.000716241               0.000000000               0.999999984              -0.000730728               0.000000000               0.999999984              -0.000745482               0.000000000               0.999999984              -0.000760305               0.000000000               0.999999984              -0.000774920              -0.000000000               0.999999984              -0.000788850               0.000000000               0.999999984              -0.000801411              -0.000000000               0.999999984              -0.000557312              -0.000116949               0.999999984              -0.000599632              -0.000096581               0.999999984              -0.000617771              -0.000088196               0.999999984              -0.000627994              -0.000086054               0.999999984              -0.000636277              -0.000087054               0.999999984              -0.000644808              -0.000089725               0.999999984              -0.000654325              -0.000093268               0.999999984              -0.000664958              -0.000097168               0.999999984              -0.000676670              -0.000100963               0.999999984              -0.000689333              -0.000104453               0.999999984              -0.000702668              -0.000107385               0.999999984              -0.000716336              -0.000109477               0.999999984              -0.000730119              -0.000110487               0.999999984              -0.000743699              -0.000110161               0.999999984              -0.000756796              -0.000108046               0.999999984              -0.000769065              -0.000103473               0.999999984              -0.000780106              -0.000095262               0.999999984              -0.000548082              -0.000232701               0.999999984              -0.000581115              -0.000192450               0.999999984              -0.000593701              -0.000176655               0.999999984              -0.000600684              -0.000173165               0.999999984              -0.000606993              -0.000175861               0.999999984              -0.000614138              -0.000181561               0.999999984              -0.000622477              -0.000188817               0.999999984              -0.000631929              -0.000196741               0.999999984              -0.000642337              -0.000204353               0.999999984              -0.000653304              -0.000211431               0.999999984              -0.000664517              -0.000217258               0.999999984              -0.000675651              -0.000221393               0.999999984              -0.000686380              -0.000223609               0.999999984              -0.000696518              -0.000223446               0.999999984              -0.000705908              -0.000220356               0.999999984              -0.000714434              -0.000213461               0.999999984              -0.000722027              -0.000201328               0.999999984              -0.000532811              -0.000346125               0.999999984              -0.000551191              -0.000287085               0.999999984              -0.000555771              -0.000265660               0.999999984              -0.000558434              -0.000262144               0.999999984              -0.000562221              -0.000267414               0.999999984              -0.000567713              -0.000276865               0.999999984              -0.000574768              -0.000288256               0.999999984              -0.000582805              -0.000300130               0.999999984              -0.000591340              -0.000311550               0.999999984              -0.000599897              -0.000321997               0.999999984              -0.000608120              -0.000330832               0.999999984              -0.000615738              -0.000337466               0.999999984              -0.000622592              -0.000341543               0.999999984              -0.000628633              -0.000342711               0.999999984              -0.000633769              -0.000340566               0.999999984              -0.000637979              -0.000334436               0.999999984              -0.000641425              -0.000323703               0.999999984              -0.000511727              -0.000456082               0.999999984              -0.000511427              -0.000380230               0.999999984              -0.000507152              -0.000355305               0.999999984              -0.000505615              -0.000353280               0.999999984              -0.000507409              -0.000362124               0.999999984              -0.000511696              -0.000375836               0.999999984              -0.000517435              -0.000391592               0.999999984              -0.000523983              -0.000407595               0.999999984              -0.000530592              -0.000422826               0.999999984              -0.000536745              -0.000436604               0.999999984              -0.000541994              -0.000448299               0.999999984              -0.000546163              -0.000457371               0.999999984              -0.000549168              -0.000463784               0.999999984              -0.000551056              -0.000467272               0.999999984              -0.000551789              -0.000467457               0.999999984              -0.000551457              -0.000464194               0.999999984              -0.000550226              -0.000457312               0.999999984              -0.000485339              -0.000561441               0.999999984              -0.000463959              -0.000471800               0.999999984              -0.000451529              -0.000445595               0.999999984              -0.000447147              -0.000446309               0.999999984              -0.000447997              -0.000459255               0.999999984              -0.000451687              -0.000477451               0.999999984              -0.000456856              -0.000497594               0.999999984              -0.000462286              -0.000517684               0.999999984              -0.000467002              -0.000536549               0.999999984              -0.000470583              -0.000553540               0.999999984              -0.000472594              -0.000567874               0.999999984              -0.000473027              -0.000579385               0.999999984              -0.000471873              -0.000588239               0.999999984              -0.000469167              -0.000594251               0.999999984              -0.000464999              -0.000597321               0.999999984              -0.000459475              -0.000597418               0.999999984              -0.000452706              -0.000594851               0.999999984              -0.000454124              -0.000661193               0.999999984              -0.000411266              -0.000561725               0.999999984              -0.000392792              -0.000536159               0.999999984              -0.000387487              -0.000540267               0.999999984              -0.000388781              -0.000557394               0.999999984              -0.000393016              -0.000579929               0.999999984              -0.000397950              -0.000604327               0.999999984              -0.000402091              -0.000628227               0.999999984              -0.000404742              -0.000650223               0.999999984              -0.000405409              -0.000669778               0.999999984              -0.000403911              -0.000686389               0.999999984              -0.000400168              -0.000699990               0.999999984              -0.000394295              -0.000710925               0.999999984              -0.000386393              -0.000719298               0.999999984              -0.000376594              -0.000725134               0.999999984              -0.000365166              -0.000728401               0.999999984              -0.000352401              -0.000729521               0.999999984              -0.000418774              -0.000754284               0.999999984              -0.000356070              -0.000649704               0.999999984              -0.000334402              -0.000626114               0.999999984              -0.000330336              -0.000633671               0.999999984              -0.000333342              -0.000654801               0.999999984              -0.000338443              -0.000681541               0.999999984              -0.000343059              -0.000709718               0.999999984              -0.000345833              -0.000736646               0.999999984              -0.000345988              -0.000761130               0.999999984              -0.000343282              -0.000782655               0.999999984              -0.000337550              -0.000800975               0.999999984              -0.000328819              -0.000816221               0.999999984              -0.000317279              -0.000828956               0.999999984              -0.000303214              -0.000839427               0.999999984              -0.000287067              -0.000847743               0.999999984              -0.000269174              -0.000854054               0.999999984              -0.000250040              -0.000858596               0.999999984              -0.000380659              -0.000839059               0.999999984              -0.000300352              -0.000735592               0.999999984              -0.000279488              -0.000714164               0.999999984              -0.000278194              -0.000724857               0.999999984              -0.000283427              -0.000749891               0.999999984              -0.000289330              -0.000780313               0.999999984              -0.000293291              -0.000811626               0.999999984              -0.000294057              -0.000841163               0.999999984              -0.000291152              -0.000867523               0.999999984              -0.000284176              -0.000890443               0.999999984              -0.000273180              -0.000909944               0.999999984              -0.000258316              -0.000926426               0.999999984              -0.000240175              -0.000940591               0.999999984              -0.000219327              -0.000952924               0.999999984              -0.000196464              -0.000963637               0.999999984              -0.000172501              -0.000972885               0.999999984              -0.000148123              -0.000980984               0.999999984              -0.000341675              -0.000918751               0.999999984              -0.000254450              -0.000829447               0.999999984              -0.000230571              -0.000803350               0.999999984              -0.000227919              -0.000808144               0.999999984              -0.000232698              -0.000828378               0.999999984              -0.000238798              -0.000855712               0.999999984              -0.000243376              -0.000885646               0.999999984              -0.000245307              -0.000915279               0.999999984              -0.000243845              -0.000943113               0.999999984              -0.000238388              -0.000968223               0.999999984              -0.000228849              -0.000990487               0.999999984              -0.000215323              -0.001009921               0.999999984              -0.000198087              -0.001026997               0.999999984              -0.000177798              -0.001042332               0.999999984              -0.000154854              -0.001056267               0.999999984              -0.000130478              -0.001069134               0.999999984              -0.000105973              -0.001081033               0.999999984              -0.000299092              -0.000990874               0.999999984              -0.000211485              -0.000919548               0.999999984              -0.000184653              -0.000894151               0.999999984              -0.000179824              -0.000895183               0.999999984              -0.000183275              -0.000911520               0.999999984              -0.000188933              -0.000935989               0.999999984              -0.000193772              -0.000964459               0.999999984              -0.000196473              -0.000994002               0.999999984              -0.000196131              -0.001023074               0.999999984              -0.000192174              -0.001050349               0.999999984              -0.000184201              -0.001075320               0.999999984              -0.000172140              -0.001097848               0.999999984              -0.000155956              -0.001118052               0.999999984              -0.000136087              -0.001136252               0.999999984              -0.000112892              -0.001152920               0.999999984              -0.000087231              -0.001168549               0.999999984              -0.000060425              -0.001183653               0.999999984              -0.000253785              -0.001053897               0.999999984              -0.000171287              -0.001003370               0.999999984              -0.000142981              -0.000982539               0.999999984              -0.000135883              -0.000982701               0.999999984              -0.000137383              -0.000996612               0.999999984              -0.000141865              -0.001019063               0.999999984              -0.000146456              -0.001046214               0.999999984              -0.000149467              -0.001075632               0.999999984              -0.000149819              -0.001105744               0.999999984              -0.000147037              -0.001135233               0.999999984              -0.000140619              -0.001163207               0.999999984              -0.000130241              -0.001189144               0.999999984              -0.000115573              -0.001212980               0.999999984              -0.000096450              -0.001234701               0.999999984              -0.000072988              -0.001254696               0.999999984              -0.000045645              -0.001273363               0.999999984              -0.000015278              -0.001291332               0.999999984              -0.000206125              -0.001106840               0.999999984              -0.000133773              -0.001077669               0.999999984              -0.000106188              -0.001064231               0.999999984              -0.000097485              -0.001066096               0.999999984              -0.000097071              -0.001079295               0.999999984              -0.000100040              -0.001100640               0.999999984              -0.000103734              -0.001127230               0.999999984              -0.000106493              -0.001156784               0.999999984              -0.000107103              -0.001187915               0.999999984              -0.000105159              -0.001219463               0.999999984              -0.000100237              -0.001250481               0.999999984              -0.000091777              -0.001280209               0.999999984              -0.000079032              -0.001308291               0.999999984              -0.000061469              -0.001334487               0.999999984              -0.000038846              -0.001358833               0.999999984              -0.000010843              -0.001381470               0.999999984               0.000022493              -0.001402914               0.999999984              -0.000156478              -0.001148918               0.999999984              -0.000098469              -0.001139401               0.999999984              -0.000074318              -0.001134636               0.999999984              -0.000065365              -0.001139882               0.999999984              -0.000063672              -0.001154101               0.999999984              -0.000065147              -0.001175297               0.999999984              -0.000067669              -0.001201774               0.999999984              -0.000069733              -0.001231960               0.999999984              -0.000070251              -0.001264308               0.999999984              -0.000068840              -0.001297795               0.999999984              -0.000065159              -0.001331646               0.999999984              -0.000058714              -0.001365105               0.999999984              -0.000048433              -0.001397604               0.999999984              -0.000033638              -0.001428727               0.999999984              -0.000013855              -0.001458178               0.999999984               0.000011974              -0.001485772               0.999999984               0.000044841              -0.001511709               0.999999984              -0.000105249              -0.001179475               0.999999984              -0.000064806              -0.001185701               0.999999984              -0.000046821              -0.001189068               0.999999984              -0.000039421              -0.001198173               0.999999984              -0.000037408              -0.001214188               0.999999984              -0.000037863              -0.001236297               0.999999984              -0.000039204              -0.001263228               0.999999984              -0.000040365              -0.001294023               0.999999984              -0.000040724              -0.001327554               0.999999984              -0.000039823              -0.001362789               0.999999984              -0.000037368              -0.001398926               0.999999984              -0.000032869              -0.001435429               0.999999984              -0.000025652              -0.001471746               0.999999984              -0.000015032              -0.001507251               0.999999984              -0.000000222              -0.001541513               0.999999984               0.000019813              -0.001574136               0.999999984               0.000046659              -0.001604833               0.999999984              -0.000052916              -0.001198002               0.999999984              -0.000032167              -0.001214397               0.999999984              -0.000022530              -0.001223563               0.999999984              -0.000018370              -0.001235839               0.999999984              -0.000017023              -0.001253431               0.999999984              -0.000017017              -0.001276422               0.999999984              -0.000017531              -0.001304035               0.999999984              -0.000017982              -0.001335400               0.999999984              -0.000018147              -0.001369658               0.999999984              -0.000017767              -0.001406050               0.999999984              -0.000016573              -0.001443812               0.999999984              -0.000014194              -0.001482320               0.999999984              -0.000010485              -0.001521074               0.999999984              -0.000004996              -0.001559623               0.999999984               0.000002960              -0.001597388               0.999999984               0.000013923              -0.001633833               0.999999984               0.000029065              -0.001668305               0.999999984              -0.000000000              -0.001204202               0.999999984               0.000000000              -0.001224130               0.999999984              -0.000000000              -0.001235358               0.999999984               0.000000000              -0.001248799               0.999999984               0.000000000              -0.001267101               0.999999984              -0.000000000              -0.001290479               0.999999984              -0.000000000              -0.001318333               0.999999984               0.000000000              -0.001349978               0.999999984               0.000000000              -0.001384531               0.999999984               0.000000000              -0.001421292               0.999999984              -0.000000000              -0.001459602               0.999999984              -0.000000000              -0.001498899               0.999999984               0.000000000              -0.001538569               0.999999984              -0.000000000              -0.001578215               0.999999984              -0.000000000              -0.001617300               0.999999984              -0.000000000              -0.001655210               0.999999984              -0.000000000              -0.001691190               0.999999984               0.000560442               0.000000000               0.999999984               0.000605945              -0.000000000               0.999999984               0.000626050               0.000000000               0.999999984               0.000637488              -0.000000000               0.999999984               0.000646544               0.000000000               0.999999984               0.000655538               0.000000000               0.999999984               0.000665418               0.000000000               0.999999984               0.000676581               0.000000000               0.999999984               0.000688948               0.000000000               0.999999984               0.000702210               0.000000000               0.999999984               0.000716241               0.000000000               0.999999984               0.000730728               0.000000000               0.999999984               0.000745482              -0.000000000               0.999999984               0.000760305              -0.000000000               0.999999984               0.000774920              -0.000000000               0.999999984               0.000788850               0.000000000               0.999999984               0.000801411               0.000000000               0.999999984               0.000557312              -0.000116949               0.999999984               0.000599632              -0.000096581               0.999999984               0.000617771              -0.000088196               0.999999984               0.000627994              -0.000086054               0.999999984               0.000636277              -0.000087054               0.999999984               0.000644808              -0.000089725               0.999999984               0.000654325              -0.000093268               0.999999984               0.000664958              -0.000097168               0.999999984               0.000676670              -0.000100963               0.999999984               0.000689333              -0.000104453               0.999999984               0.000702668              -0.000107385               0.999999984               0.000716336              -0.000109477               0.999999984               0.000730119              -0.000110487               0.999999984               0.000743699              -0.000110161               0.999999984               0.000756796              -0.000108046               0.999999984               0.000769065              -0.000103473               0.999999984               0.000780106              -0.000095262               0.999999984               0.000548082              -0.000232701               0.999999984               0.000581115              -0.000192450               0.999999984               0.000593701              -0.000176655               0.999999984               0.000600684              -0.000173165               0.999999984               0.000606993              -0.000175861               0.999999984               0.000614138              -0.000181561               0.999999984               0.000622477              -0.000188817               0.999999984               0.000631929              -0.000196741               0.999999984               0.000642337              -0.000204353               0.999999984               0.000653304              -0.000211431               0.999999984               0.000664517              -0.000217258               0.999999984               0.000675651              -0.000221393               0.999999984               0.000686380              -0.000223609               0.999999984               0.000696518              -0.000223446               0.999999984               0.000705908              -0.000220356               0.999999984               0.000714434              -0.000213461               0.999999984               0.000722027              -0.000201328               0.999999984               0.000532811              -0.000346125               0.999999984               0.000551191              -0.000287085               0.999999984               0.000555771              -0.000265660               0.999999984               0.000558434              -0.000262144               0.999999984               0.000562221              -0.000267414               0.999999984               0.000567713              -0.000276865               0.999999984               0.000574768              -0.000288256               0.999999984               0.000582805              -0.000300130               0.999999984               0.000591340              -0.000311550               0.999999984               0.000599897              -0.000321997               0.999999984               0.000608120              -0.000330832               0.999999984               0.000615738              -0.000337466               0.999999984               0.000622592              -0.000341543               0.999999984               0.000628633              -0.000342711               0.999999984               0.000633769              -0.000340566               0.999999984               0.000637979              -0.000334436               0.999999984               0.000641425              -0.000323703               0.999999984               0.000511727              -0.000456082               0.999999984               0.000511427              -0.000380230               0.999999984               0.000507152              -0.000355305               0.999999984               0.000505615              -0.000353280               0.999999984               0.000507409              -0.000362124               0.999999984               0.000511696              -0.000375836               0.999999984               0.000517435              -0.000391592               0.999999984               0.000523983              -0.000407595               0.999999984               0.000530592              -0.000422826               0.999999984               0.000536745              -0.000436604               0.999999984               0.000541994              -0.000448299               0.999999984               0.000546163              -0.000457371               0.999999984               0.000549168              -0.000463784               0.999999984               0.000551056              -0.000467272               0.999999984               0.000551789              -0.000467457               0.999999984               0.000551457              -0.000464194               0.999999984               0.000550226              -0.000457312               0.999999984               0.000485339              -0.000561441               0.999999984               0.000463959              -0.000471800               0.999999984               0.000451529              -0.000445595               0.999999984               0.000447147              -0.000446309               0.999999984               0.000447997              -0.000459255               0.999999984               0.000451687              -0.000477451               0.999999984               0.000456856              -0.000497594               0.999999984               0.000462286              -0.000517684               0.999999984               0.000467002              -0.000536549               0.999999984               0.000470583              -0.000553540               0.999999984               0.000472594              -0.000567874               0.999999984               0.000473027              -0.000579385               0.999999984               0.000471873              -0.000588239               0.999999984               0.000469167              -0.000594251               0.999999984               0.000464999              -0.000597321               0.999999984               0.000459475              -0.000597418               0.999999984               0.000452706              -0.000594851               0.999999984               0.000454124              -0.000661193               0.999999984               0.000411266              -0.000561725               0.999999984               0.000392792              -0.000536159               0.999999984               0.000387487              -0.000540267               0.999999984               0.000388781              -0.000557394               0.999999984               0.000393016              -0.000579929               0.999999984               0.000397950              -0.000604327               0.999999984               0.000402091              -0.000628227               0.999999984               0.000404742              -0.000650223               0.999999984               0.000405409              -0.000669778               0.999999984               0.000403911              -0.000686389               0.999999984               0.000400168              -0.000699990               0.999999984               0.000394295              -0.000710925               0.999999984               0.000386393              -0.000719298               0.999999984               0.000376594              -0.000725134               0.999999984               0.000365166              -0.000728401               0.999999984               0.000352401              -0.000729521               0.999999984               0.000418774              -0.000754284               0.999999984               0.000356070              -0.000649704               0.999999984               0.000334402              -0.000626114               0.999999984               0.000330336              -0.000633671               0.999999984               0.000333342              -0.000654801               0.999999984               0.000338443              -0.000681541               0.999999984               0.000343059              -0.000709718               0.999999984               0.000345833              -0.000736646               0.999999984               0.000345988              -0.000761130               0.999999984               0.000343282              -0.000782655               0.999999984               0.000337550              -0.000800975               0.999999984               0.000328819              -0.000816221               0.999999984               0.000317279              -0.000828956               0.999999984               0.000303214              -0.000839427               0.999999984               0.000287067              -0.000847743               0.999999984               0.000269174              -0.000854054               0.999999984               0.000250040              -0.000858596               0.999999984               0.000380659              -0.000839059               0.999999984               0.000300352              -0.000735592               0.999999984               0.000279488              -0.000714164               0.999999984               0.000278194              -0.000724857               0.999999984               0.000283427              -0.000749891               0.999999984               0.000289330              -0.000780313               0.999999984               0.000293291              -0.000811626               0.999999984               0.000294057              -0.000841163               0.999999984               0.000291152              -0.000867523               0.999999984               0.000284176              -0.000890443               0.999999984               0.000273180              -0.000909944               0.999999984               0.000258316              -0.000926426               0.999999984               0.000240175              -0.000940591               0.999999984               0.000219327              -0.000952924               0.999999984               0.000196464              -0.000963637               0.999999984               0.000172501              -0.000972885               0.999999984               0.000148123              -0.000980984               0.999999984               0.000341675              -0.000918751               0.999999984               0.000254450              -0.000829447               0.999999984               0.000230571              -0.000803350               0.999999984               0.000227919              -0.000808144               0.999999984               0.000232698              -0.000828378               0.999999984               0.000238798              -0.000855712               0.999999984               0.000243376              -0.000885646               0.999999984               0.000245307              -0.000915279               0.999999984               0.000243845              -0.000943113               0.999999984               0.000238388              -0.000968223               0.999999984               0.000228849              -0.000990487               0.999999984               0.000215323              -0.001009921               0.999999984               0.000198087              -0.001026997               0.999999984               0.000177798              -0.001042332               0.999999984               0.000154854              -0.001056267               0.999999984               0.000130478              -0.001069134               0.999999984               0.000105973              -0.001081033               0.999999984               0.000299092              -0.000990874               0.999999984               0.000211485              -0.000919548               0.999999984               0.000184653              -0.000894151               0.999999984               0.000179824              -0.000895183               0.999999984               0.000183275              -0.000911520               0.999999984               0.000188933              -0.000935989               0.999999984               0.000193772              -0.000964459               0.999999984               0.000196473              -0.000994002               0.999999984               0.000196131              -0.001023074               0.999999984               0.000192174              -0.001050349               0.999999984               0.000184201              -0.001075320               0.999999984               0.000172140              -0.001097848               0.999999984               0.000155956              -0.001118052               0.999999984               0.000136087              -0.001136252               0.999999984               0.000112892              -0.001152920               0.999999984               0.000087231              -0.001168549               0.999999984               0.000060425              -0.001183653               0.999999984               0.000253785              -0.001053897               0.999999984               0.000171287              -0.001003370               0.999999984               0.000142981              -0.000982539               0.999999984               0.000135883              -0.000982701               0.999999984               0.000137383              -0.000996612               0.999999984               0.000141865              -0.001019063               0.999999984               0.000146456              -0.001046214               0.999999984               0.000149467              -0.001075632               0.999999984               0.000149819              -0.001105744               0.999999984               0.000147037              -0.001135233               0.999999984               0.000140619              -0.001163207               0.999999984               0.000130241              -0.001189144               0.999999984               0.000115573              -0.001212980               0.999999984               0.000096450              -0.001234701               0.999999984               0.000072988              -0.001254696               0.999999984               0.000045645              -0.001273363               0.999999984               0.000015278              -0.001291332               0.999999984               0.000206125              -0.001106840               0.999999984               0.000133773              -0.001077669               0.999999984               0.000106188              -0.001064231               0.999999984               0.000097485              -0.001066096               0.999999984               0.000097071              -0.001079295               0.999999984               0.000100040              -0.001100640               0.999999984               0.000103734              -0.001127230               0.999999984               0.000106493              -0.001156784               0.999999984               0.000107103              -0.001187915               0.999999984               0.000105159              -0.001219463               0.999999984               0.000100237              -0.001250481               0.999999984               0.000091777              -0.001280209               0.999999984               0.000079032              -0.001308291               0.999999984               0.000061469              -0.001334487               0.999999984               0.000038846              -0.001358833               0.999999984               0.000010843              -0.001381470               0.999999984              -0.000022493              -0.001402914               0.999999984               0.000156478              -0.001148918               0.999999984               0.000098469              -0.001139401               0.999999984               0.000074318              -0.001134636               0.999999984               0.000065365              -0.001139882               0.999999984               0.000063672              -0.001154101               0.999999984               0.000065147              -0.001175297               0.999999984               0.000067669              -0.001201774               0.999999984               0.000069733              -0.001231960               0.999999984               0.000070251              -0.001264308               0.999999984               0.000068840              -0.001297795               0.999999984               0.000065159              -0.001331646               0.999999984               0.000058714              -0.001365105               0.999999984               0.000048433              -0.001397604               0.999999984               0.000033638              -0.001428727               0.999999984               0.000013855              -0.001458178               0.999999984              -0.000011974              -0.001485772               0.999999984              -0.000044841              -0.001511709               0.999999984               0.000105249              -0.001179475               0.999999984               0.000064806              -0.001185701               0.999999984               0.000046821              -0.001189068               0.999999984               0.000039421              -0.001198173               0.999999984               0.000037408              -0.001214188               0.999999984               0.000037863              -0.001236297               0.999999984               0.000039204              -0.001263228               0.999999984               0.000040365              -0.001294023               0.999999984               0.000040724              -0.001327554               0.999999984               0.000039823              -0.001362789               0.999999984               0.000037368              -0.001398926               0.999999984               0.000032869              -0.001435429               0.999999984               0.000025652              -0.001471746               0.999999984               0.000015032              -0.001507251               0.999999984               0.000000222              -0.001541513               0.999999984              -0.000019813              -0.001574136               0.999999984              -0.000046659              -0.001604833               0.999999984               0.000052916              -0.001198002               0.999999984               0.000032167              -0.001214397               0.999999984               0.000022530              -0.001223563               0.999999984               0.000018370              -0.001235839               0.999999984               0.000017023              -0.001253431               0.999999984               0.000017017              -0.001276422               0.999999984               0.000017531              -0.001304035               0.999999984               0.000017982              -0.001335400               0.999999984               0.000018147              -0.001369658               0.999999984               0.000017767              -0.001406050               0.999999984               0.000016573              -0.001443812               0.999999984               0.000014194              -0.001482320               0.999999984               0.000010485              -0.001521074               0.999999984               0.000004996              -0.001559623               0.999999984              -0.000002960              -0.001597388               0.999999984              -0.000013923              -0.001633833               0.999999984              -0.000029065              -0.001668305               0.999999984              -0.000000000              -0.001204202               0.999999984               0.000000000              -0.001224130               0.999999984              -0.000000000              -0.001235358               0.999999984               0.000000000              -0.001248799               0.999999984               0.000000000              -0.001267101               0.999999984              -0.000000000              -0.001290479               0.999999984              -0.000000000              -0.001318333               0.999999984               0.000000000              -0.001349978               0.999999984               0.000000000              -0.001384531               0.999999984               0.000000000              -0.001421292               0.999999984              -0.000000000              -0.001459602               0.999999984              -0.000000000              -0.001498899               0.999999984               0.000000000              -0.001538569               0.999999984              -0.000000000              -0.001578215               0.999999984              -0.000000000              -0.001617300               0.999999984              -0.000000000              -0.001655210               0.999999984              -0.000000000              -0.001691190               0.999999984               0.000560442               0.000000000               0.999999984               0.000605945              -0.000000000               0.999999984               0.000626050               0.000000000               0.999999984               0.000637488              -0.000000000               0.999999984               0.000646544               0.000000000               0.999999984               0.000655538               0.000000000               0.999999984               0.000665418               0.000000000               0.999999984               0.000676581               0.000000000               0.999999984               0.000688948               0.000000000               0.999999984               0.000702210               0.000000000               0.999999984               0.000716241               0.000000000               0.999999984               0.000730728               0.000000000               0.999999984               0.000745482              -0.000000000               0.999999984               0.000760305              -0.000000000               0.999999984               0.000774920              -0.000000000               0.999999984               0.000788850               0.000000000               0.999999984               0.000801411               0.000000000               0.999999984               0.000557312               0.000116949               0.999999984               0.000599632               0.000096581               0.999999984               0.000617771               0.000088196               0.999999984               0.000627994               0.000086054               0.999999984               0.000636277               0.000087054               0.999999984               0.000644808               0.000089725               0.999999984               0.000654325               0.000093268               0.999999984               0.000664958               0.000097168               0.999999984               0.000676670               0.000100963               0.999999984               0.000689333               0.000104453               0.999999984               0.000702668               0.000107385               0.999999984               0.000716336               0.000109477               0.999999984               0.000730119               0.000110487               0.999999984               0.000743699               0.000110161               0.999999984               0.000756796               0.000108046               0.999999984               0.000769065               0.000103473               0.999999984               0.000780106               0.000095262               0.999999984               0.000548082               0.000232701               0.999999984               0.000581115               0.000192450               0.999999984               0.000593701               0.000176655               0.999999984               0.000600684               0.000173165               0.999999984               0.000606993               0.000175861               0.999999984               0.000614138               0.000181561               0.999999984               0.000622477               0.000188817               0.999999984               0.000631929               0.000196741               0.999999984               0.000642337               0.000204353               0.999999984               0.000653304               0.000211431               0.999999984               0.000664517               0.000217258               0.999999984               0.000675651               0.000221393               0.999999984               0.000686380               0.000223609               0.999999984               0.000696518               0.000223446               0.999999984               0.000705908               0.000220356               0.999999984               0.000714434               0.000213461               0.999999984               0.000722027               0.000201328               0.999999984               0.000532811               0.000346125               0.999999984               0.000551191               0.000287085               0.999999984               0.000555771               0.000265660               0.999999984               0.000558434               0.000262144               0.999999984               0.000562221               0.000267414               0.999999984               0.000567713               0.000276865               0.999999984               0.000574768               0.000288256               0.999999984               0.000582805               0.000300130               0.999999984               0.000591340               0.000311550               0.999999984               0.000599897               0.000321997               0.999999984               0.000608120               0.000330832               0.999999984               0.000615738               0.000337466               0.999999984               0.000622592               0.000341543               0.999999984               0.000628633               0.000342711               0.999999984               0.000633769               0.000340566               0.999999984               0.000637979               0.000334436               0.999999984               0.000641425               0.000323703               0.999999984               0.000511727               0.000456082               0.999999984               0.000511427               0.000380230               0.999999984               0.000507152               0.000355305               0.999999984               0.000505615               0.000353280               0.999999984               0.000507409               0.000362124               0.999999984               0.000511696               0.000375836               0.999999984               0.000517435               0.000391592               0.999999984               0.000523983               0.000407595               0.999999984               0.000530592               0.000422826               0.999999984               0.000536745               0.000436604               0.999999984               0.000541994               0.000448299               0.999999984               0.000546163               0.000457371               0.999999984               0.000549168               0.000463784               0.999999984               0.000551056               0.000467272               0.999999984               0.000551789               0.000467457               0.999999984               0.000551457               0.000464194               0.999999984               0.000550226               0.000457312               0.999999984               0.000485339               0.000561441               0.999999984               0.000463959               0.000471800               0.999999984               0.000451529               0.000445595               0.999999984               0.000447147               0.000446309               0.999999984               0.000447997               0.000459255               0.999999984               0.000451687               0.000477451               0.999999984               0.000456856               0.000497594               0.999999984               0.000462286               0.000517684               0.999999984               0.000467002               0.000536549               0.999999984               0.000470583               0.000553540               0.999999984               0.000472594               0.000567874               0.999999984               0.000473027               0.000579385               0.999999984               0.000471873               0.000588239               0.999999984               0.000469167               0.000594251               0.999999984               0.000464999               0.000597321               0.999999984               0.000459475               0.000597418               0.999999984               0.000452706               0.000594851               0.999999984               0.000454124               0.000661193               0.999999984               0.000411266               0.000561725               0.999999984               0.000392792               0.000536159               0.999999984               0.000387487               0.000540267               0.999999984               0.000388781               0.000557394               0.999999984               0.000393016               0.000579929               0.999999984               0.000397950               0.000604327               0.999999984               0.000402091               0.000628227               0.999999984               0.000404742               0.000650223               0.999999984               0.000405409               0.000669778               0.999999984               0.000403911               0.000686389               0.999999984               0.000400168               0.000699990               0.999999984               0.000394295               0.000710925               0.999999984               0.000386393               0.000719298               0.999999984               0.000376594               0.000725134               0.999999984               0.000365166               0.000728401               0.999999984               0.000352401               0.000729521               0.999999984               0.000418774               0.000754284               0.999999984               0.000356070               0.000649704               0.999999984               0.000334402               0.000626114               0.999999984               0.000330336               0.000633671               0.999999984               0.000333342               0.000654801               0.999999984               0.000338443               0.000681541               0.999999984               0.000343059               0.000709718               0.999999984               0.000345833               0.000736646               0.999999984               0.000345988               0.000761130               0.999999984               0.000343282               0.000782655               0.999999984               0.000337550               0.000800975               0.999999984               0.000328819               0.000816221               0.999999984               0.000317279               0.000828956               0.999999984               0.000303214               0.000839427               0.999999984               0.000287067               0.000847743               0.999999984               0.000269174               0.000854054               0.999999984               0.000250040               0.000858596               0.999999984               0.000380659               0.000839059               0.999999984               0.000300352               0.000735592               0.999999984               0.000279488               0.000714164               0.999999984               0.000278194               0.000724857               0.999999984               0.000283427               0.000749891               0.999999984               0.000289330               0.000780313               0.999999984               0.000293291               0.000811626               0.999999984               0.000294057               0.000841163               0.999999984               0.000291152               0.000867523               0.999999984               0.000284176               0.000890443               0.999999984               0.000273180               0.000909944               0.999999984               0.000258316               0.000926426               0.999999984               0.000240175               0.000940591               0.999999984               0.000219327               0.000952924               0.999999984               0.000196464               0.000963637               0.999999984               0.000172501               0.000972885               0.999999984               0.000148123               0.000980984               0.999999984               0.000341675               0.000918751               0.999999984               0.000254450               0.000829447               0.999999984               0.000230571               0.000803350               0.999999984               0.000227919               0.000808144               0.999999984               0.000232698               0.000828378               0.999999984               0.000238798               0.000855712               0.999999984               0.000243376               0.000885646               0.999999984               0.000245307               0.000915279               0.999999984               0.000243845               0.000943113               0.999999984               0.000238388               0.000968223               0.999999984               0.000228849               0.000990487               0.999999984               0.000215323               0.001009921               0.999999984               0.000198087               0.001026997               0.999999984               0.000177798               0.001042332               0.999999984               0.000154854               0.001056267               0.999999984               0.000130478               0.001069134               0.999999984               0.000105973               0.001081033               0.999999984               0.000299092               0.000990874               0.999999984               0.000211485               0.000919548               0.999999984               0.000184653               0.000894151               0.999999984               0.000179824               0.000895183               0.999999984               0.000183275               0.000911520               0.999999984               0.000188933               0.000935989               0.999999984               0.000193772               0.000964459               0.999999984               0.000196473               0.000994002               0.999999984               0.000196131               0.001023074               0.999999984               0.000192174               0.001050349               0.999999984               0.000184201               0.001075320               0.999999984               0.000172140               0.001097848               0.999999984               0.000155956               0.001118052               0.999999984               0.000136087               0.001136252               0.999999984               0.000112892               0.001152920               0.999999984               0.000087231               0.001168549               0.999999984               0.000060425               0.001183653               0.999999984               0.000253785               0.001053897               0.999999984               0.000171287               0.001003370               0.999999984               0.000142981               0.000982539               0.999999984               0.000135883               0.000982701               0.999999984               0.000137383               0.000996612               0.999999984               0.000141865               0.001019063               0.999999984               0.000146456               0.001046214               0.999999984               0.000149467               0.001075632               0.999999984               0.000149819               0.001105744               0.999999984               0.000147037               0.001135233               0.999999984               0.000140619               0.001163207               0.999999984               0.000130241               0.001189144               0.999999984               0.000115573               0.001212980               0.999999984               0.000096450               0.001234701               0.999999984               0.000072988               0.001254696               0.999999984               0.000045645               0.001273363               0.999999984               0.000015278               0.001291332               0.999999984               0.000206125               0.001106840               0.999999984               0.000133773               0.001077669               0.999999984               0.000106188               0.001064231               0.999999984               0.000097485               0.001066096               0.999999984               0.000097071               0.001079295               0.999999984               0.000100040               0.001100640               0.999999984               0.000103734               0.001127230               0.999999984               0.000106493               0.001156784               0.999999984               0.000107103               0.001187915               0.999999984               0.000105159               0.001219463               0.999999984               0.000100237               0.001250481               0.999999984               0.000091777               0.001280209               0.999999984               0.000079032               0.001308291               0.999999984               0.000061469               0.001334487               0.999999984               0.000038846               0.001358833               0.999999984               0.000010843               0.001381470               0.999999984              -0.000022493               0.001402914               0.999999984               0.000156478               0.001148918               0.999999984               0.000098469               0.001139401               0.999999984               0.000074318               0.001134636               0.999999984               0.000065365               0.001139882               0.999999984               0.000063672               0.001154101               0.999999984               0.000065147               0.001175297               0.999999984               0.000067669               0.001201774               0.999999984               0.000069733               0.001231960               0.999999984               0.000070251               0.001264308               0.999999984               0.000068840               0.001297795               0.999999984               0.000065159               0.001331646               0.999999984               0.000058714               0.001365105               0.999999984               0.000048433               0.001397604               0.999999984               0.000033638               0.001428727               0.999999984               0.000013855               0.001458178               0.999999984              -0.000011974               0.001485772               0.999999984              -0.000044841               0.001511709               0.999999984               0.000105249               0.001179475               0.999999984               0.000064806               0.001185701               0.999999984               0.000046821               0.001189068               0.999999984               0.000039421               0.001198173               0.999999984               0.000037408               0.001214188               0.999999984               0.000037863               0.001236297               0.999999984               0.000039204               0.001263228               0.999999984               0.000040365               0.001294023               0.999999984               0.000040724               0.001327554               0.999999984               0.000039823               0.001362789               0.999999984               0.000037368               0.001398926               0.999999984               0.000032869               0.001435429               0.999999984               0.000025652               0.001471746               0.999999984               0.000015032               0.001507251               0.999999984               0.000000222               0.001541513               0.999999984              -0.000019813               0.001574136               0.999999984              -0.000046659               0.001604833               0.999999984               0.000052916               0.001198002               0.999999984               0.000032167               0.001214397               0.999999984               0.000022530               0.001223563               0.999999984               0.000018370               0.001235839               0.999999984               0.000017023               0.001253431               0.999999984               0.000017017               0.001276422               0.999999984               0.000017531               0.001304035               0.999999984               0.000017982               0.001335400               0.999999984               0.000018147               0.001369658               0.999999984               0.000017767               0.001406050               0.999999984               0.000016573               0.001443812               0.999999984               0.000014194               0.001482320               0.999999984               0.000010485               0.001521074               0.999999984               0.000004996               0.001559623               0.999999984              -0.000002960               0.001597388               0.999999984              -0.000013923               0.001633833               0.999999984              -0.000029065               0.001668305               0.999999984               0.000000000               0.001204202               0.999999984              -0.000000000               0.001224130               0.999999984               0.000000000               0.001235358               0.999999984              -0.000000000               0.001248799               0.999999984               0.000000000               0.001267101               0.999999984              -0.000000000               0.001290479               0.999999984               0.000000000               0.001318333               0.999999984               0.000000000               0.001349978               0.999999984              -0.000000000               0.001384531               0.999999984               0.000000000               0.001421292               0.999999984               0.000000000               0.001459602               0.999999984              -0.000000000               0.001498899               0.999999984              -0.000000000               0.001538569               0.999999984               0.000000000               0.001578215               0.999999984               0.000000000               0.001617300               0.999999984              -0.000000000               0.001655210               0.999999984               0.000000000               0.001691190               0.999999984 </DataArray>
<DataArray type="Float64"                                    Name="defo"                                                      NumberOfComponents=" 3" format="ascii">
             -0.000560442               0.000000000               0.999999984              -0.000605945               0.000000000               0.999999984              -0.000626050               0.000000000               0.999999984              -0.000637488               0.000000000               0.999999984              -0.000646544               0.000000000               0.999999984              -0.000655538               0.000000000               0.999999984              -0.000665418               0.000000000               0.999999984              -0.000676581              -0.000000000               0.999999984              -0.000688948               0.000000000               0.999999984              -0.000702210               0.000000000               0.999999984              -0.000716241               0.000000000               0.999999984              -0.000730728               0.000000000               0.999999984              -0.000745482               0.000000000               0.999999984              -0.000760305               0.000000000               0.999999984              -0.000774920              -0.000000000               0.999999984              -0.000788850               0.000000000               0.999999984              -0.000801411              -0.000000000               0.999999984              -0.000557312               0.000116949               0.999999984              -0.000599632               0.000096581               0.999999984              -0.000617771               0.000088196               0.999999984              -0.000627994               0.000086054               0.999999984              -0.000636277               0.000087054               0.999999984              -0.000644808               0.000089725               0.999999984              -0.000654325               0.000093268               0.999999984              -0.000664958               0.000097168               0.999999984              -0.000676670               0.000100963               0.999999984              -0.000689333               0.000104453               0.999999984              -0.000702668               0.000107385               0.999999984              -0.000716336               0.000109477               0.999999984              -0.000730119               0.000110487               0.999999984              -0.000743699               0.000110161               0.999999984              -0.000756796               0.000108046               0.999999984              -0.000769065               0.000103473               0.999999984              -0.000780106               0.000095262               0.999999984              -0.000548082               0.000232701               0.999999984              -0.000581115               0.000192450               0.999999984              -0.000593701               0.000176655               0.999999984              -0.000600684               0.000173165               0.999999984              -0.000606993               0.000175861               0.999999984              -0.000614138               0.000181561               0.999999984              -0.000622477               0.000188817               0.999999984              -0.000631929               0.000196741               0.999999984              -0.000642337               0.000204353               0.999999984              -0.000653304               0.000211431               0.999999984              -0.000664517               0.000217258               0.999999984              -0.000675651               0.000221393               0.999999984              -0.000686380               0.000223609               0.999999984              -0.000696518               0.000223446               0.999999984              -0.000705908               0.000220356               0.999999984              -0.000714434               0.000213461               0.999999984              -0.000722027               0.000201328               0.999999984              -0.000532811               0.000346125               0.999999984              -0.000551191               0.000287085               0.999999984              -0.000555771               0.000265660               0.999999984              -0.000558434               0.000262144               0.999999984              -0.000562221               0.000267414               0.999999984              -0.000567713               0.000276865               0.999999984              -0.000574768               0.000288256               0.999999984              -0.000582805               0.000300130               0.999999984              -0.000591340               0.000311550               0.999999984              -0.000599897               0.000321997               0.999999984              -0.000608120               0.000330832               0.999999984              -0.000615738               0.000337466               0.999999984              -0.000622592               0.000341543               0.999999984              -0.000628633               0.000342711               0.999999984              -0.000633769               0.000340566               0.999999984              -0.000637979               0.000334436               0.999999984              -0.000641425               0.000323703               0.999999984              -0.000511727               0.000456082               0.999999984              -0.000511427               0.000380230               0.999999984              -0.000507152               0.000355305               0.999999984              -0.000505615               0.000353280               0.999999984              -0.000507409               0.000362124               0.999999984              -0.000511696               0.000375836               0.999999984              -0.000517435               0.000391592               0.999999984              -0.000523983               0.000407595               0.999999984              -0.000530592               0.000422826               0.999999984              -0.000536745               0.000436604               0.999999984              -0.000541994               0.000448299               0.999999984              -0.000546163               0.000457371               0.999999984              -0.000549168               0.000463784               0.999999984              -0.000551056               0.000467272               0.999999984              -0.000551789               0.000467457               0.999999984              -0.000551457               0.000464194               0.999999984              -0.000550226               0.000457312               0.999999984              -0.000485339               0.000561441               0.999999984              -0.000463959               0.000471800               0.999999984              -0.000451529               0.000445595               0.999999984              -0.000447147               0.000446309               0.999999984              -0.000447997               0.000459255               0.999999984              -0.000451687               0.000477451               0.999999984              -0.000456856               0.000497594               0.999999984              -0.000462286               0.000517684               0.999999984              -0.000467002               0.000536549               0.999999984              -0.000470583               0.000553540               0.999999984              -0.000472594               0.000567874               0.999999984              -0.000473027               0.000579385               0.999999984              -0.000471873               0.000588239               0.999999984              -0.000469167               0.000594251               0.999999984              -0.000464999               0.000597321               0.999999984              -0.000459475               0.000597418               0.999999984              -0.000452706               0.000594851               0.999999984              -0.000454124               0.000661193               0.999999984              -0.000411266               0.000561725               0.999999984              -0.000392792               0.000536159               0.999999984              -0.000387487               0.000540267               0.999999984              -0.000388781               0.000557394               0.999999984              -0.000393016               0.000579929               0.999999984              -0.000397950               0.000604327               0.999999984              -0.000402091               0.000628227               0.999999984              -0.000404742               0.000650223               0.999999984              -0.000405409               0.000669778               0.999999984              -0.000403911               0.000686389               0.999999984              -0.000400168               0.000699990               0.999999984              -0.000394295               0.000710925               0.999999984              -0.000386393               0.000719298               0.999999984              -0.000376594               0.000725134               0.999999984              -0.000365166               0.000728401               0.999999984              -0.000352401               0.000729521               0.999999984              -0.000418774               0.000754284               0.999999984              -0.000356070               0.000649704               0.999999984              -0.000334402               0.000626114               0.999999984              -0.000330336               0.000633671               0.999999984              -0.000333342               0.000654801               0.999999984              -0.000338443               0.000681541               0.999999984              -0.000343059               0.000709718               0.999999984              -0.000345833               0.000736646               0.999999984              -0.000345988               0.000761130               0.999999984              -0.000343282               0.000782655               0.999999984              -0.000337550               0.000800975               0.999999984              -0.000328819               0.000816221               0.999999984              -0.000317279               0.000828956               0.999999984              -0.000303214               0.000839427               0.999999984              -0.000287067               0.000847743               0.999999984              -0.000269174               0.000854054               0.999999984              -0.000250040               0.000858596               0.999999984              -0.000380659               0.000839059               0.999999984              -0.000300352               0.000735592               0.999999984              -0.000279488               0.000714164               0.999999984              -0.000278194               0.000724857               0.999999984              -0.000283427               0.000749891               0.999999984              -0.000289330               0.000780313               0.999999984              -0.000293291               0.000811626               0.999999984              -0.000294057               0.000841163               0.999999984              -0.000291152               0.000867523               0.999999984              -0.000284176               0.000890443               0.999999984              -0.000273180               0.000909944               0.999999984              -0.000258316               0.000926426               0.999999984              -0.000240175               0.000940591               0.999999984              -0.000219327               0.000952924               0.999999984              -0.000196464               0.000963637               0.999999984              -0.000172501               0.000972885               0.999999984              -0.000148123               0.000980984               0.999999984              -0.000341675               0.000918751               0.999999984              -0.000254450               0.000829447               0.999999984              -0.000230571               0.000803350               0.999999984              -0.000227919               0.000808144               0.999999984              -0.000232698               0.000828378               0.999999984              -0.000238798               0.000855712               0.999999984              -0.000243376               0.000885646               0.999999984              -0.000245307               0.000915279               0.999999984              -0.000243845               0.000943113               0.999999984              -0.000238388               0.000968223               0.999999984              -0.000228849               0.000990487               0.999999984              -0.000215323               0.001009921               0.999999984              -0.000198087               0.001026997               0.999999984              -0.000177798               0.001042332               0.999999984              -0.000154854               0.001056267               0.999999984              -0.000130478               0.001069134               0.999999984              -0.000105973               0.001081033               0.999999984              -0.000299092               0.000990874               0.999999984              -0.000211485               0.000919548               0.999999984              -0.000184653               0.000894151               0.999999984              -0.000179824               0.000895183               0.999999984              -0.000183275               0.000911520               0.999999984              -0.000188933               0.000935989               0.999999984              -0.000193772               0.000964459               0.999999984              -0.000196473               0.000994002               0.999999984              -0.000196131               0.001023074               0.999999984              -0.000192174               0.001050349               0.999999984              -0.000184201               0.001075320               0.999999984              -0.000172140               0.001097848               0.999999984              -0.000155956               0.001118052               0.999999984              -0.000136087               0.001136252               0.999999984              -0.000112892               0.001152920               0.999999984              -0.000087231               0.001168549               0.999999984              -0.000060425               0.001183653               0.999999984              -0.000253785               0.001053897               0.999999984              -0.000171287               0.001003370               0.999999984              -0.000142981               0.000982539               0.999999984              -0.000135883               0.000982701               0.999999984              -0.000137383               0.000996612               0.999999984              -0.000141865               0.001019063               0.999999984              -0.000146456               0.001046214               0.999999984              -0.000149467               0.001075632               0.999999984              -0.000149819               0.001105744               0.999999984              -0.000147037               0.001135233               0.999999984              -0.000140619               0.001163207               0.999999984              -0.000130241               0.001189144               0.999999984              -0.000115573               0.001212980               0.999999984              -0.000096450               0.001234701               0.999999984              -0.000072988               0.001254696               0.999999984              -0.000045645               0.001273363               0.999999984              -0.000015278               0.001291332               0.999999984              -0.000206125               0.001106840               0.999999984              -0.000133773               0.001077669               0.999999984              -0.000106188               0.001064231               0.999999984              -0.000097485               0.001066096               0.999999984              -0.000097071               0.001079295               0.999999984              -0.000100040               0.001100640               0.999999984              -0.000103734               0.001127230               0.999999984              -0.000106493               0.001156784               0.999999984              -0.000107103               0.001187915               0.999999984              -0.000105159               0.001219463               0.999999984              -0.000100237               0.001250481               0.999999984              -0.000091777               0.001280209               0.999999984              -0.000079032               0.001308291               0.999999984              -0.000061469               0.001334487               0.999999984              -0.000038846               0.001358833               0.999999984              -0.000010843               0.001381470               0.999999984               0.000022493               0.001402914               0.999999984              -0.000156478               0.001148918               0.999999984              -0.000098469               0.001139401               0.999999984              -0.000074318               0.001134636               0.999999984              -0.000065365               0.001139882               0.999999984              -0.000063672               0.001154101               0.999999984              -0.000065147               0.001175297               0.999999984              -0.000067669               0.001201774               0.999999984              -0.000069733               0.001231960               0.999999984              -0.000070251               0.001264308               0.999999984              -0.000068840               0.001297795               0.999999984              -0.000065159               0.001331646               0.999999984              -0.000058714               0.001365105               0.999999984              -0.000048433               0.001397604               0.999999984              -0.000033638               0.001428727               0.999999984              -0.000013855               0.001458178               0.999999984               0.000011974               0.001485772               0.999999984               0.000044841               0.001511709               0.999999984              -0.000105249               0.001179475               0.999999984              -0.000064806               0.001185701               0.999999984              -0.000046821               0.001189068               0.999999984              -0.000039421               0.001198173               0.999999984              -0.000037408               0.001214188               0.999999984              -0.000037863               0.001236297               0.999999984              -0.000039204               0.001263228               0.999999984              -0.000040365               0.001294023               0.999999984              -0.000040724               0.001327554               0.999999984              -0.000039823               0.001362789               0.999999984              -0.000037368               0.001398926               0.999999984              -0.000032869               0.001435429               0.999999984              -0.000025652               0.001471746               0.999999984              -0.000015032               0.001507251               0.999999984              -0.000000222               0.001541513               0.999999984               0.000019813               0.001574136               0.999999984               0.000046659               0.001604833               0.999999984              -0.000052916               0.001198002               0.999999984              -0.000032167               0.001214397               0.999999984              -0.000022530               0.001223563               0.999999984              -0.000018370               0.001235839               0.999999984              -0.000017023               0.001253431               0.999999984              -0.000017017               0.001276422               0.999999984              -0.000017531               0.001304035               0.999999984              -0.000017982               0.001335400               0.999999984              -0.000018147               0.001369658               0.999999984              -0.000017767               0.001406050               0.999999984              -0.000016573               0.001443812               0.999999984              -0.000014194               0.001482320               0.999999984              -0.000010485               0.001521074               0.999999984              -0.000004996               0.001559623               0.999999984               0.000002960               0.001597388               0.999999984               0.000013923               0.001633833               0.999999984               0.000029065               0.001668305               0.999999984               0.000000000               0.001204202               0.999999984              -0.000000000               0.001224130               0.999999984               0.000000000               0.001235358               0.999999984              -0.000000000               0.001248799               0.999999984               0.000000000               0.001267101               0.999999984              -0.000000000               0.001290479               0.999999984               0.000000000               0.001318333               0.999999984               0.000000000               0.001349978               0.999999984              -0.000000000               0.001384531               0.999999984               0.000000000               0.001421292               0.999999984               0.000000000               0.001459602               0.999999984              -0.000000000               0.001498899               0.999999984              -0.000000000               0.001538569               0.999999984               0.000000000               0.001578215               0.999999984               0.000000000               0.001617300               0.999999984              -0.000000000               0.001655210               0.999999984               0.000000000               0.001691190               0.999999984              -0.000560442               0.000000000               0.999999984              -0.000605945               0.000000000               0.999999984              -0.000626050               0.000000000               0.999999984              -0.000637488               0.000000000               0.999999984              -0.000646544               0.000000000               0.999999984              -0.000655538               0.000000000               0.999999984              -0.000665418               0.000000000               0.999999984              -0.000676581              -0.000000000               0.999999984              -0.000688948               0.000000000               0.999999984              -0.000702210               0.000000000               0.999999984              -0.000716241               0.000000000               0.999999984              -0.000730728               0.000000000               0.999999984              -0.000745482               0.000000000               0.999999984              -0.000760305               0.000000000               0.999999984              -0.000774920              -0.000000000               0.999999984              -0.000788850               0.000000000               0.999999984              -0.000801411              -0.000000000               0.999999984              -0.000557312              -0.000116949               0.999999984              -0.000599632              -0.000096581               0.999999984              -0.000617771              -0.000088196               0.999999984              -0.000627994              -0.000086054               0.999999984              -0.000636277              -0.000087054               0.999999984              -0.000644808              -0.000089725               0.999999984              -0.000654325              -0.000093268               0.999999984              -0.000664958              -0.000097168               0.999999984              -0.000676670              -0.000100963               0.999999984              -0.000689333              -0.000104453               0.999999984              -0.000702668              -0.000107385               0.999999984              -0.000716336              -0.000109477               0.999999984              -0.000730119              -0.000110487               0.999999984              -0.000743699              -0.000110161               0.999999984              -0.000756796              -0.000108046               0.999999984              -0.000769065              -0.000103473               0.999999984              -0.000780106              -0.000095262               0.999999984              -0.000548082              -0.000232701               0.999999984              -0.000581115              -0.000192450               0.999999984              -0.000593701              -0.000176655               0.999999984              -0.000600684              -0.000173165               0.999999984              -0.000606993              -0.000175861               0.999999984              -0.000614138              -0.000181561               0.999999984              -0.000622477              -0.000188817               0.999999984              -0.000631929              -0.000196741               0.999999984              -0.000642337              -0.000204353               0.999999984              -0.000653304              -0.000211431               0.999999984              -0.000664517              -0.000217258               0.999999984              -0.000675651              -0.000221393               0.999999984              -0.000686380              -0.000223609               0.999999984              -0.000696518              -0.000223446               0.999999984              -0.000705908              -0.000220356               0.999999984              -0.000714434              -0.000213461               0.999999984              -0.000722027              -0.000201328               0.999999984              -0.000532811              -0.000346125               0.999999984              -0.000551191              -0.000287085               0.999999984              -0.000555771              -0.000265660               0.999999984              -0.000558434              -0.000262144               0.999999984              -0.000562221              -0.000267414               0.999999984              -0.000567713              -0.000276865               0.999999984              -0.000574768              -0.000288256               0.999999984              -0.000582805              -0.000300130               0.999999984              -0.000591340              -0.000311550               0.999999984              -0.000599897              -0.000321997               0.999999984              -0.000608120              -0.000330832               0.999999984              -0.000615738              -0.000337466               0.999999984              -0.000622592              -0.000341543               0.999999984              -0.000628633              -0.000342711               0.999999984              -0.000633769              -0.000340566               0.999999984              -0.000637979              -0.000334436               0.999999984              -0.000641425              -0.000323703               0.999999984              -0.000511727              -0.000456082               0.999999984              -0.000511427              -0.000380230               0.999999984              -0.000507152              -0.000355305               0.999999984              -0.000505615              -0.000353280               0.999999984              -0.000507409              -0.000362124               0.999999984              -0.000511696              -0.000375836               0.999999984              -0.000517435              -0.000391592               0.999999984              -0.000523983              -0.000407595               0.999999984              -0.000530592              -0.000422826               0.999999984              -0.000536745              -0.000436604               0.999999984              -0.000541994              -0.000448299               0.999999984              -0.000546163              -0.000457371               0.999999984              -0.000549168              -0.000463784               0.999999984              -0.000551056              -0.000467272               0.999999984              -0.000551789              -0.000467457               0.999999984              -0.000551457              -0.000464194               0.999999984              -0.000550226              -0.000457312               0.999999984              -0.000485339              -0.000561441               0.999999984              -0.000463959              -0.000471800               0.999999984              -0.000451529              -0.000445595               0.999999984              -0.000447147              -0.000446309               0.999999984              -0.000447997              -0.000459255               0.999999984              -0.000451687              -0.000477451               0.999999984              -0.000456856              -0.000497594               0.999999984              -0.000462286              -0.000517684               0.999999984              -0.000467002              -0.000536549               0.999999984              -0.000470583              -0.000553540               0.999999984              -0.000472594              -0.000567874               0.999999984              -0.000473027              -0.000579385               0.999999984              -0.000471873              -0.000588239               0.999999984              -0.000469167              -0.000594251               0.999999984              -0.000464999              -0.000597321               0.999999984              -0.000459475              -0.000597418               0.999999984              -0.000452706              -0.000594851               0.999999984              -0.000454124              -0.000661193               0.999999984              -0.000411266              -0.000561725               0.999999984              -0.000392792              -0.000536159               0.999999984              -0.000387487              -0.000540267               0.999999984              -0.000388781              -0.000557394               0.999999984              -0.000393016              -0.000579929               0.999999984              -0.000397950              -0.000604327               0.999999984              -0.000402091              -0.000628227               0.999999984              -0.000404742              -0.000650223               0.999999984              -0.000405409              -0.000669778               0.999999984              -0.000403911              -0.000686389               0.999999984              -0.000400168              -0.000699990               0.999999984              -0.000394295              -0.000710925               0.999999984              -0.000386393              -0.000719298               0.999999984              -0.000376594              -0.000725134               0.999999984              -0.000365166              -0.000728401               0.999999984              -0.000352401              -0.000729521               0.999999984              -0.000418774              -0.000754284               0.999999984              -0.000356070              -0.000649704               0.999999984              -0.000334402              -0.000626114               0.999999984              -0.000330336              -0.000633671               0.999999984              -0.000333342              -0.000654801               0.999999984              -0.000338443              -0.000681541               0.999999984              -0.000343059              -0.000709718               0.999999984              -0.000345833              -0.000736646               0.999999984              -0.000345988              -0.000761130               0.999999984              -0.000343282              -0.000782655               0.999999984              -0.000337550              -0.000800975               0.999999984              -0.000328819              -0.000816221               0.999999984              -0.000317279              -0.000828956               0.999999984              -0.000303214              -0.000839427               0.999999984              -0.000287067              -0.000847743               0.999999984              -0.000269174              -0.000854054               0.999999984              -0.000250040              -0.000858596               0.999999984              -0.000380659              -0.000839059               0.999999984              -0.000300352              -0.000735592               0.999999984              -0.000279488              -0.000714164               0.999999984              -0.000278194              -0.000724857               0.999999984              -0.000283427              -0.000749891               0.999999984              -0.000289330              -0.000780313               0.999999984              -0.000293291              -0.000811626               0.999999984              -0.000294057              -0.000841163               0.999999984              -0.000291152              -0.000867523               0.999999984              -0.000284176              -0.000890443               0.999999984              -0.000273180              -0.000909944               0.999999984              -0.000258316              -0.000926426               0.999999984              -0.000240175              -0.000940591               0.999999984              -0.000219327              -0.000952924               0.999999984              -0.000196464              -0.000963637               0.999999984              -0.000172501              -0.000972885               0.999999984              -0.000148123              -0.000980984               0.999999984              -0.000341675              -0.000918751               0.999999984              -0.000254450              -0.000829447               0.999999984              -0.000230571              -0.000803350               0.999999984              -0.000227919              -0.000808144               0.999999984              -0.000232698              -0.000828378               0.999999984              -0.000238798              -0.000855712               0.999999984              -0.000243376              -0.000885646               0.999999984              -0.000245307              -0.000915279               0.999999984              -0.000243845              -0.000943113               0.999999984              -0.000238388              -0.000968223               0.999999984              -0.000228849              -0.000990487               0.999999984              -0.000215323              -0.001009921               0.999999984              -0.000198087              -0.001026997               0.999999984              -0.000177798              -0.001042332               0.999999984              -0.000154854              -0.001056267               0.999999984              -0.000130478              -0.001069134               0.999999984              -0.000105973              -0.001081033               0.999999984              -0.000299092              -0.000990874               0.999999984              -0.000211485              -0.000919548               0.999999984              -0.000184653              -0.000894151               0.999999984              -0.000179824              -0.000895183               0.999999984              -0.000183275              -0.000911520               0.999999984              -0.000188933              -0.000935989               0.999999984              -0.000193772              -0.000964459               0.999999984              -0.000196473              -0.000994002               0.999999984              -0.000196131              -0.001023074               0.999999984              -0.000192174              -0.001050349               0.999999984              -0.000184201              -0.001075320               0.999999984              -0.000172140              -0.001097848               0.999999984              -0.000155956              -0.001118052               0.999999984              -0.000136087              -0.001136252               0.999999984              -0.000112892              -0.001152920               0.999999984              -0.000087231              -0.001168549               0.999999984              -0.000060425              -0.001183653               0.999999984              -0.000253785              -0.001053897               0.999999984              -0.000171287              -0.001003370               0.999999984              -0.000142981              -0.000982539               0.999999984              -0.000135883              -0.000982701               0.999999984              -0.000137383              -0.000996612               0.999999984              -0.000141865              -0.001019063               0.999999984              -0.000146456              -0.001046214               0.999999984              -0.000149467              -0.001075632               0.999999984              -0.000149819              -0.001105744               0.999999984              -0.000147037              -0.001135233               0.999999984              -0.000140619              -0.001163207               0.999999984              -0.000130241              -0.001189144               0.999999984              -0.000115573              -0.001212980               0.999999984              -0.000096450              -0.001234701               0.999999984              -0.000072988              -0.001254696               0.999999984              -0.000045645              -0.001273363               0.999999984              -0.000015278              -0.001291332               0.999999984              -0.000206125              -0.001106840               0.999999984              -0.000133773              -0.001077669               0.999999984              -0.000106188              -0.001064231               0.999999984              -0.000097485              -0.001066096               0.999999984              -0.000097071              -0.001079295               0.999999984              -0.000100040              -0.001100640               0.999999984              -0.000103734              -0.001127230               0.999999984              -0.000106493              -0.001156784               0.999999984              -0.000107103              -0.001187915               0.999999984              -0.000105159              -0.001219463               0.999999984              -0.000100237              -0.001250481               0.999999984              -0.000091777              -0.001280209               0.999999984              -0.000079032              -0.001308291               0.999999984              -0.000061469              -0.001334487               0.999999984              -0.000038846              -0.001358833               0.999999984              -0.000010843              -0.001381470               0.999999984               0.000022493              -0.001402914               0.999999984              -0.000156478              -0.001148918               0.999999984              -0.000098469              -0.001139401               0.999999984              -0.000074318              -0.001134636               0.999999984              -0.000065365              -0.001139882               0.999999984              -0.000063672              -0.001154101               0.999999984              -0.000065147              -0.001175297               0.999999984              -0.000067669              -0.001201774               0.999999984              -0.000069733              -0.001231960               0.999999984              -0.000070251              -0.001264308               0.999999984              -0.000068840              -0.001297795               0.999999984              -0.000065159              -0.001331646               0.999999984              -0.000058714              -0.001365105               0.999999984              -0.000048433              -0.001397604               0.999999984              -0.000033638              -0.001428727               0.999999984              -0.000013855              -0.001458178               0.999999984               0.000011974              -0.001485772               0.999999984               0.000044841              -0.001511709               0.999999984              -0.000105249              -0.001179475               0.999999984              -0.000064806              -0.001185701               0.999999984              -0.000046821              -0.001189068               0.999999984              -0.000039421              -0.001198173               0.999999984              -0.000037408              -0.001214188               0.999999984              -0.000037863              -0.001236297               0.999999984              -0.000039204              -0.001263228               0.999999984              -0.000040365              -0.001294023               0.999999984              -0.000040724              -0.001327554               0.999999984              -0.000039823              -0.001362789               0.999999984              -0.000037368              -0.001398926               0.999999984              -0.000032869              -0.001435429               0.999999984              -0.000025652              -0.001471746               0.999999984              -0.000015032              -0.001507251               0.999999984              -0.000000222              -0.001541513               0.999999984               0.000019813              -0.001574136               0.999999984               0.000046659              -0.001604833               0.999999984              -0.000052916              -0.001198002               0.999999984              -0.000032167              -0.001214397               0.999999984              -0.000022530              -0.001223563               0.999999984              -0.000018370              -0.001235839               0.999999984              -0.000017023              -0.001253431               0.999999984              -0.000017017              -0.001276422               0.999999984              -0.000017531              -0.001304035               0.999999984              -0.000017982              -0.001335400               0.999999984              -0.000018147              -0.001369658               0.999999984              -0.000017767              -0.001406050               0.999999984              -0.000016573              -0.001443812               0.999999984              -0.000014194              -0.001482320               0.999999984              -0.000010485              -0.001521074               0.999999984              -0.000004996              -0.001559623               0.999999984               0.000002960              -0.001597388               0.999999984               0.000013923              -0.001633833               0.999999984               0.000029065              -0.001668305               0.999999984              -0.000000000              -0.001204202               0.999999984               0.000000000              -0.001224130               0.999999984              -0.000000000              -0.001235358               0.999999984               0.000000000              -0.001248799               0.999999984               0.000000000              -0.001267101               0.999999984              -0.000000000              -0.001290479               0.999999984              -0.000000000              -0.001318333               0.999999984               0.000000000              -0.001349978               0.999999984               0.000000000              -0.001384531               0.999999984               0.000000000              -0.001421292               0.999999984              -0.000000000              -0.001459602               0.999999984              -0.000000000              -0.001498899               0.999999984               0.000000000              -0.001538569               0.999999984              -0.000000000              -0.001578215               0.999999984              -0.000000000              -0.001617300               0.999999984              -0.000000000              -0.001655210               0.999999984              -0.000000000              -0.001691190               0.999999984               0.000560442               0.000000000               0.999999984               0.000605945              -0.000000000               0.999999984               0.000626050               0.000000000               0.999999984               0.000637488              -0.000000000               0.999999984               0.000646544               0.000000000               0.999999984               0.000655538               0.000000000               0.999999984               0.000665418               0.000000000               0.999999984               0.000676581               0.000000000               0.999999984               0.000688948               0.000000000               0.999999984               0.000702210               0.000000000               0.999999984               0.000716241               0.000000000               0.999999984               0.000730728               0.000000000               0.999999984               0.000745482              -0.000000000               0.999999984               0.000760305              -0.000000000               0.999999984               0.000774920              -0.000000000               0.999999984               0.000788850               0.000000000               0.999999984               0.000801411               0.000000000               0.999999984               0.000557312              -0.000116949               0.999999984               0.000599632              -0.000096581               0.999999984               0.000617771              -0.000088196               0.999999984               0.000627994              -0.000086054               0.999999984               0.000636277              -0.000087054               0.999999984               0.000644808              -0.000089725               0.999999984               0.000654325              -0.000093268               0.999999984               0.000664958              -0.000097168               0.999999984               0.000676670              -0.000100963               0.999999984               0.000689333              -0.000104453               0.999999984               0.000702668              -0.000107385               0.999999984               0.000716336              -0.000109477               0.999999984               0.000730119              -0.000110487               0.999999984               0.000743699              -0.000110161               0.999999984               0.000756796              -0.000108046               0.999999984               0.000769065              -0.000103473               0.999999984               0.000780106              -0.000095262               0.999999984               0.000548082              -0.000232701               0.999999984               0.000581115              -0.000192450               0.999999984               0.000593701              -0.000176655               0.999999984               0.000600684              -0.000173165               0.999999984               0.000606993              -0.000175861               0.999999984               0.000614138              -0.000181561               0.999999984               0.000622477              -0.000188817               0.999999984               0.000631929              -0.000196741               0.999999984               0.000642337              -0.000204353               0.999999984               0.000653304              -0.000211431               0.999999984               0.000664517              -0.000217258               0.999999984               0.000675651              -0.000221393               0.999999984               0.000686380              -0.000223609               0.999999984               0.000696518              -0.000223446               0.999999984               0.000705908              -0.000220356               0.999999984               0.000714434              -0.000213461               0.999999984               0.000722027              -0.000201328               0.999999984               0.000532811              -0.000346125               0.999999984               0.000551191              -0.000287085               0.999999984               0.000555771              -0.000265660               0.999999984               0.000558434              -0.000262144               0.999999984               0.000562221              -0.000267414               0.999999984               0.000567713              -0.000276865               0.999999984               0.000574768              -0.000288256               0.999999984               0.000582805              -0.000300130               0.999999984               0.000591340              -0.000311550               0.999999984               0.000599897              -0.000321997               0.999999984               0.000608120              -0.000330832               0.999999984               0.000615738              -0.000337466               0.999999984               0.000622592              -0.000341543               0.999999984               0.000628633              -0.000342711               0.999999984               0.000633769              -0.000340566               0.999999984               0.000637979              -0.000334436               0.999999984               0.000641425              -0.000323703               0.999999984               0.000511727              -0.000456082               0.999999984               0.000511427              -0.000380230               0.999999984               0.000507152              -0.000355305               0.999999984               0.000505615              -0.000353280               0.999999984               0.000507409              -0.000362124               0.999999984               0.000511696              -0.000375836               0.999999984               0.000517435              -0.000391592               0.999999984               0.000523983              -0.000407595               0.999999984               0.000530592              -0.000422826               0.999999984               0.000536745              -0.000436604               0.999999984               0.000541994              -0.000448299               0.999999984               0.000546163              -0.000457371               0.999999984               0.000549168              -0.000463784               0.999999984               0.000551056              -0.000467272               0.999999984               0.000551789              -0.000467457               0.999999984               0.000551457              -0.000464194               0.999999984               0.000550226              -0.000457312               0.999999984               0.000485339              -0.000561441               0.999999984               0.000463959              -0.000471800               0.999999984               0.000451529              -0.000445595               0.999999984               0.000447147              -0.000446309               0.999999984               0.000447997              -0.000459255               0.999999984               0.000451687              -0.000477451               0.999999984               0.000456856              -0.000497594               0.999999984               0.000462286              -0.000517684               0.999999984               0.000467002              -0.000536549               0.999999984               0.000470583              -0.000553540               0.999999984               0.000472594              -0.000567874               0.999999984               0.000473027              -0.000579385               0.999999984               0.000471873              -0.000588239               0.999999984               0.000469167              -0.000594251               0.999999984               0.000464999              -0.000597321               0.999999984               0.000459475              -0.000597418               0.999999984               0.000452706              -0.000594851               0.999999984               0.000454124              -0.000661193               0.999999984               0.000411266              -0.000561725               0.999999984               0.000392792              -0.000536159               0.999999984               0.000387487              -0.000540267               0.999999984               0.000388781              -0.000557394               0.999999984               0.000393016              -0.000579929               0.999999984               0.000397950              -0.000604327               0.999999984               0.000402091              -0.000628227               0.999999984               0.000404742              -0.000650223               0.999999984               0.000405409              -0.000669778               0.999999984               0.000403911              -0.000686389               0.999999984               0.000400168              -0.000699990               0.999999984               0.000394295              -0.000710925               0.999999984               0.000386393              -0.000719298               0.999999984               0.000376594              -0.000725134               0.999999984               0.000365166              -0.000728401               0.999999984               0.000352401              -0.000729521               0.999999984               0.000418774              -0.000754284               0.999999984               0.000356070              -0.000649704               0.999999984               0.000334402              -0.000626114               0.999999984               0.000330336              -0.000633671               0.999999984               0.000333342              -0.000654801               0.999999984               0.000338443              -0.000681541               0.999999984               0.000343059              -0.000709718               0.999999984               0.000345833              -0.000736646               0.999999984               0.000345988              -0.000761130               0.999999984               0.000343282              -0.000782655               0.999999984               0.000337550              -0.000800975               0.999999984               0.000328819              -0.000816221               0.999999984               0.000317279              -0.000828956               0.999999984               0.000303214              -0.000839427               0.999999984               0.000287067              -0.000847743               0.999999984               0.000269174              -0.000854054               0.999999984               0.000250040              -0.000858596               0.999999984               0.000380659              -0.000839059               0.999999984               0.000300352              -0.000735592               0.999999984               0.000279488              -0.000714164               0.999999984               0.000278194              -0.000724857               0.999999984               0.000283427              -0.000749891               0.999999984               0.000289330              -0.000780313               0.999999984               0.000293291              -0.000811626               0.999999984               0.000294057              -0.000841163               0.999999984               0.000291152              -0.000867523               0.999999984               0.000284176              -0.000890443               0.999999984               0.000273180              -0.000909944               0.999999984               0.000258316              -0.000926426               0.999999984               0.000240175              -0.000940591               0.999999984               0.000219327              -0.000952924               0.999999984               0.000196464              -0.000963637               0.999999984               0.000172501              -0.000972885               0.999999984               0.000148123              -0.000980984               0.999999984               0.000341675              -0.000918751               0.999999984               0.000254450              -0.000829447               0.999999984               0.000230571              -0.000803350               0.999999984               0.000227919              -0.000808144               0.999999984               0.000232698              -0.000828378               0.999999984               0.000238798              -0.000855712               0.999999984               0.000243376              -0.000885646               0.999999984               0.000245307              -0.000915279               0.999999984               0.000243845              -0.000943113               0.999999984               0.000238388              -0.000968223               0.999999984               0.000228849              -0.000990487               0.999999984               0.000215323              -0.001009921               0.999999984               0.000198087              -0.001026997               0.999999984               0.000177798              -0.001042332               0.999999984               0.000154854              -0.001056267               0.999999984               0.000130478              -0.001069134               0.999999984               0.000105973              -0.001081033               0.999999984               0.000299092              -0.000990874               0.999999984               0.000211485              -0.000919548               0.999999984               0.000184653              -0.000894151               0.999999984               0.000179824              -0.000895183               0.999999984               0.000183275              -0.000911520               0.999999984               0.000188933              -0.000935989               0.999999984               0.000193772              -0.000964459               0.999999984               0.000196473              -0.000994002               0.999999984               0.000196131              -0.001023074               0.999999984               0.000192174              -0.001050349               0.999999984               0.000184201              -0.001075320               0.999999984               0.000172140              -0.001097848               0.999999984               0.000155956              -0.001118052               0.999999984               0.000136087              -0.001136252               0.999999984               0.000112892              -0.001152920               0.999999984               0.000087231              -0.001168549               0.999999984               0.000060425              -0.001183653               0.999999984               0.000253785              -0.001053897               0.999999984               0.000171287              -0.001003370               0.999999984               0.000142981              -0.000982539               0.999999984               0.000135883              -0.000982701               0.999999984               0.000137383              -0.000996612               0.999999984               0.000141865              -0.001019063               0.999999984               0.000146456              -0.001046214               0.999999984               0.000149467              -0.001075632               0.999999984               0.000149819              -0.001105744               0.999999984               0.000147037              -0.001135233               0.999999984               0.000140619              -0.001163207               0.999999984               0.000130241              -0.001189144               0.999999984               0.000115573              -0.001212980               0.999999984               0.000096450              -0.001234701               0.999999984               0.000072988              -0.001254696               0.999999984               0.000045645              -0.001273363               0.999999984               0.000015278              -0.001291332               0.999999984               0.000206125              -0.001106840               0.999999984               0.000133773              -0.001077669               0.999999984               0.000106188              -0.001064231               0.999999984               0.000097485              -0.001066096               0.999999984               0.000097071              -0.001079295               0.999999984               0.000100040              -0.001100640               0.999999984               0.000103734              -0.001127230               0.999999984               0.000106493              -0.001156784               0.999999984               0.000107103              -0.001187915               0.999999984               0.000105159              -0.001219463               0.999999984               0.000100237              -0.001250481               0.999999984               0.000091777              -0.001280209               0.999999984               0.000079032              -0.001308291               0.999999984               0.000061469              -0.001334487               0.999999984               0.000038846              -0.001358833               0.999999984               0.000010843              -0.001381470               0.999999984              -0.000022493              -0.001402914               0.999999984               0.000156478              -0.001148918               0.999999984               0.000098469              -0.001139401               0.999999984               0.000074318              -0.001134636               0.999999984               0.000065365              -0.001139882               0.999999984               0.000063672              -0.001154101               0.999999984               0.000065147              -0.001175297               0.999999984               0.000067669              -0.001201774               0.999999984               0.000069733              -0.001231960               0.999999984               0.000070251              -0.001264308               0.999999984               0.000068840              -0.001297795               0.999999984               0.000065159              -0.001331646               0.999999984               0.000058714              -0.001365105               0.999999984               0.000048433              -0.001397604               0.999999984               0.000033638              -0.001428727               0.999999984               0.000013855              -0.001458178               0.999999984              -0.000011974              -0.001485772               0.999999984              -0.000044841              -0.001511709               0.999999984               0.000105249              -0.001179475               0.999999984               0.000064806              -0.001185701               0.999999984               0.000046821              -0.001189068               0.999999984               0.000039421              -0.001198173               0.999999984               0.000037408              -0.001214188               0.999999984               0.000037863              -0.001236297               0.999999984               0.000039204              -0.001263228               0.999999984               0.000040365              -0.001294023               0.999999984               0.000040724              -0.001327554               0.999999984               0.000039823              -0.001362789               0.999999984               0.000037368              -0.001398926               0.999999984               0.000032869              -0.001435429               0.999999984               0.000025652              -0.001471746               0.999999984               0.000015032              -0.001507251               0.999999984               0.000000222              -0.001541513               0.999999984              -0.000019813              -0.001574136               0.999999984              -0.000046659              -0.001604833               0.999999984               0.000052916              -0.001198002               0.999999984               0.000032167              -0.001214397               0.999999984               0.000022530              -0.001223563               0.999999984               0.000018370              -0.001235839               0.999999984               0.000017023              -0.001253431               0.999999984               0.000017017              -0.001276422               0.999999984               0.000017531              -0.001304035               0.999999984               0.000017982              -0.001335400               0.999999984               0.000018147              -0.001369658               0.999999984               0.000017767              -0.001406050               0.999999984               0.000016573              -0.001443812               0.999999984               0.000014194              -0.001482320               0.999999984               0.000010485              -0.001521074               0.999999984               0.000004996              -0.001559623               0.999999984              -0.000002960              -0.001597388               0.999999984              -0.000013923              -0.001633833               0.999999984              -0.000029065              -0.001668305               0.999999984              -0.000000000              -0.001204202               0.999999984               0.000000000              -0.001224130               0.999999984              -0.000000000              -0.001235358               0.999999984               0.000000000              -0.001248799               0.999999984               0.000000000              -0.001267101               0.999999984              -0.000000000              -0.001290479               0.999999984              -0.000000000              -0.001318333               0.999999984               0.000000000              -0.001349978               0.999999984               0.000000000              -0.001384531               0.999999984               0.000000000              -0.001421292               0.999999984              -0.000000000              -0.001459602               0.999999984              -0.000000000              -0.001498899               0.999999984               0.000000000              -0.001538569               0.999999984              -0.000000000              -0.001578215               0.999999984              -0.000000000              -0.001617300               0.999999984              -0.000000000              -0.001655210               0.999999984              -0.000000000              -0.001691190               0.999999984               0.000560442               0.000000000               0.999999984               0.000605945              -0.000000000               0.999999984               0.000626050               0.000000000               0.999999984               0.000637488              -0.000000000               0.999999984               0.000646544               0.000000000               0.999999984               0.000655538               0.000000000               0.999999984               0.000665418               0.000000000               0.999999984               0.000676581               0.000000000               0.999999984               0.000688948               0.000000000               0.999999984               0.000702210               0.000000000               0.999999984               0.000716241               0.000000000               0.999999984               0.000730728               0.000000000               0.999999984               0.000745482              -0.000000000               0.999999984               0.000760305              -0.000000000               0.999999984               0.000774920              -0.000000000               0.999999984               0.000788850               0.000000000               0.999999984               0.000801411               0.000000000               0.999999984               0.000557312               0.000116949               0.999999984               0.000599632               0.000096581               0.999999984               0.000617771               0.000088196               0.999999984               0.000627994               0.000086054               0.999999984               0.000636277               0.000087054               0.999999984               0.000644808               0.000089725               0.999999984               0.000654325               0.000093268               0.999999984               0.000664958               0.000097168               0.999999984               0.000676670               0.000100963               0.999999984               0.000689333               0.000104453               0.999999984               0.000702668               0.000107385               0.999999984               0.000716336               0.000109477               0.999999984               0.000730119               0.000110487               0.999999984               0.000743699               0.000110161               0.999999984               0.000756796               0.000108046               0.999999984               0.000769065               0.000103473               0.999999984               0.000780106               0.000095262               0.999999984               0.000548082               0.000232701               0.999999984               0.000581115               0.000192450               0.999999984               0.000593701               0.000176655               0.999999984               0.000600684               0.000173165               0.999999984               0.000606993               0.000175861               0.999999984               0.000614138               0.000181561               0.999999984               0.000622477               0.000188817               0.999999984               0.000631929               0.000196741               0.999999984               0.000642337               0.000204353               0.999999984               0.000653304               0.000211431               0.999999984               0.000664517               0.000217258               0.999999984               0.000675651               0.000221393               0.999999984               0.000686380               0.000223609               0.999999984               0.000696518               0.000223446               0.999999984               0.000705908               0.000220356               0.999999984               0.000714434               0.000213461               0.999999984               0.000722027               0.000201328               0.999999984               0.000532811               0.000346125               0.999999984               0.000551191               0.000287085               0.999999984               0.000555771               0.000265660               0.999999984               0.000558434               0.000262144               0.999999984               0.000562221               0.000267414               0.999999984               0.000567713               0.000276865               0.999999984               0.000574768               0.000288256               0.999999984               0.000582805               0.000300130               0.999999984               0.000591340               0.000311550               0.999999984               0.000599897               0.000321997               0.999999984               0.000608120               0.000330832               0.999999984               0.000615738               0.000337466               0.999999984               0.000622592               0.000341543               0.999999984               0.000628633               0.000342711               0.999999984               0.000633769               0.000340566               0.999999984               0.000637979               0.000334436               0.999999984               0.000641425               0.000323703               0.999999984               0.000511727               0.000456082               0.999999984               0.000511427               0.000380230               0.999999984               0.000507152               0.000355305               0.999999984               0.000505615               0.000353280               0.999999984               0.000507409               0.000362124               0.999999984               0.000511696               0.000375836               0.999999984               0.000517435               0.000391592               0.999999984               0.000523983               0.000407595               0.999999984               0.000530592               0.000422826               0.999999984               0.000536745               0.000436604               0.999999984               0.000541994               0.000448299               0.999999984               0.000546163               0.000457371               0.999999984               0.000549168               0.000463784               0.999999984               0.000551056               0.000467272               0.999999984               0.000551789               0.000467457               0.999999984               0.000551457               0.000464194               0.999999984               0.000550226               0.000457312               0.999999984               0.000485339               0.000561441               0.999999984               0.000463959               0.000471800               0.999999984               0.000451529               0.000445595               0.999999984               0.000447147               0.000446309               0.999999984               0.000447997               0.000459255               0.999999984               0.000451687               0.000477451               0.999999984               0.000456856               0.000497594               0.999999984               0.000462286               0.000517684               0.999999984               0.000467002               0.000536549               0.999999984               0.000470583               0.000553540               0.999999984               0.000472594               0.000567874               0.999999984               0.000473027               0.000579385               0.999999984               0.000471873               0.000588239               0.999999984               0.000469167               0.000594251               0.999999984               0.000464999               0.000597321               0.999999984               0.000459475               0.000597418               0.999999984               0.000452706               0.000594851               0.999999984               0.000454124               0.000661193               0.999999984               0.000411266               0.000561725               0.999999984               0.000392792               0.000536159               0.999999984               0.000387487               0.000540267               0.999999984               0.000388781               0.000557394               0.999999984               0.000393016               0.000579929               0.999999984               0.000397950               0.000604327               0.999999984               0.000402091               0.000628227               0.999999984               0.000404742               0.000650223               0.999999984               0.000405409               0.000669778               0.999999984               0.000403911               0.000686389               0.999999984               0.000400168               0.000699990               0.999999984               0.000394295               0.000710925               0.999999984               0.000386393               0.000719298               0.999999984               0.000376594               0.000725134               0.999999984               0.000365166               0.000728401               0.999999984               0.000352401               0.000729521               0.999999984               0.000418774               0.000754284               0.999999984               0.000356070               0.000649704               0.999999984               0.000334402               0.000626114               0.999999984               0.000330336               0.000633671               0.999999984               0.000333342               0.000654801               0.999999984               0.000338443               0.000681541               0.999999984               0.000343059               0.000709718               0.999999984               0.000345833               0.000736646               0.999999984               0.000345988               0.000761130               0.999999984               0.000343282               0.000782655               0.999999984               0.000337550               0.000800975               0.999999984               0.000328819               0.000816221               0.999999984               0.000317279               0.000828956               0.999999984               0.000303214               0.000839427               0.999999984               0.000287067               0.000847743               0.999999984               0.000269174               0.000854054               0.999999984               0.000250040               0.000858596               0.999999984               0.000380659               0.000839059               0.999999984               0.000300352               0.000735592               0.999999984               0.000279488               0.000714164               0.999999984               0.000278194               0.000724857               0.999999984               0.000283427               0.000749891               0.999999984               0.000289330               0.000780313               0.999999984               0.000293291               0.000811626               0.999999984               0.000294057               0.000841163               0.999999984               0.000291152               0.000867523               0.999999984               0.000284176               0.000890443               0.999999984               0.000273180               0.000909944               0.999999984               0.000258316               0.000926426               0.999999984               0.000240175               0.000940591               0.999999984               0.000219327               0.000952924               0.999999984               0.000196464               0.000963637               0.999999984               0.000172501               0.000972885               0.999999984               0.000148123               0.000980984               0.999999984               0.000341675               0.000918751               0.999999984               0.000254450               0.000829447               0.999999984               0.000230571               0.000803350               0.999999984               0.000227919               0.000808144               0.999999984               0.000232698               0.000828378               0.999999984               0.000238798               0.000855712               0.999999984               0.000243376               0.000885646               0.999999984               0.000245307               0.000915279               0.999999984               0.000243845               0.000943113               0.999999984               0.000238388               0.000968223               0.999999984               0.000228849               0.000990487               0.999999984               0.000215323               0.001009921               0.999999984               0.000198087               0.001026997               0.999999984               0.000177798               0.001042332               0.999999984               0.000154854               0.001056267               0.999999984               0.000130478               0.001069134               0.999999984               0.000105973               0.001081033               0.999999984               0.000299092               0.000990874               0.999999984               0.000211485               0.000919548               0.999999984               0.000184653               0.000894151               0.999999984               0.000179824               0.000895183               0.999999984               0.000183275               0.000911520               0.999999984               0.000188933               0.000935989               0.999999984               0.000193772               0.000964459               0.999999984               0.000196473               0.000994002               0.999999984               0.000196131               0.001023074               0.999999984               0.000192174               0.001050349               0.999999984               0.000184201               0.001075320               0.999999984               0.000172140               0.001097848               0.999999984               0.000155956               0.001118052               0.999999984               0.000136087               0.001136252               0.999999984               0.000112892               0.001152920               0.999999984               0.000087231               0.001168549               0.999999984               0.000060425               0.001183653               0.999999984               0.000253785               0.001053897               0.999999984               0.000171287               0.001003370               0.999999984               0.000142981               0.000982539               0.999999984               0.000135883               0.000982701               0.999999984               0.000137383               0.000996612               0.999999984               0.000141865               0.001019063               0.999999984               0.000146456               0.001046214               0.999999984               0.000149467               0.001075632               0.999999984               0.000149819               0.001105744               0.999999984               0.000147037               0.001135233               0.999999984               0.000140619               0.001163207               0.999999984               0.000130241               0.001189144               0.999999984               0.000115573               0.001212980               0.999999984               0.000096450               0.001234701               0.999999984               0.000072988               0.001254696               0.999999984               0.000045645               0.001273363               0.999999984               0.000015278               0.001291332               0.999999984               0.000206125               0.001106840               0.999999984               0.000133773               0.001077669               0.999999984               0.000106188               0.001064231               0.999999984               0.000097485               0.001066096               0.999999984               0.000097071               0.001079295               0.999999984               0.000100040               0.001100640               0.999999984               0.000103734               0.001127230               0.999999984               0.000106493               0.001156784               0.999999984               0.000107103               0.001187915               0.999999984               0.000105159               0.001219463               0.999999984               0.000100237               0.001250481               0.999999984               0.000091777               0.001280209               0.999999984               0.000079032               0.001308291               0.999999984               0.000061469               0.001334487               0.999999984               0.000038846               0.001358833               0.999999984               0.000010843               0.001381470               0.999999984              -0.000022493               0.001402914               0.999999984               0.000156478               0.001148918               0.999999984               0.000098469               0.001139401               0.999999984               0.000074318               0.001134636               0.999999984               0.000065365               0.001139882               0.999999984               0.000063672               0.001154101               0.999999984               0.000065147               0.001175297               0.999999984               0.000067669               0.001201774               0.999999984               0.000069733               0.001231960               0.999999984               0.000070251               0.001264308               0.999999984               0.000068840               0.001297795               0.999999984               0.000065159               0.001331646               0.999999984               0.000058714               0.001365105               0.999999984               0.000048433               0.001397604               0.999999984               0.000033638               0.001428727               0.999999984               0.000013855               0.001458178               0.999999984              -0.000011974               0.001485772               0.999999984              -0.000044841               0.001511709               0.999999984               0.000105249               0.001179475               0.999999984               0.000064806               0.001185701               0.999999984               0.000046821               0.001189068               0.999999984               0.000039421               0.001198173               0.999999984               0.000037408               0.001214188               0.999999984               0.000037863               0.001236297               0.999999984               0.000039204               0.001263228               0.999999984               0.000040365               0.001294023               0.999999984               0.000040724               0.001327554               0.999999984               0.000039823               0.001362789               0.999999984               0.000037368               0.001398926               0.999999984               0.000032869               0.001435429               0.999999984               0.000025652               0.001471746               0.999999984               0.000015032               0.001507251               0.999999984               0.000000222               0.001541513               0.999999984              -0.000019813               0.001574136               0.999999984              -0.000046659               0.001604833               0.999999984               0.000052916               0.001198002               0.999999984               0.000032167               0.001214397               0.999999984               0.000022530               0.001223563               0.999999984               0.000018370               0.001235839               0.999999984               0.000017023               0.001253431               0.999999984               0.000017017               0.001276422               0.999999984               0.000017531               0.001304035               0.999999984               0.000017982               0.001335400               0.999999984               0.000018147               0.001369658               0.999999984               0.000017767               0.001406050               0.999999984               0.000016573               0.001443812               0.999999984               0.000014194               0.001482320               0.999999984               0.000010485               0.001521074               0.999999984               0.000004996               0.001559623               0.999999984              -0.000002960               0.001597388               0.999999984              -0.000013923               0.001633833               0.999999984              -0.000029065               0.001668305               0.999999984               0.000000000               0.001204202               0.999999984              -0.000000000               0.001224130               0.999999984               0.000000000               0.001235358               0.999999984              -0.000000000               0.001248799               0.999999984               0.000000000               0.001267101               0.999999984              -0.000000000               0.001290479               0.999999984               0.000000000               0.001318333               0.999999984               0.000000000               0.001349978               0.999999984              -0.000000000               0.001384531               0.999999984               0.000000000               0.001421292               0.999999984               0.000000000               0.001459602               0.999999984              -0.000000000               0.001498899               0.999999984              -0.000000000               0.001538569               0.999999984               0.000000000               0.001578215               0.999999984               0.000000000               0.001617300               0.999999984              -0.000000000               0.001655210               0.999999984               0.000000000               0.001691190               0.999999984 </DataArray>
<DataArray type="Float64"                                    Name="stress"                                                      NumberOfComponents="10" format="ascii">
              0.001964866               0.021461573               0.000000000              -0.001945867               0.007802409               0.005856541               0.000000000               0.000000000               0.000000000               0.000000000               0.001978790               0.016911239               0.000000000              -0.001371855               0.006094308               0.004722453               0.000000000               0.000000000               0.000000000               0.000000000               0.002617527               0.013231997               0.000000000              -0.000672425               0.004634763               0.003962338               0.000000000               0.000000000               0.000000000               0.000000000               0.002531486               0.011180682              -0.000000000              -0.000448277               0.003876282               0.003428005               0.000000000               0.000000000               0.000000000               0.000000000               0.002229600               0.009904825              -0.000000000              -0.000402002               0.003435576               0.003033574               0.000000000               0.000000000               0.000000000               0.000000000               0.001885109               0.009035257              -0.000000000              -0.000422490               0.003152552               0.002730062               0.000000000               0.000000000               0.000000000               0.000000000               0.001548693               0.008393087              -0.000000000              -0.000468375               0.002953793               0.002485418               0.000000000               0.000000000               0.000000000               0.000000000               0.001242075               0.007883129              -0.000000000              -0.000519612               0.002800887               0.002281276               0.000000000               0.000000000               0.000000000               0.000000000               0.000978882               0.007449895               0.000000000              -0.000564155               0.002671325               0.002107170               0.000000000               0.000000000               0.000000000               0.000000000               0.000754948               0.007061436               0.000000000              -0.000599572               0.002553646               0.001954074               0.000000000               0.000000000               0.000000000               0.000000000               0.000567036               0.006694932               0.000000000              -0.000624227               0.002439697               0.001815471               0.000000000               0.000000000               0.000000000               0.000000000               0.000409721               0.006331325              -0.000000000              -0.000637769               0.002323010               0.001685241               0.000000000               0.000000000               0.000000000               0.000000000               0.000273193               0.005955377              -0.000000000              -0.000641973               0.002199097               0.001557124               0.000000000               0.000000000               0.000000000               0.000000000               0.000158444               0.005556475              -0.000000000              -0.000635141               0.002063854               0.001428712               0.000000000               0.000000000               0.000000000               0.000000000               0.000072303               0.005120336              -0.000000000              -0.000612927               0.001911070               0.001298144               0.000000000               0.000000000               0.000000000               0.000000000               0.000026093               0.004625830              -0.000000000              -0.000568443               0.001731409               0.001162966               0.000000000               0.000000000               0.000000000               0.000000000              -0.000026962               0.004242323              -0.000000000              -0.000540400               0.001594227               0.001053827               0.000000000               0.000000000               0.000000000               0.000000000               0.002040483               0.021026534              -0.001478359              -0.001863131               0.007629818               0.005766687               0.000000000               0.000000000               0.000000000               0.000000000               0.001946849               0.016624443              -0.000761472              -0.001347984               0.005990753               0.004642770               0.000000000               0.000000000               0.000000000               0.000000000               0.002471980               0.013104394              -0.000044750              -0.000711055               0.004605106               0.003894051               0.000000000               0.000000000               0.000000000               0.000000000               0.002343095               0.011136762               0.000257518              -0.000513433               0.003883361               0.003369928               0.000000000               0.000000000               0.000000000               0.000000000               0.002030867               0.009906484               0.000377653              -0.000476734               0.003461040               0.002984305               0.000000000               0.000000000               0.000000000               0.000000000               0.001690776               0.009056824               0.000419492              -0.000498061               0.003184931               0.002686871               0.000000000               0.000000000               0.000000000               0.000000000               0.001373606               0.008424578               0.000427624              -0.000537969               0.002987487               0.002449519               0.000000000               0.000000000               0.000000000               0.000000000               0.001091679               0.007920812               0.000418557              -0.000580721               0.002833818               0.002253097               0.000000000               0.000000000               0.000000000               0.000000000               0.000845459               0.007488388               0.000401999              -0.000619000               0.002702438               0.002083438               0.000000000               0.000000000               0.000000000               0.000000000               0.000637224               0.007101007               0.000382182              -0.000648665               0.002583201               0.001934535               0.000000000               0.000000000               0.000000000               0.000000000               0.000466522               0.006733995               0.000358317              -0.000666802               0.002466910               0.001800108               0.000000000               0.000000000               0.000000000               0.000000000               0.000326654               0.006371039               0.000331973              -0.000673883               0.002348286               0.001674403               0.000000000               0.000000000               0.000000000               0.000000000               0.000211872               0.006003514               0.000303168              -0.000670985               0.002224813               0.001553828               0.000000000               0.000000000               0.000000000               0.000000000               0.000121536               0.005622614               0.000266800              -0.000657249               0.002093269               0.001436020               0.000000000               0.000000000               0.000000000               0.000000000               0.000056546               0.005218384               0.000213545              -0.000631092               0.001949808               0.001318716               0.000000000               0.000000000               0.000000000               0.000000000               0.000021192               0.004776875               0.000126546              -0.000589161               0.001788663               0.001199502               0.000000000               0.000000000               0.000000000               0.000000000              -0.000023072               0.004446685               0.000078177              -0.000564486               0.001670375               0.001105889               0.000000000               0.000000000               0.000000000               0.000000000               0.002227987               0.019783913              -0.002753798              -0.001637491               0.007140402               0.005502911               0.000000000               0.000000000               0.000000000               0.000000000               0.001839007               0.015813198              -0.001417380              -0.001287019               0.005700020               0.004413000               0.000000000               0.000000000               0.000000000               0.000000000               0.002051387               0.012746978              -0.000094174              -0.000824100               0.004523650               0.003699550               0.000000000               0.000000000               0.000000000               0.000000000               0.001811158               0.011007345               0.000447511              -0.000696732               0.003901322               0.003204590               0.000000000               0.000000000               0.000000000               0.000000000               0.001483414               0.009895477               0.000656127              -0.000680653               0.003525344               0.002844691               0.000000000               0.000000000               0.000000000               0.000000000               0.001171046               0.009108137               0.000723807              -0.000699373               0.003269140               0.002569766               0.000000000               0.000000000               0.000000000               0.000000000               0.000901840               0.008504713               0.000732940              -0.000724897               0.003076508               0.002351611               0.000000000               0.000000000               0.000000000               0.000000000               0.000673394               0.008007175               0.000711461              -0.000748372               0.002918489               0.002170117               0.000000000               0.000000000               0.000000000               0.000000000               0.000485151               0.007577142               0.000679458              -0.000765209               0.002780759               0.002015549               0.000000000               0.000000000               0.000000000               0.000000000               0.000336974               0.007192209               0.000643639              -0.000772659               0.002654932               0.001882273               0.000000000               0.000000000               0.000000000               0.000000000               0.000222138               0.006832927               0.000599171              -0.000770812               0.002534557               0.001763745               0.000000000               0.000000000               0.000000000               0.000000000               0.000137772               0.006488368               0.000551432              -0.000759380               0.002415894               0.001656514               0.000000000               0.000000000               0.000000000               0.000000000               0.000076512               0.006151874               0.000498064              -0.000740290               0.002297367               0.001557077               0.000000000               0.000000000               0.000000000               0.000000000               0.000033566               0.005820139               0.000429945              -0.000714928               0.002178336               0.001463408               0.000000000               0.000000000               0.000000000               0.000000000               0.000008493               0.005493927               0.000335260              -0.000683554               0.002059142               0.001375588               0.000000000               0.000000000               0.000000000               0.000000000              -0.000000554               0.005175452               0.000194090              -0.000647138               0.001940846               0.001293708               0.000000000               0.000000000               0.000000000               0.000000000              -0.000020444               0.004965394               0.000115901              -0.000628339               0.001864561               0.001236222               0.000000000               0.000000000               0.000000000               0.000000000               0.002423513               0.017895391              -0.003668083              -0.001328106               0.006407772               0.005079666               0.000000000               0.000000000               0.000000000               0.000000000               0.001624855               0.014602148              -0.001894990              -0.001215946               0.005272649               0.004056703               0.000000000               0.000000000               0.000000000               0.000000000               0.001404753               0.012216214              -0.000163303              -0.001000242               0.004405445               0.003405203               0.000000000               0.000000000               0.000000000               0.000000000               0.001039039               0.010802519               0.000512820              -0.000960673               0.003921028               0.002960355               0.000000000               0.000000000               0.000000000               0.000000000               0.000717215               0.009852863               0.000761095              -0.000962650               0.003605138               0.002642488               0.000000000               0.000000000               0.000000000               0.000000000               0.000461149               0.009148579               0.000833294              -0.000970639               0.003373042               0.002402403               0.000000000               0.000000000               0.000000000               0.000000000               0.000266623               0.008584037               0.000834763              -0.000973019               0.003185657               0.002212638               0.000000000               0.000000000               0.000000000               0.000000000               0.000125759               0.008102718               0.000803635              -0.000965678               0.003022771               0.002057094               0.000000000               0.000000000               0.000000000               0.000000000               0.000029864               0.007682526               0.000762011              -0.000949114               0.002877188               0.001928073               0.000000000               0.000000000               0.000000000               0.000000000              -0.000029871               0.007302998               0.000714679              -0.000924074               0.002742333               0.001818259               0.000000000               0.000000000               0.000000000               0.000000000              -0.000063748               0.006954675               0.000657128              -0.000893238               0.002615948               0.001722710               0.000000000               0.000000000               0.000000000               0.000000000              -0.000078953               0.006631863               0.000592548              -0.000858588               0.002496795               0.001638207               0.000000000               0.000000000               0.000000000               0.000000000              -0.000082593               0.006333460               0.000519851              -0.000822653               0.002385350               0.001562697               0.000000000               0.000000000               0.000000000               0.000000000              -0.000074624               0.006061087               0.000432145              -0.000785618               0.002282215               0.001496597               0.000000000               0.000000000               0.000000000               0.000000000              -0.000053819               0.005818339               0.000321056              -0.000747473               0.002188584               0.001441112               0.000000000               0.000000000               0.000000000               0.000000000              -0.000026808               0.005616100               0.000177024              -0.000712064               0.002109369               0.001397305               0.000000000               0.000000000               0.000000000               0.000000000              -0.000021606               0.005504863               0.000100964              -0.000696208               0.002067006               0.001370797               0.000000000               0.000000000               0.000000000               0.000000000               0.002502682               0.015581745              -0.004150930              -0.001009213               0.005530266               0.004521053               0.000000000               0.000000000               0.000000000               0.000000000               0.001280579               0.013152228              -0.002179743              -0.001163810               0.004771969               0.003608159               0.000000000               0.000000000               0.000000000               0.000000000               0.000613141               0.011582743              -0.000280086              -0.001217912               0.004266846               0.003048934               0.000000000               0.000000000               0.000000000               0.000000000               0.000164058               0.010532418               0.000420701              -0.001255027               0.003929113               0.002674086               0.000000000               0.000000000               0.000000000               0.000000000              -0.000109610               0.009751810               0.000666182              -0.001260077               0.003670596               0.002410520               0.000000000               0.000000000               0.000000000               0.000000000              -0.000267382               0.009129843               0.000732957              -0.001241496               0.003457082               0.002215587               0.000000000               0.000000000               0.000000000               0.000000000              -0.000354152               0.008607090               0.000728275              -0.001208690               0.003271898               0.002063208               0.000000000               0.000000000               0.000000000               0.000000000              -0.000390304               0.008150963               0.000693082              -0.001165231               0.003105371               0.001940140               0.000000000               0.000000000               0.000000000               0.000000000              -0.000388606               0.007744478               0.000648957              -0.001113784               0.002952728               0.001838944               0.000000000               0.000000000               0.000000000               0.000000000              -0.000359767               0.007374578               0.000597843              -0.001056732               0.002810412               0.001753680               0.000000000               0.000000000               0.000000000               0.000000000              -0.000317286               0.007031760               0.000538316              -0.000997950               0.002676546               0.001678597               0.000000000               0.000000000               0.000000000               0.000000000              -0.000269814               0.006720988               0.000475329              -0.000941301               0.002554074               0.001612773               0.000000000               0.000000000               0.000000000               0.000000000              -0.000220245               0.006448593               0.000407566              -0.000888664               0.002445731               0.001557067               0.000000000               0.000000000               0.000000000               0.000000000              -0.000167821               0.006214696               0.000326475              -0.000839768               0.002351467               0.001511699               0.000000000               0.000000000               0.000000000               0.000000000              -0.000110739               0.006022514               0.000230227              -0.000794339               0.002272265               0.001477925               0.000000000               0.000000000               0.000000000               0.000000000              -0.000054811               0.005878747               0.000119230              -0.000755396               0.002211361               0.001455965               0.000000000               0.000000000               0.000000000               0.000000000              -0.000035818               0.005806348               0.000065243              -0.000739223               0.002181838               0.001442614               0.000000000               0.000000000               0.000000000               0.000000000               0.002364365               0.013086956              -0.004207114              -0.000749235               0.004612019               0.003862784               0.000000000               0.000000000               0.000000000               0.000000000               0.000808389               0.011621900              -0.002293596              -0.001149590               0.004257124               0.003107534               0.000000000               0.000000000               0.000000000               0.000000000              -0.000226934               0.010903112              -0.000466046              -0.001447986               0.004116996               0.002669010               0.000000000               0.000000000               0.000000000               0.000000000              -0.000678652               0.010194165               0.000176340              -0.001528761               0.003907608               0.002378847               0.000000000               0.000000000               0.000000000               0.000000000              -0.000846651               0.009563018               0.000399867              -0.001512868               0.003691930               0.002179062               0.000000000               0.000000000               0.000000000               0.000000000              -0.000878816               0.009014081               0.000462423              -0.001456313               0.003490101               0.002033788               0.000000000               0.000000000               0.000000000               0.000000000              -0.000844670               0.008532530               0.000461928              -0.001383314               0.003305253               0.001921939               0.000000000               0.000000000               0.000000000               0.000000000              -0.000770093               0.008098596               0.000437625              -0.001301106               0.003133207               0.001832101               0.000000000               0.000000000               0.000000000               0.000000000              -0.000677391               0.007697454               0.000407422              -0.001216200               0.002971192               0.001754992               0.000000000               0.000000000               0.000000000               0.000000000              -0.000576364               0.007326516               0.000370263              -0.001131948               0.002819464               0.001687515               0.000000000               0.000000000               0.000000000               0.000000000              -0.000474460               0.006986592               0.000325843              -0.001051244               0.002679255               0.001628011               0.000000000               0.000000000               0.000000000               0.000000000              -0.000381806               0.006683015               0.000284609              -0.000978552               0.002553833               0.001575282               0.000000000               0.000000000               0.000000000               0.000000000              -0.000295104               0.006420625               0.000242579              -0.000913240               0.002444600               0.001531360               0.000000000               0.000000000               0.000000000               0.000000000              -0.000213350               0.006201640               0.000190922              -0.000855209               0.002352262               0.001497053               0.000000000               0.000000000               0.000000000               0.000000000              -0.000136446               0.006027673               0.000128972              -0.000804624               0.002277412               0.001472788               0.000000000               0.000000000               0.000000000               0.000000000              -0.000065361               0.005897154               0.000062910              -0.000761653               0.002219583               0.001457930               0.000000000               0.000000000               0.000000000               0.000000000              -0.000042463               0.005826682               0.000036957              -0.000744257               0.002190294               0.001446037               0.000000000               0.000000000               0.000000000               0.000000000               0.001947866               0.010618537              -0.003905852              -0.000596870               0.003738432               0.003141563               0.000000000               0.000000000               0.000000000               0.000000000               0.000232083               0.010125518              -0.002283418              -0.001178657               0.003768024               0.002589367               0.000000000               0.000000000               0.000000000               0.000000000              -0.001019799               0.010195889              -0.000726183              -0.001656907               0.003950898               0.002293991               0.000000000               0.000000000               0.000000000               0.000000000              -0.001382765               0.009777024              -0.000183968              -0.001740661               0.003839196               0.002098535               0.000000000               0.000000000               0.000000000               0.000000000              -0.001405269               0.009277707               0.000019918              -0.001686685               0.003654766               0.001968081               0.000000000               0.000000000               0.000000000               0.000000000              -0.001296490               0.008800608               0.000095968              -0.001586256               0.003462258               0.001876003               0.000000000               0.000000000               0.000000000               0.000000000              -0.001140606               0.008352893               0.000122543              -0.001471835               0.003274881               0.001803046               0.000000000               0.000000000               0.000000000               0.000000000              -0.000975007               0.007922986               0.000125473              -0.001355998               0.003092968               0.001736971               0.000000000               0.000000000               0.000000000               0.000000000              -0.000816022               0.007514779               0.000121322              -0.001245353               0.002920019               0.001674666               0.000000000               0.000000000               0.000000000               0.000000000              -0.000666080               0.007134944               0.000112636              -0.001141645               0.002758839               0.001617194               0.000000000               0.000000000               0.000000000               0.000000000              -0.000526196               0.006793139               0.000098767              -0.001046463               0.002613178               0.001566715               0.000000000               0.000000000               0.000000000               0.000000000              -0.000403326               0.006492506               0.000090890              -0.000962808               0.002485083               0.001522275               0.000000000               0.000000000               0.000000000               0.000000000              -0.000297352               0.006235147               0.000086641              -0.000890898               0.002375327               0.001484429               0.000000000               0.000000000               0.000000000               0.000000000              -0.000203447               0.006023380               0.000075364              -0.000829213               0.002284178               0.001454964               0.000000000               0.000000000               0.000000000               0.000000000              -0.000122345               0.005854840               0.000052521              -0.000777732               0.002210838               0.001433105               0.000000000               0.000000000               0.000000000               0.000000000              -0.000057131               0.005724894               0.000024122              -0.000737034               0.002153957               0.001416923               0.000000000               0.000000000               0.000000000               0.000000000              -0.000042969               0.005648210               0.000018659              -0.000722138               0.002123431               0.001401293               0.000000000               0.000000000               0.000000000               0.000000000               0.001279102               0.008326168              -0.003342855              -0.000561110               0.002962397               0.002401287               0.000000000               0.000000000               0.000000000               0.000000000              -0.000410583               0.008743628              -0.002195154              -0.001246920               0.003330153               0.002083233               0.000000000               0.000000000               0.000000000               0.000000000              -0.001685839               0.009463361              -0.001048013              -0.001815105               0.003759457               0.001944352               0.000000000               0.000000000               0.000000000               0.000000000              -0.001883228               0.009283003              -0.000602570              -0.001866581               0.003716497               0.001849916               0.000000000               0.000000000               0.000000000               0.000000000              -0.001741736               0.008912046              -0.000393170              -0.001767152               0.003559703               0.001792551               0.000000000               0.000000000               0.000000000               0.000000000              -0.001506866               0.008495537              -0.000280204              -0.001627013               0.003374155               0.001747142               0.000000000               0.000000000               0.000000000               0.000000000              -0.001262802               0.008063349              -0.000214693              -0.001481466               0.003181578               0.001700112               0.000000000               0.000000000               0.000000000               0.000000000              -0.001032814               0.007633534              -0.000176315              -0.001341494               0.002991651               0.001650157               0.000000000               0.000000000               0.000000000               0.000000000              -0.000825858               0.007221730              -0.000145881              -0.001212410               0.002811356               0.001598946               0.000000000               0.000000000               0.000000000               0.000000000              -0.000645053               0.006838410              -0.000117395              -0.001096693               0.002645012               0.001548318               0.000000000               0.000000000               0.000000000               0.000000000              -0.000486313               0.006495472              -0.000089501              -0.000994299               0.002496569               0.001502270               0.000000000               0.000000000               0.000000000               0.000000000              -0.000352975               0.006198458              -0.000054774              -0.000907171               0.002368522               0.001461352               0.000000000               0.000000000               0.000000000               0.000000000              -0.000244643               0.005947692              -0.000017245              -0.000835200               0.002260944               0.001425744               0.000000000               0.000000000               0.000000000               0.000000000              -0.000159988               0.005741619               0.000009968              -0.000777696               0.002173086               0.001395390               0.000000000               0.000000000               0.000000000               0.000000000              -0.000095297               0.005578086               0.000020643              -0.000732995               0.002103675               0.001370680               0.000000000               0.000000000               0.000000000               0.000000000              -0.000045728               0.005454558               0.000015820              -0.000698966               0.002051157               0.001352190               0.000000000               0.000000000               0.000000000               0.000000000              -0.000034523               0.005384864               0.000016649              -0.000686053               0.002023621               0.001337568               0.000000000               0.000000000               0.000000000               0.000000000               0.000467578               0.006379397              -0.002627100              -0.000622084               0.002333805               0.001711721               0.000000000               0.000000000               0.000000000               0.000000000              -0.001026546               0.007504244              -0.002077935              -0.001322983               0.002942383               0.001619400               0.000000000               0.000000000               0.000000000               0.000000000              -0.002182598               0.008739214              -0.001422813              -0.001910872               0.003549999               0.001639128               0.000000000               0.000000000               0.000000000               0.000000000              -0.002204415               0.008808311              -0.001038165              -0.001927690               0.003578638               0.001650948               0.000000000               0.000000000               0.000000000               0.000000000              -0.001935171               0.008573047              -0.000800362              -0.001797316               0.003456759               0.001659443               0.000000000               0.000000000               0.000000000               0.000000000              -0.001607947               0.008220074              -0.000642025              -0.001630485               0.003283492               0.001653007               0.000000000               0.000000000               0.000000000               0.000000000              -0.001298972               0.007818794              -0.000532416              -0.001464460               0.003094392               0.001629932               0.000000000               0.000000000               0.000000000               0.000000000              -0.001023503               0.007403672              -0.000456250              -0.001309270               0.002904289               0.001595020               0.000000000               0.000000000               0.000000000               0.000000000              -0.000780327               0.007002970              -0.000391937              -0.001167991               0.002723630               0.001555639               0.000000000               0.000000000               0.000000000               0.000000000              -0.000575663               0.006627722              -0.000325394              -0.001044337               0.002557331               0.001512994               0.000000000               0.000000000               0.000000000               0.000000000              -0.000408103               0.006288803              -0.000255947              -0.000939137               0.002409292               0.001470155               0.000000000               0.000000000               0.000000000               0.000000000              -0.000277662               0.005994804              -0.000181589              -0.000853472               0.002282739               0.001429267               0.000000000               0.000000000               0.000000000               0.000000000              -0.000184619               0.005746263              -0.000107322              -0.000787513               0.002177906               0.001390393               0.000000000               0.000000000               0.000000000               0.000000000              -0.000124686               0.005536984              -0.000043814              -0.000738879               0.002091936               0.001353057               0.000000000               0.000000000               0.000000000               0.000000000              -0.000100284               0.005359480              -0.000000880              -0.000707540               0.002022322               0.001314782               0.000000000               0.000000000               0.000000000               0.000000000              -0.000092895               0.005218390               0.000013701              -0.000687132               0.001968490               0.001281358               0.000000000               0.000000000               0.000000000               0.000000000              -0.000086058               0.005152308               0.000014477              -0.000676308               0.001942855               0.001266547               0.000000000               0.000000000               0.000000000               0.000000000              -0.000500624               0.004560055              -0.001861964              -0.000757740               0.001772582               0.001014842               0.000000000               0.000000000               0.000000000               0.000000000              -0.001524589               0.006070486              -0.001942058              -0.001330529               0.002466984               0.001136455               0.000000000               0.000000000               0.000000000               0.000000000              -0.002441279               0.007678469              -0.001820274              -0.001875284               0.003184558               0.001309274               0.000000000               0.000000000               0.000000000               0.000000000              -0.002377892               0.008089733              -0.001508232              -0.001902922               0.003330858               0.001427936               0.000000000               0.000000000               0.000000000               0.000000000              -0.002070737               0.008075540              -0.001240724              -0.001785965               0.003287141               0.001501177               0.000000000               0.000000000               0.000000000               0.000000000              -0.001714502               0.007877740              -0.001031768              -0.001627652               0.003168438               0.001540786               0.000000000               0.000000000               0.000000000               0.000000000              -0.001379071               0.007589986              -0.000874669              -0.001465896               0.003018602               0.001552706               0.000000000               0.000000000               0.000000000               0.000000000              -0.001081562               0.007257297              -0.000755711              -0.001312745               0.002856656               0.001543912               0.000000000               0.000000000               0.000000000               0.000000000              -0.000823864               0.006914391              -0.000653263              -0.001173245               0.002695856               0.001522610               0.000000000               0.000000000               0.000000000               0.000000000              -0.000607988               0.006573874              -0.000553216              -0.001049727               0.002541178               0.001491451               0.000000000               0.000000000               0.000000000               0.000000000              -0.000435362               0.006250748              -0.000451848              -0.000944602               0.002398429               0.001453827               0.000000000               0.000000000               0.000000000               0.000000000              -0.000303574               0.005957367              -0.000347480              -0.000858509               0.002271939               0.001413430               0.000000000               0.000000000               0.000000000               0.000000000              -0.000213403               0.005704937              -0.000243168              -0.000793141               0.002166007               0.001372866               0.000000000               0.000000000               0.000000000               0.000000000              -0.000163873               0.005485677              -0.000142290              -0.000747160               0.002077594               0.001330434               0.000000000               0.000000000               0.000000000               0.000000000              -0.000153838               0.005294319              -0.000058691              -0.000719477               0.002004581               0.001285104               0.000000000               0.000000000               0.000000000               0.000000000              -0.000173598               0.005132754              -0.000013293              -0.000706692               0.001946465               0.001239773               0.000000000               0.000000000               0.000000000               0.000000000              -0.000188716               0.005055890              -0.000000382              -0.000702753               0.001919531               0.001216778               0.000000000               0.000000000               0.000000000               0.000000000              -0.001769443               0.002907072              -0.001095057              -0.001026923               0.001311322               0.000284398               0.000000000               0.000000000               0.000000000               0.000000000              -0.002091501               0.004634581              -0.001735282              -0.001363633               0.001999388               0.000635756               0.000000000               0.000000000               0.000000000               0.000000000              -0.002609760               0.006454815              -0.002126518              -0.001785508               0.002746752               0.000961244               0.000000000               0.000000000               0.000000000               0.000000000              -0.002466732               0.007181969              -0.001949880              -0.001822767               0.003001554               0.001178787               0.000000000               0.000000000               0.000000000               0.000000000              -0.002152699               0.007419694              -0.001687667              -0.001734720               0.003051446               0.001316726               0.000000000               0.000000000               0.000000000               0.000000000              -0.001797777               0.007416926              -0.001447971              -0.001601279               0.003006043               0.001404765               0.000000000               0.000000000               0.000000000               0.000000000              -0.001453202               0.007280207              -0.001250543              -0.001454973               0.002911702               0.001456729               0.000000000               0.000000000               0.000000000               0.000000000              -0.001143757               0.007071963              -0.001089652              -0.001312901               0.002794931               0.001482030               0.000000000               0.000000000               0.000000000               0.000000000              -0.000875084               0.006822252              -0.000951388              -0.001180935               0.002667706               0.001486771               0.000000000               0.000000000               0.000000000               0.000000000              -0.000642445               0.006547100              -0.000826035              -0.001059302               0.002535445               0.001476143               0.000000000               0.000000000               0.000000000               0.000000000              -0.000445747               0.006269043              -0.000703727              -0.000950783               0.002406588               0.001455805               0.000000000               0.000000000               0.000000000               0.000000000              -0.000288833               0.005999937              -0.000577930              -0.000858302               0.002286060               0.001427757               0.000000000               0.000000000               0.000000000               0.000000000              -0.000178669               0.005748113              -0.000447736              -0.000785513               0.002177856               0.001392343               0.000000000               0.000000000               0.000000000               0.000000000              -0.000123218               0.005516139              -0.000312654              -0.000735722               0.002083935               0.001348213               0.000000000               0.000000000               0.000000000               0.000000000              -0.000120398               0.005312233              -0.000182647              -0.000709176               0.002007119               0.001297942               0.000000000               0.000000000               0.000000000               0.000000000              -0.000172713               0.005141088              -0.000077102              -0.000707402               0.001949479               0.001242078               0.000000000               0.000000000               0.000000000               0.000000000              -0.000231648               0.005051671              -0.000025238              -0.000718325               0.001923315               0.001204990               0.000000000               0.000000000               0.000000000               0.000000000              -0.003257276               0.001541655              -0.000387005              -0.001414183               0.000985273              -0.000428911               0.000000000               0.000000000               0.000000000               0.000000000              -0.002779815               0.003284581              -0.001438903              -0.001453000               0.001579182               0.000126181               0.000000000               0.000000000               0.000000000               0.000000000              -0.002731257               0.005088084              -0.002241342              -0.001660229               0.002249420               0.000589191               0.000000000               0.000000000               0.000000000               0.000000000              -0.002438282               0.006031016              -0.002235479              -0.001668230               0.002566394               0.000898165               0.000000000               0.000000000               0.000000000               0.000000000              -0.002095164               0.006501209              -0.002025412              -0.001598334               0.002699825               0.001101491               0.000000000               0.000000000               0.000000000               0.000000000              -0.001749265               0.006701861              -0.001790883              -0.001493704               0.002731832               0.001238128               0.000000000               0.000000000               0.000000000               0.000000000              -0.001418087               0.006735351              -0.001577191              -0.001373699               0.002702994               0.001329295               0.000000000               0.000000000               0.000000000               0.000000000              -0.001112694               0.006675899              -0.001387462              -0.001251745               0.002642526               0.001390780               0.000000000               0.000000000               0.000000000               0.000000000              -0.000842295               0.006551804              -0.001221702              -0.001134834               0.002562191               0.001427357               0.000000000               0.000000000               0.000000000               0.000000000              -0.000601653               0.006378735              -0.001077786              -0.001022960               0.002467210               0.001444250               0.000000000               0.000000000               0.000000000               0.000000000              -0.000385645               0.006175846              -0.000943752              -0.000916596               0.002364127               0.001447531               0.000000000               0.000000000               0.000000000               0.000000000              -0.000199435               0.005961085              -0.000806569              -0.000819922               0.002260316               0.001440394               0.000000000               0.000000000               0.000000000               0.000000000              -0.000055725               0.005742847              -0.000658024              -0.000738751               0.002160514               0.001421762               0.000000000               0.000000000               0.000000000               0.000000000               0.000032375               0.005529295              -0.000497002              -0.000679020               0.002069420               0.001390400               0.000000000               0.000000000               0.000000000               0.000000000               0.000059233               0.005331575              -0.000327966              -0.000644233               0.001991918               0.001347685               0.000000000               0.000000000               0.000000000               0.000000000               0.000012621               0.005156290              -0.000160199              -0.000639802               0.001932013               0.001292212               0.000000000               0.000000000               0.000000000               0.000000000              -0.000057090               0.005059904              -0.000069094              -0.000653895               0.001904583               0.001250688               0.000000000               0.000000000               0.000000000               0.000000000              -0.004855796               0.000531433               0.000167081              -0.001887351               0.000806256              -0.001081095               0.000000000               0.000000000               0.000000000               0.000000000              -0.003546530               0.002093956              -0.001095038              -0.001591690               0.001228540              -0.000363151               0.000000000               0.000000000               0.000000000               0.000000000              -0.002831284               0.003693882              -0.002143725              -0.001523464               0.001739102               0.000215638               0.000000000               0.000000000               0.000000000               0.000000000              -0.002323419               0.004733084              -0.002293237              -0.001462915               0.002065316               0.000602401               0.000000000               0.000000000               0.000000000               0.000000000              -0.001915663               0.005379812              -0.002166274              -0.001390848               0.002256868               0.000866020               0.000000000               0.000000000               0.000000000               0.000000000              -0.001565923               0.005770282              -0.001965006              -0.001308504               0.002359576               0.001051071               0.000000000               0.000000000               0.000000000               0.000000000              -0.001254219               0.005981333              -0.001760533              -0.001217997               0.002399756               0.001181760               0.000000000               0.000000000               0.000000000               0.000000000              -0.000968124               0.006077736              -0.001568139              -0.001122762               0.002400145               0.001277384               0.000000000               0.000000000               0.000000000               0.000000000              -0.000706184               0.006093455              -0.001395228              -0.001026499               0.002373297               0.001346799               0.000000000               0.000000000               0.000000000               0.000000000              -0.000465063               0.006044923              -0.001246319              -0.000930012               0.002324958               0.001394946               0.000000000               0.000000000               0.000000000               0.000000000              -0.000238015               0.005946580              -0.001110941              -0.000832576               0.002259699               0.001427122               0.000000000               0.000000000               0.000000000               0.000000000              -0.000025968               0.005816455              -0.000971479              -0.000736793               0.002184397               0.001447603               0.000000000               0.000000000               0.000000000               0.000000000               0.000157826               0.005664355              -0.000815911              -0.000648858               0.002104386               0.001455527               0.000000000               0.000000000               0.000000000               0.000000000               0.000303946               0.005498834              -0.000645497              -0.000573373               0.002024051               0.001450677               0.000000000               0.000000000               0.000000000               0.000000000               0.000401991               0.005327124              -0.000454678              -0.000515143               0.001947404               0.001432262               0.000000000               0.000000000               0.000000000               0.000000000               0.000430458               0.005160602              -0.000238651              -0.000483652               0.001881401               0.001397748               0.000000000               0.000000000               0.000000000               0.000000000               0.000410781               0.005073383              -0.000120922              -0.000480129               0.001851154               0.001371025               0.000000000               0.000000000               0.000000000               0.000000000              -0.006406005              -0.000130006               0.000485322              -0.002385999               0.000751992              -0.001634007               0.000000000               0.000000000               0.000000000               0.000000000              -0.004321992               0.001127138              -0.000752074              -0.001761637               0.000962918              -0.000798719               0.000000000               0.000000000               0.000000000               0.000000000              -0.002924967               0.002398779              -0.001833166              -0.001396708               0.001265153              -0.000131555               0.000000000               0.000000000               0.000000000               0.000000000              -0.002155209               0.003437337              -0.002077023              -0.001237868               0.001558389               0.000320521               0.000000000               0.000000000               0.000000000               0.000000000              -0.001655480               0.004192858              -0.002032500              -0.001144910               0.001779241               0.000634331               0.000000000               0.000000000               0.000000000               0.000000000              -0.001287562               0.004728582              -0.001887451              -0.001073907               0.001934147               0.000860240               0.000000000               0.000000000               0.000000000               0.000000000              -0.000986550               0.005104016              -0.001715463              -0.001007956               0.002037306               0.001029350               0.000000000               0.000000000               0.000000000               0.000000000              -0.000720445               0.005352391              -0.001544287              -0.000939214               0.002097183               0.001157969               0.000000000               0.000000000               0.000000000               0.000000000              -0.000470890               0.005500568              -0.001388954              -0.000864153               0.002121555               0.001257402               0.000000000               0.000000000               0.000000000               0.000000000              -0.000232582               0.005576642              -0.001253944              -0.000784297               0.002120294               0.001335997               0.000000000               0.000000000               0.000000000               0.000000000              -0.000001546               0.005593740              -0.001130651              -0.000699796               0.002097827               0.001398031               0.000000000               0.000000000               0.000000000               0.000000000               0.000226239               0.005564007              -0.001001378              -0.000610660               0.002058204               0.001447543               0.000000000               0.000000000               0.000000000               0.000000000               0.000451877               0.005497777              -0.000856362              -0.000517767               0.002005163               0.001487396               0.000000000               0.000000000               0.000000000               0.000000000               0.000669650               0.005401197              -0.000697522              -0.000424030               0.001941724               0.001517694               0.000000000               0.000000000               0.000000000               0.000000000               0.000867757               0.005278193              -0.000510684              -0.000334365               0.001870835               0.001536470               0.000000000               0.000000000               0.000000000               0.000000000               0.001033076               0.005143488              -0.000278327              -0.000255532               0.001799656               0.001544124               0.000000000               0.000000000               0.000000000               0.000000000               0.001127113               0.005084104              -0.000153836              -0.000212845               0.001765633               0.001552787               0.000000000               0.000000000               0.000000000               0.000000000              -0.007716921              -0.000508161               0.000532238              -0.002830323               0.000774049              -0.002056275               0.000000000               0.000000000               0.000000000               0.000000000              -0.005002241               0.000422111              -0.000449427              -0.001928602               0.000783566              -0.001145037               0.000000000               0.000000000               0.000000000               0.000000000              -0.003013716               0.001342029              -0.001336869              -0.001297895               0.000879968              -0.000417927               0.000000000               0.000000000               0.000000000               0.000000000              -0.001985166               0.002317242              -0.001584232              -0.001034091               0.001117102               0.000083011               0.000000000               0.000000000               0.000000000               0.000000000              -0.001383935               0.003128050              -0.001589518              -0.000909980               0.001345999               0.000436019               0.000000000               0.000000000               0.000000000               0.000000000              -0.000985830               0.003761003              -0.001502747              -0.000839810               0.001533591               0.000693781               0.000000000               0.000000000               0.000000000               0.000000000              -0.000686749               0.004249607              -0.001382902              -0.000788730               0.001679431               0.000890701               0.000000000               0.000000000               0.000000000               0.000000000              -0.000431805               0.004619626              -0.001256566              -0.000739379               0.001786319               0.001046941               0.000000000               0.000000000               0.000000000               0.000000000              -0.000191517               0.004884868              -0.001140162              -0.000682426               0.001855748               0.001173322               0.000000000               0.000000000               0.000000000               0.000000000               0.000042765               0.005065577              -0.001036962              -0.000617159               0.001894228               0.001277069               0.000000000               0.000000000               0.000000000               0.000000000               0.000275460               0.005182080              -0.000940030              -0.000544462               0.001908830               0.001364368               0.000000000               0.000000000               0.000000000               0.000000000               0.000514387               0.005248553              -0.000838544              -0.000463173               0.001903891               0.001440718               0.000000000               0.000000000               0.000000000               0.000000000               0.000774207               0.005269181              -0.000727315              -0.000368319               0.001879149               0.001510830               0.000000000               0.000000000               0.000000000               0.000000000               0.001056151               0.005248170              -0.000601412              -0.000259964               0.001836027               0.001576063               0.000000000               0.000000000               0.000000000               0.000000000               0.001355093               0.005190742              -0.000448898              -0.000140683               0.001777124               0.001636441               0.000000000               0.000000000               0.000000000               0.000000000               0.001674582               0.005104377              -0.000249710              -0.000010079               0.001704802               0.001694723               0.000000000               0.000000000               0.000000000               0.000000000               0.001909460               0.005081014              -0.000144587               0.000080920               0.001666681               0.001747601               0.000000000               0.000000000               0.000000000               0.000000000              -0.008599588              -0.000685307               0.000337735              -0.003139180               0.000817952              -0.002321228               0.000000000               0.000000000               0.000000000               0.000000000              -0.005472262              -0.000000698              -0.000204165              -0.002052009               0.000683766              -0.001368244               0.000000000               0.000000000               0.000000000               0.000000000              -0.003078782               0.000655066              -0.000704077              -0.001236425               0.000630493              -0.000605932               0.000000000               0.000000000               0.000000000               0.000000000              -0.001863525               0.001553375              -0.000859156              -0.000892992               0.000815450              -0.000077543               0.000000000               0.000000000               0.000000000               0.000000000              -0.001182321               0.002376184              -0.000875318              -0.000740392               0.001038850               0.000298459               0.000000000               0.000000000               0.000000000               0.000000000              -0.000752892               0.003064469              -0.000835429              -0.000665392               0.001243277               0.000577885               0.000000000               0.000000000               0.000000000               0.000000000              -0.000444279               0.003620959              -0.000774894              -0.000619223               0.001413382               0.000794159               0.000000000               0.000000000               0.000000000               0.000000000              -0.000190243               0.004063172              -0.000710025              -0.000579237               0.001547456               0.000968219               0.000000000               0.000000000               0.000000000               0.000000000               0.000040802               0.004405260              -0.000648666              -0.000535356               0.001646857               0.001111502               0.000000000               0.000000000               0.000000000               0.000000000               0.000266127               0.004661965              -0.000592017              -0.000482947               0.001714955               0.001232008               0.000000000               0.000000000               0.000000000               0.000000000               0.000496200               0.004847319              -0.000536936              -0.000419839               0.001755703               0.001335864               0.000000000               0.000000000               0.000000000               0.000000000               0.000744477               0.004977533              -0.000481662              -0.000343012               0.001773498               0.001430486               0.000000000               0.000000000               0.000000000               0.000000000               0.001025033               0.005064029              -0.000422812              -0.000248616               0.001770865               0.001522249               0.000000000               0.000000000               0.000000000               0.000000000               0.001347730               0.005108546              -0.000352260              -0.000133169               0.001747221               0.001614052               0.000000000               0.000000000               0.000000000               0.000000000               0.001722078               0.005110406              -0.000265957               0.000006978               0.001701125               0.001708104               0.000000000               0.000000000               0.000000000               0.000000000               0.002161778               0.005069243              -0.000151385               0.000177010               0.001630728               0.001807737               0.000000000               0.000000000               0.000000000               0.000000000               0.002510827               0.005076877              -0.000091664               0.000306948               0.001589960               0.001896907               0.000000000               0.000000000               0.000000000               0.000000000              -0.008911581              -0.000733560               0.000000000              -0.003250146               0.000838856              -0.002411289               0.000000000               0.000000000               0.000000000               0.000000000              -0.005640635              -0.000141452              -0.000000000              -0.002097555               0.000652030              -0.001445525               0.000000000               0.000000000               0.000000000               0.000000000              -0.003102215               0.000415068               0.000000000              -0.001215213               0.000543423              -0.000671790               0.000000000               0.000000000               0.000000000               0.000000000              -0.001819488               0.001281935               0.000000000              -0.000842548               0.000708156              -0.000134392               0.000000000               0.000000000               0.000000000               0.000000000              -0.001106568               0.002105653              -0.000000000              -0.000678168               0.000927933               0.000249765               0.000000000               0.000000000               0.000000000               0.000000000              -0.000663279               0.002809446              -0.000000000              -0.000599909               0.001136442               0.000536533               0.000000000               0.000000000               0.000000000               0.000000000              -0.000348747               0.003389691               0.000000000              -0.000554490               0.001314716               0.000760226               0.000000000               0.000000000               0.000000000               0.000000000              -0.000092880               0.003857315              -0.000000000              -0.000516993               0.001458090               0.000941097               0.000000000               0.000000000               0.000000000               0.000000000               0.000133570               0.004223738               0.000000000              -0.000477877               0.001567191               0.001089314               0.000000000               0.000000000               0.000000000               0.000000000               0.000352020               0.004506466               0.000000000              -0.000431300               0.001645907               0.001214607               0.000000000               0.000000000               0.000000000               0.000000000               0.000580158               0.004719371              -0.000000000              -0.000372361               0.001697228               0.001324867               0.000000000               0.000000000               0.000000000               0.000000000               0.000833322               0.004874178              -0.000000000              -0.000296776               0.001723635               0.001426859               0.000000000               0.000000000               0.000000000               0.000000000               0.001119802               0.004983325               0.000000000              -0.000202989               0.001728755               0.001525766               0.000000000               0.000000000               0.000000000               0.000000000               0.001455189               0.005052916               0.000000000              -0.000085919               0.001712928               0.001627009               0.000000000               0.000000000               0.000000000               0.000000000               0.001857397               0.005079082              -0.000000000               0.000061638               0.001672464               0.001734102               0.000000000               0.000000000               0.000000000               0.000000000               0.002342141               0.005056875              -0.000000000               0.000246191               0.001603545               0.001849735               0.000000000               0.000000000               0.000000000               0.000000000               0.002734465               0.005077237               0.000000000               0.000390766               0.001562140               0.001952906               0.000000000               0.000000000               0.000000000               0.000000000               0.000000000               0.000000000               0.000000000               0.000000000               0.000000000               0.000000000               0.000000000               0.000000000               0.000000000               0.000000000               0.000000000               0.000000000               0.000000000               0.000000000               0.000000000               0.000000000               0.000000000               0.000000000               0.000000000               0.000000000               0.000000000               0.000000000               0.000000000               0.000000000               0.000000000               0.000000000               0.000000000               0.000000000               0.000000000               0.000000000               0.000000000               0.000000000               0.000000000               0.000000000               0.000000000               0.000000000               0.000000000               0.000000000               0.000000000               0.000000000               0.000000000               0.000000000               0.000000000               0.000000000               0.000000000               0.000000000               0.000000000               0.000000000               0.000000000               0.000000000               0.000000000               0.000000000               0.000000000               0.000000000               0.000000000               0.000000000               0.000000000               0.000000000               0.000000000               0.000000000               0.000000000               0.000000000               0.000000000               0.000000000               0.000000000               0.000000000               0.000000000               0.000000000               0.000000000               0.000000000               0.000000000               0.000000000               0.000000000               0.000000000               0.000000000               0.000000000               0.000000000               0.000000000               0.000000000               0.000000000               0.000000000               0.000000000               0.000000000               0.000000000               0.000000000               0.000000000               0.000000000               0.000000000               0.000000000               0.000000000               0.000000000               0.000000000               0.000000000               0.000000000               0.000000000               0.000000000               0.000000000               0.000000000               0.000000000               0.000000000               0.000000000               0.000000000               0.000000000               0.000000000               0.000000000               0.000000000               0.000000000               0.000000000               0.000000000               0.000000000               0.000000000               0.000000000               0.000000000               0.000000000               0.000000000               0.000000000               0.000000000               0.000000000               0.000000000               0.000000000               0.000000000               0.000000000               0.000000000               0.000000000               0.000000000               0.000000000               0.000000000               0.000000000               0.000000000               0.000000000               0.000000000               0.000000000               0.000000000               0.000000000               0.000000000               0.000000000               0.000000000               0.000000000               0.000000000               0.000000000               0.000000000               0.000000000               0.000000000               0.000000000               0.000000000               0.000000000               0.000000000               0.000000000               0.000000000               0.000000000               0.000000000               0.000000000               0.000000000               0.000000000               0.000000000               0.000000000               0.000000000               0.000000000               0.000000000               0.000000000               0.000000000               0.000000000               0.000000000               0.000000000               0.000000000               0.000000000               0.000000000               0.000000000               0.000000000               0.000000000               0.002040483               0.021026534               0.001478359              -0.001863131               0.007629818               0.005766687               0.000000000               0.000000000               0.000000000               0.000000000               0.001946849               0.016624443               0.000761472              -0.001347984               0.005990753               0.004642770               0.000000000               0.000000000               0.000000000               0.000000000               0.002471980               0.013104394               0.000044750              -0.000711055               0.004605106               0.003894051               0.000000000               0.000000000               0.000000000               0.000000000               0.002343095               0.011136762              -0.000257518              -0.000513433               0.003883361               0.003369928               0.000000000               0.000000000               0.000000000               0.000000000               0.002030867               0.009906484              -0.000377653              -0.000476734               0.003461040               0.002984305               0.000000000               0.000000000               0.000000000               0.000000000               0.001690776               0.009056824              -0.000419492              -0.000498061               0.003184931               0.002686871               0.000000000               0.000000000               0.000000000               0.000000000               0.001373606               0.008424578              -0.000427624              -0.000537969               0.002987487               0.002449519               0.000000000               0.000000000               0.000000000               0.000000000               0.001091679               0.007920812              -0.000418557              -0.000580721               0.002833818               0.002253097               0.000000000               0.000000000               0.000000000               0.000000000               0.000845459               0.007488388              -0.000401999              -0.000619000               0.002702438               0.002083438               0.000000000               0.000000000               0.000000000               0.000000000               0.000637224               0.007101007              -0.000382182              -0.000648665               0.002583201               0.001934535               0.000000000               0.000000000               0.000000000               0.000000000               0.000466522               0.006733995              -0.000358317              -0.000666802               0.002466910               0.001800108               0.000000000               0.000000000               0.000000000               0.000000000               0.000326654               0.006371039              -0.000331973              -0.000673883               0.002348286               0.001674403               0.000000000               0.000000000               0.000000000               0.000000000               0.000211872               0.006003514              -0.000303168              -0.000670985               0.002224813               0.001553828               0.000000000               0.000000000               0.000000000               0.000000000               0.000121536               0.005622614              -0.000266800              -0.000657249               0.002093269               0.001436020               0.000000000               0.000000000               0.000000000               0.000000000               0.000056546               0.005218384              -0.000213545              -0.000631092               0.001949808               0.001318716               0.000000000               0.000000000               0.000000000               0.000000000               0.000021192               0.004776875              -0.000126546              -0.000589161               0.001788663               0.001199502               0.000000000               0.000000000               0.000000000               0.000000000              -0.000023072               0.004446685              -0.000078177              -0.000564486               0.001670375               0.001105889               0.000000000               0.000000000               0.000000000               0.000000000               0.002227987               0.019783913               0.002753798              -0.001637491               0.007140402               0.005502911               0.000000000               0.000000000               0.000000000               0.000000000               0.001839007               0.015813198               0.001417380              -0.001287019               0.005700020               0.004413000               0.000000000               0.000000000               0.000000000               0.000000000               0.002051387               0.012746978               0.000094174              -0.000824100               0.004523650               0.003699550               0.000000000               0.000000000               0.000000000               0.000000000               0.001811158               0.011007345              -0.000447511              -0.000696732               0.003901322               0.003204590               0.000000000               0.000000000               0.000000000               0.000000000               0.001483414               0.009895477              -0.000656127              -0.000680653               0.003525344               0.002844691               0.000000000               0.000000000               0.000000000               0.000000000               0.001171046               0.009108137              -0.000723807              -0.000699373               0.003269140               0.002569766               0.000000000               0.000000000               0.000000000               0.000000000               0.000901840               0.008504713              -0.000732940              -0.000724897               0.003076508               0.002351611               0.000000000               0.000000000               0.000000000               0.000000000               0.000673394               0.008007175              -0.000711461              -0.000748372               0.002918489               0.002170117               0.000000000               0.000000000               0.000000000               0.000000000               0.000485151               0.007577142              -0.000679458              -0.000765209               0.002780759               0.002015549               0.000000000               0.000000000               0.000000000               0.000000000               0.000336974               0.007192209              -0.000643639              -0.000772659               0.002654932               0.001882273               0.000000000               0.000000000               0.000000000               0.000000000               0.000222138               0.006832927              -0.000599171              -0.000770812               0.002534557               0.001763745               0.000000000               0.000000000               0.000000000               0.000000000               0.000137772               0.006488368              -0.000551432              -0.000759380               0.002415894               0.001656514               0.000000000               0.000000000               0.000000000               0.000000000               0.000076512               0.006151874              -0.000498064              -0.000740290               0.002297367               0.001557077               0.000000000               0.000000000               0.000000000               0.000000000               0.000033566               0.005820139              -0.000429945              -0.000714928               0.002178336               0.001463408               0.000000000               0.000000000               0.000000000               0.000000000               0.000008493               0.005493927              -0.000335260              -0.000683554               0.002059142               0.001375588               0.000000000               0.000000000               0.000000000               0.000000000              -0.000000554               0.005175452              -0.000194090              -0.000647138               0.001940846               0.001293708               0.000000000               0.000000000               0.000000000               0.000000000              -0.000020444               0.004965394              -0.000115901              -0.000628339               0.001864561               0.001236222               0.000000000               0.000000000               0.000000000               0.000000000               0.002423513               0.017895391               0.003668083              -0.001328106               0.006407772               0.005079666               0.000000000               0.000000000               0.000000000               0.000000000               0.001624855               0.014602148               0.001894990              -0.001215946               0.005272649               0.004056703               0.000000000               0.000000000               0.000000000               0.000000000               0.001404753               0.012216214               0.000163303              -0.001000242               0.004405445               0.003405203               0.000000000               0.000000000               0.000000000               0.000000000               0.001039039               0.010802519              -0.000512820              -0.000960673               0.003921028               0.002960355               0.000000000               0.000000000               0.000000000               0.000000000               0.000717215               0.009852863              -0.000761095              -0.000962650               0.003605138               0.002642488               0.000000000               0.000000000               0.000000000               0.000000000               0.000461149               0.009148579              -0.000833294              -0.000970639               0.003373042               0.002402403               0.000000000               0.000000000               0.000000000               0.000000000               0.000266623               0.008584037              -0.000834763              -0.000973019               0.003185657               0.002212638               0.000000000               0.000000000               0.000000000               0.000000000               0.000125759               0.008102718              -0.000803635              -0.000965678               0.003022771               0.002057094               0.000000000               0.000000000               0.000000000               0.000000000               0.000029864               0.007682526              -0.000762011              -0.000949114               0.002877188               0.001928073               0.000000000               0.000000000               0.000000000               0.000000000              -0.000029871               0.007302998              -0.000714679              -0.000924074               0.002742333               0.001818259               0.000000000               0.000000000               0.000000000               0.000000000              -0.000063748               0.006954675              -0.000657128              -0.000893238               0.002615948               0.001722710               0.000000000               0.000000000               0.000000000               0.000000000              -0.000078953               0.006631863              -0.000592548              -0.000858588               0.002496795               0.001638207               0.000000000               0.000000000               0.000000000               0.000000000              -0.000082593               0.006333460              -0.000519851              -0.000822653               0.002385350               0.001562697               0.000000000               0.000000000               0.000000000               0.000000000              -0.000074624               0.006061087              -0.000432145              -0.000785618               0.002282215               0.001496597               0.000000000               0.000000000               0.000000000               0.000000000              -0.000053819               0.005818339              -0.000321056              -0.000747473               0.002188584               0.001441112               0.000000000               0.000000000               0.000000000               0.000000000              -0.000026808               0.005616100              -0.000177024              -0.000712064               0.002109369               0.001397305               0.000000000               0.000000000               0.000000000               0.000000000              -0.000021606               0.005504863              -0.000100964              -0.000696208               0.002067006               0.001370797               0.000000000               0.000000000               0.000000000               0.000000000               0.002502682               0.015581745               0.004150930              -0.001009213               0.005530266               0.004521053               0.000000000               0.000000000               0.000000000               0.000000000               0.001280579               0.013152228               0.002179743              -0.001163810               0.004771969               0.003608159               0.000000000               0.000000000               0.000000000               0.000000000               0.000613141               0.011582743               0.000280086              -0.001217912               0.004266846               0.003048934               0.000000000               0.000000000               0.000000000               0.000000000               0.000164058               0.010532418              -0.000420701              -0.001255027               0.003929113               0.002674086               0.000000000               0.000000000               0.000000000               0.000000000              -0.000109610               0.009751810              -0.000666182              -0.001260077               0.003670596               0.002410520               0.000000000               0.000000000               0.000000000               0.000000000              -0.000267382               0.009129843              -0.000732957              -0.001241496               0.003457082               0.002215587               0.000000000               0.000000000               0.000000000               0.000000000              -0.000354152               0.008607090              -0.000728275              -0.001208690               0.003271898               0.002063208               0.000000000               0.000000000               0.000000000               0.000000000              -0.000390304               0.008150963              -0.000693082              -0.001165231               0.003105371               0.001940140               0.000000000               0.000000000               0.000000000               0.000000000              -0.000388606               0.007744478              -0.000648957              -0.001113784               0.002952728               0.001838944               0.000000000               0.000000000               0.000000000               0.000000000              -0.000359767               0.007374578              -0.000597843              -0.001056732               0.002810412               0.001753680               0.000000000               0.000000000               0.000000000               0.000000000              -0.000317286               0.007031760              -0.000538316              -0.000997950               0.002676546               0.001678597               0.000000000               0.000000000               0.000000000               0.000000000              -0.000269814               0.006720988              -0.000475329              -0.000941301               0.002554074               0.001612773               0.000000000               0.000000000               0.000000000               0.000000000              -0.000220245               0.006448593              -0.000407566              -0.000888664               0.002445731               0.001557067               0.000000000               0.000000000               0.000000000               0.000000000              -0.000167821               0.006214696              -0.000326475              -0.000839768               0.002351467               0.001511699               0.000000000               0.000000000               0.000000000               0.000000000              -0.000110739               0.006022514              -0.000230227              -0.000794339               0.002272265               0.001477925               0.000000000               0.000000000               0.000000000               0.000000000              -0.000054811               0.005878747              -0.000119230              -0.000755396               0.002211361               0.001455965               0.000000000               0.000000000               0.000000000               0.000000000              -0.000035818               0.005806348              -0.000065243              -0.000739223               0.002181838               0.001442614               0.000000000               0.000000000               0.000000000               0.000000000               0.002364365               0.013086956               0.004207114              -0.000749235               0.004612019               0.003862784               0.000000000               0.000000000               0.000000000               0.000000000               0.000808389               0.011621900               0.002293596              -0.001149590               0.004257124               0.003107534               0.000000000               0.000000000               0.000000000               0.000000000              -0.000226934               0.010903112               0.000466046              -0.001447986               0.004116996               0.002669010               0.000000000               0.000000000               0.000000000               0.000000000              -0.000678652               0.010194165              -0.000176340              -0.001528761               0.003907608               0.002378847               0.000000000               0.000000000               0.000000000               0.000000000              -0.000846651               0.009563018              -0.000399867              -0.001512868               0.003691930               0.002179062               0.000000000               0.000000000               0.000000000               0.000000000              -0.000878816               0.009014081              -0.000462423              -0.001456313               0.003490101               0.002033788               0.000000000               0.000000000               0.000000000               0.000000000              -0.000844670               0.008532530              -0.000461928              -0.001383314               0.003305253               0.001921939               0.000000000               0.000000000               0.000000000               0.000000000              -0.000770093               0.008098596              -0.000437625              -0.001301106               0.003133207               0.001832101               0.000000000               0.000000000               0.000000000               0.000000000              -0.000677391               0.007697454              -0.000407422              -0.001216200               0.002971192               0.001754992               0.000000000               0.000000000               0.000000000               0.000000000              -0.000576364               0.007326516              -0.000370263              -0.001131948               0.002819464               0.001687515               0.000000000               0.000000000               0.000000000               0.000000000              -0.000474460               0.006986592              -0.000325843              -0.001051244               0.002679255               0.001628011               0.000000000               0.000000000               0.000000000               0.000000000              -0.000381806               0.006683015              -0.000284609              -0.000978552               0.002553833               0.001575282               0.000000000               0.000000000               0.000000000               0.000000000              -0.000295104               0.006420625              -0.000242579              -0.000913240               0.002444600               0.001531360               0.000000000               0.000000000               0.000000000               0.000000000              -0.000213350               0.006201640              -0.000190922              -0.000855209               0.002352262               0.001497053               0.000000000               0.000000000               0.000000000               0.000000000              -0.000136446               0.006027673              -0.000128972              -0.000804624               0.002277412               0.001472788               0.000000000               0.000000000               0.000000000               0.000000000              -0.000065361               0.005897154              -0.000062910              -0.000761653               0.002219583               0.001457930               0.000000000               0.000000000               0.000000000               0.000000000              -0.000042463               0.005826682              -0.000036957              -0.000744257               0.002190294               0.001446037               0.000000000               0.000000000               0.000000000               0.000000000               0.001947866               0.010618537               0.003905852              -0.000596870               0.003738432               0.003141563               0.000000000               0.000000000               0.000000000               0.000000000               0.000232083               0.010125518               0.002283418              -0.001178657               0.003768024               0.002589367               0.000000000               0.000000000               0.000000000               0.000000000              -0.001019799               0.010195889               0.000726183              -0.001656907               0.003950898               0.002293991               0.000000000               0.000000000               0.000000000               0.000000000              -0.001382765               0.009777024               0.000183968              -0.001740661               0.003839196               0.002098535               0.000000000               0.000000000               0.000000000               0.000000000              -0.001405269               0.009277707              -0.000019918              -0.001686685               0.003654766               0.001968081               0.000000000               0.000000000               0.000000000               0.000000000              -0.001296490               0.008800608              -0.000095968              -0.001586256               0.003462258               0.001876003               0.000000000               0.000000000               0.000000000               0.000000000              -0.001140606               0.008352893              -0.000122543              -0.001471835               0.003274881               0.001803046               0.000000000               0.000000000               0.000000000               0.000000000              -0.000975007               0.007922986              -0.000125473              -0.001355998               0.003092968               0.001736971               0.000000000               0.000000000               0.000000000               0.000000000              -0.000816022               0.007514779              -0.000121322              -0.001245353               0.002920019               0.001674666               0.000000000               0.000000000               0.000000000               0.000000000              -0.000666080               0.007134944              -0.000112636              -0.001141645               0.002758839               0.001617194               0.000000000               0.000000000               0.000000000               0.000000000              -0.000526196               0.006793139              -0.000098767              -0.001046463               0.002613178               0.001566715               0.000000000               0.000000000               0.000000000               0.000000000              -0.000403326               0.006492506              -0.000090890              -0.000962808               0.002485083               0.001522275               0.000000000               0.000000000               0.000000000               0.000000000              -0.000297352               0.006235147              -0.000086641              -0.000890898               0.002375327               0.001484429               0.000000000               0.000000000               0.000000000               0.000000000              -0.000203447               0.006023380              -0.000075364              -0.000829213               0.002284178               0.001454964               0.000000000               0.000000000               0.000000000               0.000000000              -0.000122345               0.005854840              -0.000052521              -0.000777732               0.002210838               0.001433105               0.000000000               0.000000000               0.000000000               0.000000000              -0.000057131               0.005724894              -0.000024122              -0.000737034               0.002153957               0.001416923               0.000000000               0.000000000               0.000000000               0.000000000              -0.000042969               0.005648210              -0.000018659              -0.000722138               0.002123431               0.001401293               0.000000000               0.000000000               0.000000000               0.000000000               0.001279102               0.008326168               0.003342855              -0.000561110               0.002962397               0.002401287               0.000000000               0.000000000               0.000000000               0.000000000              -0.000410583               0.008743628               0.002195154              -0.001246920               0.003330153               0.002083233               0.000000000               0.000000000               0.000000000               0.000000000              -0.001685839               0.009463361               0.001048013              -0.001815105               0.003759457               0.001944352               0.000000000               0.000000000               0.000000000               0.000000000              -0.001883228               0.009283003               0.000602570              -0.001866581               0.003716497               0.001849916               0.000000000               0.000000000               0.000000000               0.000000000              -0.001741736               0.008912046               0.000393170              -0.001767152               0.003559703               0.001792551               0.000000000               0.000000000               0.000000000               0.000000000              -0.001506866               0.008495537               0.000280204              -0.001627013               0.003374155               0.001747142               0.000000000               0.000000000               0.000000000               0.000000000              -0.001262802               0.008063349               0.000214693              -0.001481466               0.003181578               0.001700112               0.000000000               0.000000000               0.000000000               0.000000000              -0.001032814               0.007633534               0.000176315              -0.001341494               0.002991651               0.001650157               0.000000000               0.000000000               0.000000000               0.000000000              -0.000825858               0.007221730               0.000145881              -0.001212410               0.002811356               0.001598946               0.000000000               0.000000000               0.000000000               0.000000000              -0.000645053               0.006838410               0.000117395              -0.001096693               0.002645012               0.001548318               0.000000000               0.000000000               0.000000000               0.000000000              -0.000486313               0.006495472               0.000089501              -0.000994299               0.002496569               0.001502270               0.000000000               0.000000000               0.000000000               0.000000000              -0.000352975               0.006198458               0.000054774              -0.000907171               0.002368522               0.001461352               0.000000000               0.000000000               0.000000000               0.000000000              -0.000244643               0.005947692               0.000017245              -0.000835200               0.002260944               0.001425744               0.000000000               0.000000000               0.000000000               0.000000000              -0.000159988               0.005741619              -0.000009968              -0.000777696               0.002173086               0.001395390               0.000000000               0.000000000               0.000000000               0.000000000              -0.000095297               0.005578086              -0.000020643              -0.000732995               0.002103675               0.001370680               0.000000000               0.000000000               0.000000000               0.000000000              -0.000045728               0.005454558              -0.000015820              -0.000698966               0.002051157               0.001352190               0.000000000               0.000000000               0.000000000               0.000000000              -0.000034523               0.005384864              -0.000016649              -0.000686053               0.002023621               0.001337568               0.000000000               0.000000000               0.000000000               0.000000000               0.000467578               0.006379397               0.002627100              -0.000622084               0.002333805               0.001711721               0.000000000               0.000000000               0.000000000               0.000000000              -0.001026546               0.007504244               0.002077935              -0.001322983               0.002942383               0.001619400               0.000000000               0.000000000               0.000000000               0.000000000              -0.002182598               0.008739214               0.001422813              -0.001910872               0.003549999               0.001639128               0.000000000               0.000000000               0.000000000               0.000000000              -0.002204415               0.008808311               0.001038165              -0.001927690               0.003578638               0.001650948               0.000000000               0.000000000               0.000000000               0.000000000              -0.001935171               0.008573047               0.000800362              -0.001797316               0.003456759               0.001659443               0.000000000               0.000000000               0.000000000               0.000000000              -0.001607947               0.008220074               0.000642025              -0.001630485               0.003283492               0.001653007               0.000000000               0.000000000               0.000000000               0.000000000              -0.001298972               0.007818794               0.000532416              -0.001464460               0.003094392               0.001629932               0.000000000               0.000000000               0.000000000               0.000000000              -0.001023503               0.007403672               0.000456250              -0.001309270               0.002904289               0.001595020               0.000000000               0.000000000               0.000000000               0.000000000              -0.000780327               0.007002970               0.000391937              -0.001167991               0.002723630               0.001555639               0.000000000               0.000000000               0.000000000               0.000000000              -0.000575663               0.006627722               0.000325394              -0.001044337               0.002557331               0.001512994               0.000000000               0.000000000               0.000000000               0.000000000              -0.000408103               0.006288803               0.000255947              -0.000939137               0.002409292               0.001470155               0.000000000               0.000000000               0.000000000               0.000000000              -0.000277662               0.005994804               0.000181589              -0.000853472               0.002282739               0.001429267               0.000000000               0.000000000               0.000000000               0.000000000              -0.000184619               0.005746263               0.000107322              -0.000787513               0.002177906               0.001390393               0.000000000               0.000000000               0.000000000               0.000000000              -0.000124686               0.005536984               0.000043814              -0.000738879               0.002091936               0.001353057               0.000000000               0.000000000               0.000000000               0.000000000              -0.000100284               0.005359480               0.000000880              -0.000707540               0.002022322               0.001314782               0.000000000               0.000000000               0.000000000               0.000000000              -0.000092895               0.005218390              -0.000013701              -0.000687132               0.001968490               0.001281358               0.000000000               0.000000000               0.000000000               0.000000000              -0.000086058               0.005152308              -0.000014477              -0.000676308               0.001942855               0.001266547               0.000000000               0.000000000               0.000000000               0.000000000              -0.000500624               0.004560055               0.001861964              -0.000757740               0.001772582               0.001014842               0.000000000               0.000000000               0.000000000               0.000000000              -0.001524589               0.006070486               0.001942058              -0.001330529               0.002466984               0.001136455               0.000000000               0.000000000               0.000000000               0.000000000              -0.002441279               0.007678469               0.001820274              -0.001875284               0.003184558               0.001309274               0.000000000               0.000000000               0.000000000               0.000000000              -0.002377892               0.008089733               0.001508232              -0.001902922               0.003330858               0.001427936               0.000000000               0.000000000               0.000000000               0.000000000              -0.002070737               0.008075540               0.001240724              -0.001785965               0.003287141               0.001501177               0.000000000               0.000000000               0.000000000               0.000000000              -0.001714502               0.007877740               0.001031768              -0.001627652               0.003168438               0.001540786               0.000000000               0.000000000               0.000000000               0.000000000              -0.001379071               0.007589986               0.000874669              -0.001465896               0.003018602               0.001552706               0.000000000               0.000000000               0.000000000               0.000000000              -0.001081562               0.007257297               0.000755711              -0.001312745               0.002856656               0.001543912               0.000000000               0.000000000               0.000000000               0.000000000              -0.000823864               0.006914391               0.000653263              -0.001173245               0.002695856               0.001522610               0.000000000               0.000000000               0.000000000               0.000000000              -0.000607988               0.006573874               0.000553216              -0.001049727               0.002541178               0.001491451               0.000000000               0.000000000               0.000000000               0.000000000              -0.000435362               0.006250748               0.000451848              -0.000944602               0.002398429               0.001453827               0.000000000               0.000000000               0.000000000               0.000000000              -0.000303574               0.005957367               0.000347480              -0.000858509               0.002271939               0.001413430               0.000000000               0.000000000               0.000000000               0.000000000              -0.000213403               0.005704937               0.000243168              -0.000793141               0.002166007               0.001372866               0.000000000               0.000000000               0.000000000               0.000000000              -0.000163873               0.005485677               0.000142290              -0.000747160               0.002077594               0.001330434               0.000000000               0.000000000               0.000000000               0.000000000              -0.000153838               0.005294319               0.000058691              -0.000719477               0.002004581               0.001285104               0.000000000               0.000000000               0.000000000               0.000000000              -0.000173598               0.005132754               0.000013293              -0.000706692               0.001946465               0.001239773               0.000000000               0.000000000               0.000000000               0.000000000              -0.000188716               0.005055890               0.000000382              -0.000702753               0.001919531               0.001216778               0.000000000               0.000000000               0.000000000               0.000000000              -0.001769443               0.002907072               0.001095057              -0.001026923               0.001311322               0.000284398               0.000000000               0.000000000               0.000000000               0.000000000              -0.002091501               0.004634581               0.001735282              -0.001363633               0.001999388               0.000635756               0.000000000               0.000000000               0.000000000               0.000000000              -0.002609760               0.006454815               0.002126518              -0.001785508               0.002746752               0.000961244               0.000000000               0.000000000               0.000000000               0.000000000              -0.002466732               0.007181969               0.001949880              -0.001822767               0.003001554               0.001178787               0.000000000               0.000000000               0.000000000               0.000000000              -0.002152699               0.007419694               0.001687667              -0.001734720               0.003051446               0.001316726               0.000000000               0.000000000               0.000000000               0.000000000              -0.001797777               0.007416926               0.001447971              -0.001601279               0.003006043               0.001404765               0.000000000               0.000000000               0.000000000               0.000000000              -0.001453202               0.007280207               0.001250543              -0.001454973               0.002911702               0.001456729               0.000000000               0.000000000               0.000000000               0.000000000              -0.001143757               0.007071963               0.001089652              -0.001312901               0.002794931               0.001482030               0.000000000               0.000000000               0.000000000               0.000000000              -0.000875084               0.006822252               0.000951388              -0.001180935               0.002667706               0.001486771               0.000000000               0.000000000               0.000000000               0.000000000              -0.000642445               0.006547100               0.000826035              -0.001059302               0.002535445               0.001476143               0.000000000               0.000000000               0.000000000               0.000000000              -0.000445747               0.006269043               0.000703727              -0.000950783               0.002406588               0.001455805               0.000000000               0.000000000               0.000000000               0.000000000              -0.000288833               0.005999937               0.000577930              -0.000858302               0.002286060               0.001427757               0.000000000               0.000000000               0.000000000               0.000000000              -0.000178669               0.005748113               0.000447736              -0.000785513               0.002177856               0.001392343               0.000000000               0.000000000               0.000000000               0.000000000              -0.000123218               0.005516139               0.000312654              -0.000735722               0.002083935               0.001348213               0.000000000               0.000000000               0.000000000               0.000000000              -0.000120398               0.005312233               0.000182647              -0.000709176               0.002007119               0.001297942               0.000000000               0.000000000               0.000000000               0.000000000              -0.000172713               0.005141088               0.000077102              -0.000707402               0.001949479               0.001242078               0.000000000               0.000000000               0.000000000               0.000000000              -0.000231648               0.005051671               0.000025238              -0.000718325               0.001923315               0.001204990               0.000000000               0.000000000               0.000000000               0.000000000              -0.003257276               0.001541655               0.000387005              -0.001414183               0.000985273              -0.000428911               0.000000000               0.000000000               0.000000000               0.000000000              -0.002779815               0.003284581               0.001438903              -0.001453000               0.001579182               0.000126181               0.000000000               0.000000000               0.000000000               0.000000000              -0.002731257               0.005088084               0.002241342              -0.001660229               0.002249420               0.000589191               0.000000000               0.000000000               0.000000000               0.000000000              -0.002438282               0.006031016               0.002235479              -0.001668230               0.002566394               0.000898165               0.000000000               0.000000000               0.000000000               0.000000000              -0.002095164               0.006501209               0.002025412              -0.001598334               0.002699825               0.001101491               0.000000000               0.000000000               0.000000000               0.000000000              -0.001749265               0.006701861               0.001790883              -0.001493704               0.002731832               0.001238128               0.000000000               0.000000000               0.000000000               0.000000000              -0.001418087               0.006735351               0.001577191              -0.001373699               0.002702994               0.001329295               0.000000000               0.000000000               0.000000000               0.000000000              -0.001112694               0.006675899               0.001387462              -0.001251745               0.002642526               0.001390780               0.000000000               0.000000000               0.000000000               0.000000000              -0.000842295               0.006551804               0.001221702              -0.001134834               0.002562191               0.001427357               0.000000000               0.000000000               0.000000000               0.000000000              -0.000601653               0.006378735               0.001077786              -0.001022960               0.002467210               0.001444250               0.000000000               0.000000000               0.000000000               0.000000000              -0.000385645               0.006175846               0.000943752              -0.000916596               0.002364127               0.001447531               0.000000000               0.000000000               0.000000000               0.000000000              -0.000199435               0.005961085               0.000806569              -0.000819922               0.002260316               0.001440394               0.000000000               0.000000000               0.000000000               0.000000000              -0.000055725               0.005742847               0.000658024              -0.000738751               0.002160514               0.001421762               0.000000000               0.000000000               0.000000000               0.000000000               0.000032375               0.005529295               0.000497002              -0.000679020               0.002069420               0.001390400               0.000000000               0.000000000               0.000000000               0.000000000               0.000059233               0.005331575               0.000327966              -0.000644233               0.001991918               0.001347685               0.000000000               0.000000000               0.000000000               0.000000000               0.000012621               0.005156290               0.000160199              -0.000639802               0.001932013               0.001292212               0.000000000               0.000000000               0.000000000               0.000000000              -0.000057090               0.005059904               0.000069094              -0.000653895               0.001904583               0.001250688               0.000000000               0.000000000               0.000000000               0.000000000              -0.004855796               0.000531433              -0.000167081              -0.001887351               0.000806256              -0.001081095               0.000000000               0.000000000               0.000000000               0.000000000              -0.003546530               0.002093956               0.001095038              -0.001591690               0.001228540              -0.000363151               0.000000000               0.000000000               0.000000000               0.000000000              -0.002831284               0.003693882               0.002143725              -0.001523464               0.001739102               0.000215638               0.000000000               0.000000000               0.000000000               0.000000000              -0.002323419               0.004733084               0.002293237              -0.001462915               0.002065316               0.000602401               0.000000000               0.000000000               0.000000000               0.000000000              -0.001915663               0.005379812               0.002166274              -0.001390848               0.002256868               0.000866020               0.000000000               0.000000000               0.000000000               0.000000000              -0.001565923               0.005770282               0.001965006              -0.001308504               0.002359576               0.001051071               0.000000000               0.000000000               0.000000000               0.000000000              -0.001254219               0.005981333               0.001760533              -0.001217997               0.002399756               0.001181760               0.000000000               0.000000000               0.000000000               0.000000000              -0.000968124               0.006077736               0.001568139              -0.001122762               0.002400145               0.001277384               0.000000000               0.000000000               0.000000000               0.000000000              -0.000706184               0.006093455               0.001395228              -0.001026499               0.002373297               0.001346799               0.000000000               0.000000000               0.000000000               0.000000000              -0.000465063               0.006044923               0.001246319              -0.000930012               0.002324958               0.001394946               0.000000000               0.000000000               0.000000000               0.000000000              -0.000238015               0.005946580               0.001110941              -0.000832576               0.002259699               0.001427122               0.000000000               0.000000000               0.000000000               0.000000000              -0.000025968               0.005816455               0.000971479              -0.000736793               0.002184397               0.001447603               0.000000000               0.000000000               0.000000000               0.000000000               0.000157826               0.005664355               0.000815911              -0.000648858               0.002104386               0.001455527               0.000000000               0.000000000               0.000000000               0.000000000               0.000303946               0.005498834               0.000645497              -0.000573373               0.002024051               0.001450677               0.000000000               0.000000000               0.000000000               0.000000000               0.000401991               0.005327124               0.000454678              -0.000515143               0.001947404               0.001432262               0.000000000               0.000000000               0.000000000               0.000000000               0.000430458               0.005160602               0.000238651              -0.000483652               0.001881401               0.001397748               0.000000000               0.000000000               0.000000000               0.000000000               0.000410781               0.005073383               0.000120922              -0.000480129               0.001851154               0.001371025               0.000000000               0.000000000               0.000000000               0.000000000              -0.006406005              -0.000130006              -0.000485322              -0.002385999               0.000751992              -0.001634007               0.000000000               0.000000000               0.000000000               0.000000000              -0.004321992               0.001127138               0.000752074              -0.001761637               0.000962918              -0.000798719               0.000000000               0.000000000               0.000000000               0.000000000              -0.002924967               0.002398779               0.001833166              -0.001396708               0.001265153              -0.000131555               0.000000000               0.000000000               0.000000000               0.000000000              -0.002155209               0.003437337               0.002077023              -0.001237868               0.001558389               0.000320521               0.000000000               0.000000000               0.000000000               0.000000000              -0.001655480               0.004192858               0.002032500              -0.001144910               0.001779241               0.000634331               0.000000000               0.000000000               0.000000000               0.000000000              -0.001287562               0.004728582               0.001887451              -0.001073907               0.001934147               0.000860240               0.000000000               0.000000000               0.000000000               0.000000000              -0.000986550               0.005104016               0.001715463              -0.001007956               0.002037306               0.001029350               0.000000000               0.000000000               0.000000000               0.000000000              -0.000720445               0.005352391               0.001544287              -0.000939214               0.002097183               0.001157969               0.000000000               0.000000000               0.000000000               0.000000000              -0.000470890               0.005500568               0.001388954              -0.000864153               0.002121555               0.001257402               0.000000000               0.000000000               0.000000000               0.000000000              -0.000232582               0.005576642               0.001253944              -0.000784297               0.002120294               0.001335997               0.000000000               0.000000000               0.000000000               0.000000000              -0.000001546               0.005593740               0.001130651              -0.000699796               0.002097827               0.001398031               0.000000000               0.000000000               0.000000000               0.000000000               0.000226239               0.005564007               0.001001378              -0.000610660               0.002058204               0.001447543               0.000000000               0.000000000               0.000000000               0.000000000               0.000451877               0.005497777               0.000856362              -0.000517767               0.002005163               0.001487396               0.000000000               0.000000000               0.000000000               0.000000000               0.000669650               0.005401197               0.000697522              -0.000424030               0.001941724               0.001517694               0.000000000               0.000000000               0.000000000               0.000000000               0.000867757               0.005278193               0.000510684              -0.000334365               0.001870835               0.001536470               0.000000000               0.000000000               0.000000000               0.000000000               0.001033076               0.005143488               0.000278327              -0.000255532               0.001799656               0.001544124               0.000000000               0.000000000               0.000000000               0.000000000               0.001127113               0.005084104               0.000153836              -0.000212845               0.001765633               0.001552787               0.000000000               0.000000000               0.000000000               0.000000000              -0.007716921              -0.000508161              -0.000532238              -0.002830323               0.000774049              -0.002056275               0.000000000               0.000000000               0.000000000               0.000000000              -0.005002241               0.000422111               0.000449427              -0.001928602               0.000783566              -0.001145037               0.000000000               0.000000000               0.000000000               0.000000000              -0.003013716               0.001342029               0.001336869              -0.001297895               0.000879968              -0.000417927               0.000000000               0.000000000               0.000000000               0.000000000              -0.001985166               0.002317242               0.001584232              -0.001034091               0.001117102               0.000083011               0.000000000               0.000000000               0.000000000               0.000000000              -0.001383935               0.003128050               0.001589518              -0.000909980               0.001345999               0.000436019               0.000000000               0.000000000               0.000000000               0.000000000              -0.000985830               0.003761003               0.001502747              -0.000839810               0.001533591               0.000693781               0.000000000               0.000000000               0.000000000               0.000000000              -0.000686749               0.004249607               0.001382902              -0.000788730               0.001679431               0.000890701               0.000000000               0.000000000               0.000000000               0.000000000              -0.000431805               0.004619626               0.001256566              -0.000739379               0.001786319               0.001046941               0.000000000               0.000000000               0.000000000               0.000000000              -0.000191517               0.004884868               0.001140162              -0.000682426               0.001855748               0.001173322               0.000000000               0.000000000               0.000000000               0.000000000               0.000042765               0.005065577               0.001036962              -0.000617159               0.001894228               0.001277069               0.000000000               0.000000000               0.000000000               0.000000000               0.000275460               0.005182080               0.000940030              -0.000544462               0.001908830               0.001364368               0.000000000               0.000000000               0.000000000               0.000000000               0.000514387               0.005248553               0.000838544              -0.000463173               0.001903891               0.001440718               0.000000000               0.000000000               0.000000000               0.000000000               0.000774207               0.005269181               0.000727315              -0.000368319               0.001879149               0.001510830               0.000000000               0.000000000               0.000000000               0.000000000               0.001056151               0.005248170               0.000601412              -0.000259964               0.001836027               0.001576063               0.000000000               0.000000000               0.000000000               0.000000000               0.001355093               0.005190742               0.000448898              -0.000140683               0.001777124               0.001636441               0.000000000               0.000000000               0.000000000               0.000000000               0.001674582               0.005104377               0.000249710              -0.000010079               0.001704802               0.001694723               0.000000000               0.000000000               0.000000000               0.000000000               0.001909460               0.005081014               0.000144587               0.000080920               0.001666681               0.001747601               0.000000000               0.000000000               0.000000000               0.000000000              -0.008599588              -0.000685307              -0.000337735              -0.003139180               0.000817952              -0.002321228               0.000000000               0.000000000               0.000000000               0.000000000              -0.005472262              -0.000000698               0.000204165              -0.002052009               0.000683766              -0.001368244               0.000000000               0.000000000               0.000000000               0.000000000              -0.003078782               0.000655066               0.000704077              -0.001236425               0.000630493              -0.000605932               0.000000000               0.000000000               0.000000000               0.000000000              -0.001863525               0.001553375               0.000859156              -0.000892992               0.000815450              -0.000077543               0.000000000               0.000000000               0.000000000               0.000000000              -0.001182321               0.002376184               0.000875318              -0.000740392               0.001038850               0.000298459               0.000000000               0.000000000               0.000000000               0.000000000              -0.000752892               0.003064469               0.000835429              -0.000665392               0.001243277               0.000577885               0.000000000               0.000000000               0.000000000               0.000000000              -0.000444279               0.003620959               0.000774894              -0.000619223               0.001413382               0.000794159               0.000000000               0.000000000               0.000000000               0.000000000              -0.000190243               0.004063172               0.000710025              -0.000579237               0.001547456               0.000968219               0.000000000               0.000000000               0.000000000               0.000000000               0.000040802               0.004405260               0.000648666              -0.000535356               0.001646857               0.001111502               0.000000000               0.000000000               0.000000000               0.000000000               0.000266127               0.004661965               0.000592017              -0.000482947               0.001714955               0.001232008               0.000000000               0.000000000               0.000000000               0.000000000               0.000496200               0.004847319               0.000536936              -0.000419839               0.001755703               0.001335864               0.000000000               0.000000000               0.000000000               0.000000000               0.000744477               0.004977533               0.000481662              -0.000343012               0.001773498               0.001430486               0.000000000               0.000000000               0.000000000               0.000000000               0.001025033               0.005064029               0.000422812              -0.000248616               0.001770865               0.001522249               0.000000000               0.000000000               0.000000000               0.000000000               0.001347730               0.005108546               0.000352260              -0.000133169               0.001747221               0.001614052               0.000000000               0.000000000               0.000000000               0.000000000               0.001722078               0.005110406               0.000265957               0.000006978               0.001701125               0.001708104               0.000000000               0.000000000               0.000000000               0.000000000               0.002161778               0.005069243               0.000151385               0.000177010               0.001630728               0.001807737               0.000000000               0.000000000               0.000000000               0.000000000               0.002510827               0.005076877               0.000091664               0.000306948               0.001589960               0.001896907               0.000000000               0.000000000               0.000000000               0.000000000              -0.008911581              -0.000733560              -0.000000000              -0.003250146               0.000838856              -0.002411289               0.000000000               0.000000000               0.000000000               0.000000000              -0.005640635              -0.000141452              -0.000000000              -0.002097555               0.000652030              -0.001445525               0.000000000               0.000000000               0.000000000               0.000000000              -0.003102215               0.000415068               0.000000000              -0.001215213               0.000543423              -0.000671790               0.000000000               0.000000000               0.000000000               0.000000000              -0.001819488               0.001281935               0.000000000              -0.000842548               0.000708156              -0.000134392               0.000000000               0.000000000               0.000000000               0.000000000              -0.001106568               0.002105653              -0.000000000              -0.000678168               0.000927933               0.000249765               0.000000000               0.000000000               0.000000000               0.000000000              -0.000663279               0.002809446              -0.000000000              -0.000599909               0.001136442               0.000536533               0.000000000               0.000000000               0.000000000               0.000000000              -0.000348747               0.003389691              -0.000000000              -0.000554490               0.001314716               0.000760226               0.000000000               0.000000000               0.000000000               0.000000000              -0.000092880               0.003857315              -0.000000000              -0.000516993               0.001458090               0.000941097               0.000000000               0.000000000               0.000000000               0.000000000               0.000133570               0.004223738               0.000000000              -0.000477877               0.001567191               0.001089314               0.000000000               0.000000000               0.000000000               0.000000000               0.000352020               0.004506466               0.000000000              -0.000431300               0.001645907               0.001214607               0.000000000               0.000000000               0.000000000               0.000000000               0.000580158               0.004719371               0.000000000              -0.000372361               0.001697228               0.001324867               0.000000000               0.000000000               0.000000000               0.000000000               0.000833322               0.004874178              -0.000000000              -0.000296776               0.001723635               0.001426859               0.000000000               0.000000000               0.000000000               0.000000000               0.001119802               0.004983325              -0.000000000              -0.000202989               0.001728755               0.001525766               0.000000000               0.000000000               0.000000000               0.000000000               0.001455189               0.005052916               0.000000000              -0.000085919               0.001712928               0.001627009               0.000000000               0.000000000               0.000000000               0.000000000               0.001857397               0.005079082               0.000000000               0.000061638               0.001672464               0.001734102               0.000000000               0.000000000               0.000000000               0.000000000               0.002342141               0.005056875              -0.000000000               0.000246191               0.001603545               0.001849735               0.000000000               0.000000000               0.000000000               0.000000000               0.002734465               0.005077237               0.000000000               0.000390766               0.001562140               0.001952906               0.000000000               0.000000000               0.000000000               0.000000000               0.001964866               0.021461573               0.000000000              -0.001945867               0.007802409               0.005856541               0.000000000               0.000000000               0.000000000               0.000000000               0.001978790               0.016911239              -0.000000000              -0.001371855               0.006094308               0.004722453               0.000000000               0.000000000               0.000000000               0.000000000               0.002617527               0.013231997              -0.000000000              -0.000672425               0.004634763               0.003962338               0.000000000               0.000000000               0.000000000               0.000000000               0.002531486               0.011180682              -0.000000000              -0.000448277               0.003876282               0.003428005               0.000000000               0.000000000               0.000000000               0.000000000               0.002229600               0.009904825              -0.000000000              -0.000402002               0.003435576               0.003033574               0.000000000               0.000000000               0.000000000               0.000000000               0.001885109               0.009035257              -0.000000000              -0.000422490               0.003152552               0.002730062               0.000000000               0.000000000               0.000000000               0.000000000               0.001548693               0.008393087              -0.000000000              -0.000468375               0.002953793               0.002485418               0.000000000               0.000000000               0.000000000               0.000000000               0.001242075               0.007883129              -0.000000000              -0.000519612               0.002800887               0.002281276               0.000000000               0.000000000               0.000000000               0.000000000               0.000978882               0.007449895              -0.000000000              -0.000564155               0.002671325               0.002107170               0.000000000               0.000000000               0.000000000               0.000000000               0.000754948               0.007061436              -0.000000000              -0.000599572               0.002553646               0.001954074               0.000000000               0.000000000               0.000000000               0.000000000               0.000567036               0.006694932               0.000000000              -0.000624227               0.002439697               0.001815471               0.000000000               0.000000000               0.000000000               0.000000000               0.000409721               0.006331325               0.000000000              -0.000637769               0.002323010               0.001685241               0.000000000               0.000000000               0.000000000               0.000000000               0.000273193               0.005955377               0.000000000              -0.000641973               0.002199097               0.001557124               0.000000000               0.000000000               0.000000000               0.000000000               0.000158444               0.005556475               0.000000000              -0.000635141               0.002063854               0.001428712               0.000000000               0.000000000               0.000000000               0.000000000               0.000072303               0.005120336               0.000000000              -0.000612927               0.001911070               0.001298144               0.000000000               0.000000000               0.000000000               0.000000000               0.000026093               0.004625830              -0.000000000              -0.000568443               0.001731409               0.001162966               0.000000000               0.000000000               0.000000000               0.000000000              -0.000026962               0.004242323              -0.000000000              -0.000540400               0.001594227               0.001053827               0.000000000               0.000000000               0.000000000               0.000000000               0.002040483               0.021026534              -0.001478359              -0.001863131               0.007629818               0.005766687               0.000000000               0.000000000               0.000000000               0.000000000               0.001946849               0.016624443              -0.000761472              -0.001347984               0.005990753               0.004642770               0.000000000               0.000000000               0.000000000               0.000000000               0.002471980               0.013104394              -0.000044750              -0.000711055               0.004605106               0.003894051               0.000000000               0.000000000               0.000000000               0.000000000               0.002343095               0.011136762               0.000257518              -0.000513433               0.003883361               0.003369928               0.000000000               0.000000000               0.000000000               0.000000000               0.002030867               0.009906484               0.000377653              -0.000476734               0.003461040               0.002984305               0.000000000               0.000000000               0.000000000               0.000000000               0.001690776               0.009056824               0.000419492              -0.000498061               0.003184931               0.002686871               0.000000000               0.000000000               0.000000000               0.000000000               0.001373606               0.008424578               0.000427624              -0.000537969               0.002987487               0.002449519               0.000000000               0.000000000               0.000000000               0.000000000               0.001091679               0.007920812               0.000418557              -0.000580721               0.002833818               0.002253097               0.000000000               0.000000000               0.000000000               0.000000000               0.000845459               0.007488388               0.000401999              -0.000619000               0.002702438               0.002083438               0.000000000               0.000000000               0.000000000               0.000000000               0.000637224               0.007101007               0.000382182              -0.000648665               0.002583201               0.001934535               0.000000000               0.000000000               0.000000000               0.000000000               0.000466522               0.006733995               0.000358317              -0.000666802               0.002466910               0.001800108               0.000000000               0.000000000               0.000000000               0.000000000               0.000326654               0.006371039               0.000331973              -0.000673883               0.002348286               0.001674403               0.000000000               0.000000000               0.000000000               0.000000000               0.000211872               0.006003514               0.000303168              -0.000670985               0.002224813               0.001553828               0.000000000               0.000000000               0.000000000               0.000000000               0.000121536               0.005622614               0.000266800              -0.000657249               0.002093269               0.001436020               0.000000000               0.000000000               0.000000000               0.000000000               0.000056546               0.005218384               0.000213545              -0.000631092               0.001949808               0.001318716               0.000000000               0.000000000               0.000000000               0.000000000               0.000021192               0.004776875               0.000126546              -0.000589161               0.001788663               0.001199502               0.000000000               0.000000000               0.000000000               0.000000000              -0.000023072               0.004446685               0.000078177              -0.000564486               0.001670375               0.001105889               0.000000000               0.000000000               0.000000000               0.000000000               0.002227987               0.019783913              -0.002753798              -0.001637491               0.007140402               0.005502911               0.000000000               0.000000000               0.000000000               0.000000000               0.001839007               0.015813198              -0.001417380              -0.001287019               0.005700020               0.004413000               0.000000000               0.000000000               0.000000000               0.000000000               0.002051387               0.012746978              -0.000094174              -0.000824100               0.004523650               0.003699550               0.000000000               0.000000000               0.000000000               0.000000000               0.001811158               0.011007345               0.000447511              -0.000696732               0.003901322               0.003204590               0.000000000               0.000000000               0.000000000               0.000000000               0.001483414               0.009895477               0.000656127              -0.000680653               0.003525344               0.002844691               0.000000000               0.000000000               0.000000000               0.000000000               0.001171046               0.009108137               0.000723807              -0.000699373               0.003269140               0.002569766               0.000000000               0.000000000               0.000000000               0.000000000               0.000901840               0.008504713               0.000732940              -0.000724897               0.003076508               0.002351611               0.000000000               0.000000000               0.000000000               0.000000000               0.000673394               0.008007175               0.000711461              -0.000748372               0.002918489               0.002170117               0.000000000               0.000000000               0.000000000               0.000000000               0.000485151               0.007577142               0.000679458              -0.000765209               0.002780759               0.002015549               0.000000000               0.000000000               0.000000000               0.000000000               0.000336974               0.007192209               0.000643639              -0.000772659               0.002654932               0.001882273               0.000000000               0.000000000               0.000000000               0.000000000               0.000222138               0.006832927               0.000599171              -0.000770812               0.002534557               0.001763745               0.000000000               0.000000000               0.000000000               0.000000000               0.000137772               0.006488368               0.000551432              -0.000759380               0.002415894               0.001656514               0.000000000               0.000000000               0.000000000               0.000000000               0.000076512               0.006151874               0.000498064              -0.000740290               0.002297367               0.001557077               0.000000000               0.000000000               0.000000000               0.000000000               0.000033566               0.005820139               0.000429945              -0.000714928               0.002178336               0.001463408               0.000000000               0.000000000               0.000000000               0.000000000               0.000008493               0.005493927               0.000335260              -0.000683554               0.002059142               0.001375588               0.000000000               0.000000000               0.000000000               0.000000000              -0.000000554               0.005175452               0.000194090              -0.000647138               0.001940846               0.001293708               0.000000000               0.000000000               0.000000000               0.000000000              -0.000020444               0.004965394               0.000115901              -0.000628339               0.001864561               0.001236222               0.000000000               0.000000000               0.000000000               0.000000000               0.002423513               0.017895391              -0.003668083              -0.001328106               0.006407772               0.005079666               0.000000000               0.000000000               0.000000000               0.000000000               0.001624855               0.014602148              -0.001894990              -0.001215946               0.005272649               0.004056703               0.000000000               0.000000000               0.000000000               0.000000000               0.001404753               0.012216214              -0.000163303              -0.001000242               0.004405445               0.003405203               0.000000000               0.000000000               0.000000000               0.000000000               0.001039039               0.010802519               0.000512820              -0.000960673               0.003921028               0.002960355               0.000000000               0.000000000               0.000000000               0.000000000               0.000717215               0.009852863               0.000761095              -0.000962650               0.003605138               0.002642488               0.000000000               0.000000000               0.000000000               0.000000000               0.000461149               0.009148579               0.000833294              -0.000970639               0.003373042               0.002402403               0.000000000               0.000000000               0.000000000               0.000000000               0.000266623               0.008584037               0.000834763              -0.000973019               0.003185657               0.002212638               0.000000000               0.000000000               0.000000000               0.000000000               0.000125759               0.008102718               0.000803635              -0.000965678               0.003022771               0.002057094               0.000000000               0.000000000               0.000000000               0.000000000               0.000029864               0.007682526               0.000762011              -0.000949114               0.002877188               0.001928073               0.000000000               0.000000000               0.000000000               0.000000000              -0.000029871               0.007302998               0.000714679              -0.000924074               0.002742333               0.001818259               0.000000000               0.000000000               0.000000000               0.000000000              -0.000063748               0.006954675               0.000657128              -0.000893238               0.002615948               0.001722710               0.000000000               0.000000000               0.000000000               0.000000000              -0.000078953               0.006631863               0.000592548              -0.000858588               0.002496795               0.001638207               0.000000000               0.000000000               0.000000000               0.000000000              -0.000082593               0.006333460               0.000519851              -0.000822653               0.002385350               0.001562697               0.000000000               0.000000000               0.000000000               0.000000000              -0.000074624               0.006061087               0.000432145              -0.000785618               0.002282215               0.001496597               0.000000000               0.000000000               0.000000000               0.000000000              -0.000053819               0.005818339               0.000321056              -0.000747473               0.002188584               0.001441112               0.000000000               0.000000000               0.000000000               0.000000000              -0.000026808               0.005616100               0.000177024              -0.000712064               0.002109369               0.001397305               0.000000000               0.000000000               0.000000000               0.000000000              -0.000021606               0.005504863               0.000100964              -0.000696208               0.002067006               0.001370797               0.000000000               0.000000000               0.000000000               0.000000000               0.002502682               0.015581745              -0.004150930              -0.001009213               0.005530266               0.004521053               0.000000000               0.000000000               0.000000000               0.000000000               0.001280579               0.013152228              -0.002179743              -0.001163810               0.004771969               0.003608159               0.000000000               0.000000000               0.000000000               0.000000000               0.000613141               0.011582743              -0.000280086              -0.001217912               0.004266846               0.003048934               0.000000000               0.000000000               0.000000000               0.000000000               0.000164058               0.010532418               0.000420701              -0.001255027               0.003929113               0.002674086               0.000000000               0.000000000               0.000000000               0.000000000              -0.000109610               0.009751810               0.000666182              -0.001260077               0.003670596               0.002410520               0.000000000               0.000000000               0.000000000               0.000000000              -0.000267382               0.009129843               0.000732957              -0.001241496               0.003457082               0.002215587               0.000000000               0.000000000               0.000000000               0.000000000              -0.000354152               0.008607090               0.000728275              -0.001208690               0.003271898               0.002063208               0.000000000               0.000000000               0.000000000               0.000000000              -0.000390304               0.008150963               0.000693082              -0.001165231               0.003105371               0.001940140               0.000000000               0.000000000               0.000000000               0.000000000              -0.000388606               0.007744478               0.000648957              -0.001113784               0.002952728               0.001838944               0.000000000               0.000000000               0.000000000               0.000000000              -0.000359767               0.007374578               0.000597843              -0.001056732               0.002810412               0.001753680               0.000000000               0.000000000               0.000000000               0.000000000              -0.000317286               0.007031760               0.000538316              -0.000997950               0.002676546               0.001678597               0.000000000               0.000000000               0.000000000               0.000000000              -0.000269814               0.006720988               0.000475329              -0.000941301               0.002554074               0.001612773               0.000000000               0.000000000               0.000000000               0.000000000              -0.000220245               0.006448593               0.000407566              -0.000888664               0.002445731               0.001557067               0.000000000               0.000000000               0.000000000               0.000000000              -0.000167821               0.006214696               0.000326475              -0.000839768               0.002351467               0.001511699               0.000000000               0.000000000               0.000000000               0.000000000              -0.000110739               0.006022514               0.000230227              -0.000794339               0.002272265               0.001477925               0.000000000               0.000000000               0.000000000               0.000000000              -0.000054811               0.005878747               0.000119230              -0.000755396               0.002211361               0.001455965               0.000000000               0.000000000               0.000000000               0.000000000              -0.000035818               0.005806348               0.000065243              -0.000739223               0.002181838               0.001442614               0.000000000               0.000000000               0.000000000               0.000000000               0.002364365               0.013086956              -0.004207114              -0.000749235               0.004612019               0.003862784               0.000000000               0.000000000               0.000000000               0.000000000               0.000808389               0.011621900              -0.002293596              -0.001149590               0.004257124               0.003107534               0.000000000               0.000000000               0.000000000               0.000000000              -0.000226934               0.010903112              -0.000466046              -0.001447986               0.004116996               0.002669010               0.000000000               0.000000000               0.000000000               0.000000000              -0.000678652               0.010194165               0.000176340              -0.001528761               0.003907608               0.002378847               0.000000000               0.000000000               0.000000000               0.000000000              -0.000846651               0.009563018               0.000399867              -0.001512868               0.003691930               0.002179062               0.000000000               0.000000000               0.000000000               0.000000000              -0.000878816               0.009014081               0.000462423              -0.001456313               0.003490101               0.002033788               0.000000000               0.000000000               0.000000000               0.000000000              -0.000844670               0.008532530               0.000461928              -0.001383314               0.003305253               0.001921939               0.000000000               0.000000000               0.000000000               0.000000000              -0.000770093               0.008098596               0.000437625              -0.001301106               0.003133207               0.001832101               0.000000000               0.000000000               0.000000000               0.000000000              -0.000677391               0.007697454               0.000407422              -0.001216200               0.002971192               0.001754992               0.000000000               0.000000000               0.000000000               0.000000000              -0.000576364               0.007326516               0.000370263              -0.001131948               0.002819464               0.001687515               0.000000000               0.000000000               0.000000000               0.000000000              -0.000474460               0.006986592               0.000325843              -0.001051244               0.002679255               0.001628011               0.000000000               0.000000000               0.000000000               0.000000000              -0.000381806               0.006683015               0.000284609              -0.000978552               0.002553833               0.001575282               0.000000000               0.000000000               0.000000000               0.000000000              -0.000295104               0.006420625               0.000242579              -0.000913240               0.002444600               0.001531360               0.000000000               0.000000000               0.000000000               0.000000000              -0.000213350               0.006201640               0.000190922              -0.000855209               0.002352262               0.001497053               0.000000000               0.000000000               0.000000000               0.000000000              -0.000136446               0.006027673               0.000128972              -0.000804624               0.002277412               0.001472788               0.000000000               0.000000000               0.000000000               0.000000000              -0.000065361               0.005897154               0.000062910              -0.000761653               0.002219583               0.001457930               0.000000000               0.000000000               0.000000000               0.000000000              -0.000042463               0.005826682               0.000036957              -0.000744257               0.002190294               0.001446037               0.000000000               0.000000000               0.000000000               0.000000000               0.001947866               0.010618537              -0.003905852              -0.000596870               0.003738432               0.003141563               0.000000000               0.000000000               0.000000000               0.000000000               0.000232083               0.010125518              -0.002283418              -0.001178657               0.003768024               0.002589367               0.000000000               0.000000000               0.000000000               0.000000000              -0.001019799               0.010195889              -0.000726183              -0.001656907               0.003950898               0.002293991               0.000000000               0.000000000               0.000000000               0.000000000              -0.001382765               0.009777024              -0.000183968              -0.001740661               0.003839196               0.002098535               0.000000000               0.000000000               0.000000000               0.000000000              -0.001405269               0.009277707               0.000019918              -0.001686685               0.003654766               0.001968081               0.000000000               0.000000000               0.000000000               0.000000000              -0.001296490               0.008800608               0.000095968              -0.001586256               0.003462258               0.001876003               0.000000000               0.000000000               0.000000000               0.000000000              -0.001140606               0.008352893               0.000122543              -0.001471835               0.003274881               0.001803046               0.000000000               0.000000000               0.000000000               0.000000000              -0.000975007               0.007922986               0.000125473              -0.001355998               0.003092968               0.001736971               0.000000000               0.000000000               0.000000000               0.000000000              -0.000816022               0.007514779               0.000121322              -0.001245353               0.002920019               0.001674666               0.000000000               0.000000000               0.000000000               0.000000000              -0.000666080               0.007134944               0.000112636              -0.001141645               0.002758839               0.001617194               0.000000000               0.000000000               0.000000000               0.000000000              -0.000526196               0.006793139               0.000098767              -0.001046463               0.002613178               0.001566715               0.000000000               0.000000000               0.000000000               0.000000000              -0.000403326               0.006492506               0.000090890              -0.000962808               0.002485083               0.001522275               0.000000000               0.000000000               0.000000000               0.000000000              -0.000297352               0.006235147               0.000086641              -0.000890898               0.002375327               0.001484429               0.000000000               0.000000000               0.000000000               0.000000000              -0.000203447               0.006023380               0.000075364              -0.000829213               0.002284178               0.001454964               0.000000000               0.000000000               0.000000000               0.000000000              -0.000122345               0.005854840               0.000052521              -0.000777732               0.002210838               0.001433105               0.000000000               0.000000000               0.000000000               0.000000000              -0.000057131               0.005724894               0.000024122              -0.000737034               0.002153957               0.001416923               0.000000000               0.000000000               0.000000000               0.000000000              -0.000042969               0.005648210               0.000018659              -0.000722138               0.002123431               0.001401293               0.000000000               0.000000000               0.000000000               0.000000000               0.001279102               0.008326168              -0.003342855              -0.000561110               0.002962397               0.002401287               0.000000000               0.000000000               0.000000000               0.000000000              -0.000410583               0.008743628              -0.002195154              -0.001246920               0.003330153               0.002083233               0.000000000               0.000000000               0.000000000               0.000000000              -0.001685839               0.009463361              -0.001048013              -0.001815105               0.003759457               0.001944352               0.000000000               0.000000000               0.000000000               0.000000000              -0.001883228               0.009283003              -0.000602570              -0.001866581               0.003716497               0.001849916               0.000000000               0.000000000               0.000000000               0.000000000              -0.001741736               0.008912046              -0.000393170              -0.001767152               0.003559703               0.001792551               0.000000000               0.000000000               0.000000000               0.000000000              -0.001506866               0.008495537              -0.000280204              -0.001627013               0.003374155               0.001747142               0.000000000               0.000000000               0.000000000               0.000000000              -0.001262802               0.008063349              -0.000214693              -0.001481466               0.003181578               0.001700112               0.000000000               0.000000000               0.000000000               0.000000000              -0.001032814               0.007633534              -0.000176315              -0.001341494               0.002991651               0.001650157               0.000000000               0.000000000               0.000000000               0.000000000              -0.000825858               0.007221730              -0.000145881              -0.001212410               0.002811356               0.001598946               0.000000000               0.000000000               0.000000000               0.000000000              -0.000645053               0.006838410              -0.000117395              -0.001096693               0.002645012               0.001548318               0.000000000               0.000000000               0.000000000               0.000000000              -0.000486313               0.006495472              -0.000089501              -0.000994299               0.002496569               0.001502270               0.000000000               0.000000000               0.000000000               0.000000000              -0.000352975               0.006198458              -0.000054774              -0.000907171               0.002368522               0.001461352               0.000000000               0.000000000               0.000000000               0.000000000              -0.000244643               0.005947692              -0.000017245              -0.000835200               0.002260944               0.001425744               0.000000000               0.000000000               0.000000000               0.000000000              -0.000159988               0.005741619               0.000009968              -0.000777696               0.002173086               0.001395390               0.000000000               0.000000000               0.000000000               0.000000000              -0.000095297               0.005578086               0.000020643              -0.000732995               0.002103675               0.001370680               0.000000000               0.000000000               0.000000000               0.000000000              -0.000045728               0.005454558               0.000015820              -0.000698966               0.002051157               0.001352190               0.000000000               0.000000000               0.000000000               0.000000000              -0.000034523               0.005384864               0.000016649              -0.000686053               0.002023621               0.001337568               0.000000000               0.000000000               0.000000000               0.000000000               0.000467578               0.006379397              -0.002627100              -0.000622084               0.002333805               0.001711721               0.000000000               0.000000000               0.000000000               0.000000000              -0.001026546               0.007504244              -0.002077935              -0.001322983               0.002942383               0.001619400               0.000000000               0.000000000               0.000000000               0.000000000              -0.002182598               0.008739214              -0.001422813              -0.001910872               0.003549999               0.001639128               0.000000000               0.000000000               0.000000000               0.000000000              -0.002204415               0.008808311              -0.001038165              -0.001927690               0.003578638               0.001650948               0.000000000               0.000000000               0.000000000               0.000000000              -0.001935171               0.008573047              -0.000800362              -0.001797316               0.003456759               0.001659443               0.000000000               0.000000000               0.000000000               0.000000000              -0.001607947               0.008220074              -0.000642025              -0.001630485               0.003283492               0.001653007               0.000000000               0.000000000               0.000000000               0.000000000              -0.001298972               0.007818794              -0.000532416              -0.001464460               0.003094392               0.001629932               0.000000000               0.000000000               0.000000000               0.000000000              -0.001023503               0.007403672              -0.000456250              -0.001309270               0.002904289               0.001595020               0.000000000               0.000000000               0.000000000               0.000000000              -0.000780327               0.007002970              -0.000391937              -0.001167991               0.002723630               0.001555639               0.000000000               0.000000000               0.000000000               0.000000000              -0.000575663               0.006627722              -0.000325394              -0.001044337               0.002557331               0.001512994               0.000000000               0.000000000               0.000000000               0.000000000              -0.000408103               0.006288803              -0.000255947              -0.000939137               0.002409292               0.001470155               0.000000000               0.000000000               0.000000000               0.000000000              -0.000277662               0.005994804              -0.000181589              -0.000853472               0.002282739               0.001429267               0.000000000               0.000000000               0.000000000               0.000000000              -0.000184619               0.005746263              -0.000107322              -0.000787513               0.002177906               0.001390393               0.000000000               0.000000000               0.000000000               0.000000000              -0.000124686               0.005536984              -0.000043814              -0.000738879               0.002091936               0.001353057               0.000000000               0.000000000               0.000000000               0.000000000              -0.000100284               0.005359480              -0.000000880              -0.000707540               0.002022322               0.001314782               0.000000000               0.000000000               0.000000000               0.000000000              -0.000092895               0.005218390               0.000013701              -0.000687132               0.001968490               0.001281358               0.000000000               0.000000000               0.000000000               0.000000000              -0.000086058               0.005152308               0.000014477              -0.000676308               0.001942855               0.001266547               0.000000000               0.000000000               0.000000000               0.000000000              -0.000500624               0.004560055              -0.001861964              -0.000757740               0.001772582               0.001014842               0.000000000               0.000000000               0.000000000               0.000000000              -0.001524589               0.006070486              -0.001942058              -0.001330529               0.002466984               0.001136455               0.000000000               0.000000000               0.000000000               0.000000000              -0.002441279               0.007678469              -0.001820274              -0.001875284               0.003184558               0.001309274               0.000000000               0.000000000               0.000000000               0.000000000              -0.002377892               0.008089733              -0.001508232              -0.001902922               0.003330858               0.001427936               0.000000000               0.000000000               0.000000000               0.000000000              -0.002070737               0.008075540              -0.001240724              -0.001785965               0.003287141               0.001501177               0.000000000               0.000000000               0.000000000               0.000000000              -0.001714502               0.007877740              -0.001031768              -0.001627652               0.003168438               0.001540786               0.000000000               0.000000000               0.000000000               0.000000000              -0.001379071               0.007589986              -0.000874669              -0.001465896               0.003018602               0.001552706               0.000000000               0.000000000               0.000000000               0.000000000              -0.001081562               0.007257297              -0.000755711              -0.001312745               0.002856656               0.001543912               0.000000000               0.000000000               0.000000000               0.000000000              -0.000823864               0.006914391              -0.000653263              -0.001173245               0.002695856               0.001522610               0.000000000               0.000000000               0.000000000               0.000000000              -0.000607988               0.006573874              -0.000553216              -0.001049727               0.002541178               0.001491451               0.000000000               0.000000000               0.000000000               0.000000000              -0.000435362               0.006250748              -0.000451848              -0.000944602               0.002398429               0.001453827               0.000000000               0.000000000               0.000000000               0.000000000              -0.000303574               0.005957367              -0.000347480              -0.000858509               0.002271939               0.001413430               0.000000000               0.000000000               0.000000000               0.000000000              -0.000213403               0.005704937              -0.000243168              -0.000793141               0.002166007               0.001372866               0.000000000               0.000000000               0.000000000               0.000000000              -0.000163873               0.005485677              -0.000142290              -0.000747160               0.002077594               0.001330434               0.000000000               0.000000000               0.000000000               0.000000000              -0.000153838               0.005294319              -0.000058691              -0.000719477               0.002004581               0.001285104               0.000000000               0.000000000               0.000000000               0.000000000              -0.000173598               0.005132754              -0.000013293              -0.000706692               0.001946465               0.001239773               0.000000000               0.000000000               0.000000000               0.000000000              -0.000188716               0.005055890              -0.000000382              -0.000702753               0.001919531               0.001216778               0.000000000               0.000000000               0.000000000               0.000000000              -0.001769443               0.002907072              -0.001095057              -0.001026923               0.001311322               0.000284398               0.000000000               0.000000000               0.000000000               0.000000000              -0.002091501               0.004634581              -0.001735282              -0.001363633               0.001999388               0.000635756               0.000000000               0.000000000               0.000000000               0.000000000              -0.002609760               0.006454815              -0.002126518              -0.001785508               0.002746752               0.000961244               0.000000000               0.000000000               0.000000000               0.000000000              -0.002466732               0.007181969              -0.001949880              -0.001822767               0.003001554               0.001178787               0.000000000               0.000000000               0.000000000               0.000000000              -0.002152699               0.007419694              -0.001687667              -0.001734720               0.003051446               0.001316726               0.000000000               0.000000000               0.000000000               0.000000000              -0.001797777               0.007416926              -0.001447971              -0.001601279               0.003006043               0.001404765               0.000000000               0.000000000               0.000000000               0.000000000              -0.001453202               0.007280207              -0.001250543              -0.001454973               0.002911702               0.001456729               0.000000000               0.000000000               0.000000000               0.000000000              -0.001143757               0.007071963              -0.001089652              -0.001312901               0.002794931               0.001482030               0.000000000               0.000000000               0.000000000               0.000000000              -0.000875084               0.006822252              -0.000951388              -0.001180935               0.002667706               0.001486771               0.000000000               0.000000000               0.000000000               0.000000000              -0.000642445               0.006547100              -0.000826035              -0.001059302               0.002535445               0.001476143               0.000000000               0.000000000               0.000000000               0.000000000              -0.000445747               0.006269043              -0.000703727              -0.000950783               0.002406588               0.001455805               0.000000000               0.000000000               0.000000000               0.000000000              -0.000288833               0.005999937              -0.000577930              -0.000858302               0.002286060               0.001427757               0.000000000               0.000000000               0.000000000               0.000000000              -0.000178669               0.005748113              -0.000447736              -0.000785513               0.002177856               0.001392343               0.000000000               0.000000000               0.000000000               0.000000000              -0.000123218               0.005516139              -0.000312654              -0.000735722               0.002083935               0.001348213               0.000000000               0.000000000               0.000000000               0.000000000              -0.000120398               0.005312233              -0.000182647              -0.000709176               0.002007119               0.001297942               0.000000000               0.000000000               0.000000000               0.000000000              -0.000172713               0.005141088              -0.000077102              -0.000707402               0.001949479               0.001242078               0.000000000               0.000000000               0.000000000               0.000000000              -0.000231648               0.005051671              -0.000025238              -0.000718325               0.001923315               0.001204990               0.000000000               0.000000000               0.000000000               0.000000000              -0.003257276               0.001541655              -0.000387005              -0.001414183               0.000985273              -0.000428911               0.000000000               0.000000000               0.000000000               0.000000000              -0.002779815               0.003284581              -0.001438903              -0.001453000               0.001579182               0.000126181               0.000000000               0.000000000               0.000000000               0.000000000              -0.002731257               0.005088084              -0.002241342              -0.001660229               0.002249420               0.000589191               0.000000000               0.000000000               0.000000000               0.000000000              -0.002438282               0.006031016              -0.002235479              -0.001668230               0.002566394               0.000898165               0.000000000               0.000000000               0.000000000               0.000000000              -0.002095164               0.006501209              -0.002025412              -0.001598334               0.002699825               0.001101491               0.000000000               0.000000000               0.000000000               0.000000000              -0.001749265               0.006701861              -0.001790883              -0.001493704               0.002731832               0.001238128               0.000000000               0.000000000               0.000000000               0.000000000              -0.001418087               0.006735351              -0.001577191              -0.001373699               0.002702994               0.001329295               0.000000000               0.000000000               0.000000000               0.000000000              -0.001112694               0.006675899              -0.001387462              -0.001251745               0.002642526               0.001390780               0.000000000               0.000000000               0.000000000               0.000000000              -0.000842295               0.006551804              -0.001221702              -0.001134834               0.002562191               0.001427357               0.000000000               0.000000000               0.000000000               0.000000000              -0.000601653               0.006378735              -0.001077786              -0.001022960               0.002467210               0.001444250               0.000000000               0.000000000               0.000000000               0.000000000              -0.000385645               0.006175846              -0.000943752              -0.000916596               0.002364127               0.001447531               0.000000000               0.000000000               0.000000000               0.000000000              -0.000199435               0.005961085              -0.000806569              -0.000819922               0.002260316               0.001440394               0.000000000               0.000000000               0.000000000               0.000000000              -0.000055725               0.005742847              -0.000658024              -0.000738751               0.002160514               0.001421762               0.000000000               0.000000000               0.000000000               0.000000000               0.000032375               0.005529295              -0.000497002              -0.000679020               0.002069420               0.001390400               0.000000000               0.000000000               0.000000000               0.000000000               0.000059233               0.005331575              -0.000327966              -0.000644233               0.001991918               0.001347685               0.000000000               0.000000000               0.000000000               0.000000000               0.000012621               0.005156290              -0.000160199              -0.000639802               0.001932013               0.001292212               0.000000000               0.000000000               0.000000000               0.000000000              -0.000057090               0.005059904              -0.000069094              -0.000653895               0.001904583               0.001250688               0.000000000               0.000000000               0.000000000               0.000000000              -0.004855796               0.000531433               0.000167081              -0.001887351               0.000806256              -0.001081095               0.000000000               0.000000000               0.000000000               0.000000000              -0.003546530               0.002093956              -0.001095038              -0.001591690               0.001228540              -0.000363151               0.000000000               0.000000000               0.000000000               0.000000000              -0.002831284               0.003693882              -0.002143725              -0.001523464               0.001739102               0.000215638               0.000000000               0.000000000               0.000000000               0.000000000              -0.002323419               0.004733084              -0.002293237              -0.001462915               0.002065316               0.000602401               0.000000000               0.000000000               0.000000000               0.000000000              -0.001915663               0.005379812              -0.002166274              -0.001390848               0.002256868               0.000866020               0.000000000               0.000000000               0.000000000               0.000000000              -0.001565923               0.005770282              -0.001965006              -0.001308504               0.002359576               0.001051071               0.000000000               0.000000000               0.000000000               0.000000000              -0.001254219               0.005981333              -0.001760533              -0.001217997               0.002399756               0.001181760               0.000000000               0.000000000               0.000000000               0.000000000              -0.000968124               0.006077736              -0.001568139              -0.001122762               0.002400145               0.001277384               0.000000000               0.000000000               0.000000000               0.000000000              -0.000706184               0.006093455              -0.001395228              -0.001026499               0.002373297               0.001346799               0.000000000               0.000000000               0.000000000               0.000000000              -0.000465063               0.006044923              -0.001246319              -0.000930012               0.002324958               0.001394946               0.000000000               0.000000000               0.000000000               0.000000000              -0.000238015               0.005946580              -0.001110941              -0.000832576               0.002259699               0.001427122               0.000000000               0.000000000               0.000000000               0.000000000              -0.000025968               0.005816455              -0.000971479              -0.000736793               0.002184397               0.001447603               0.000000000               0.000000000               0.000000000               0.000000000               0.000157826               0.005664355              -0.000815911              -0.000648858               0.002104386               0.001455527               0.000000000               0.000000000               0.000000000               0.000000000               0.000303946               0.005498834              -0.000645497              -0.000573373               0.002024051               0.001450677               0.000000000               0.000000000               0.000000000               0.000000000               0.000401991               0.005327124              -0.000454678              -0.000515143               0.001947404               0.001432262               0.000000000               0.000000000               0.000000000               0.000000000               0.000430458               0.005160602              -0.000238651              -0.000483652               0.001881401               0.001397748               0.000000000               0.000000000               0.000000000               0.000000000               0.000410781               0.005073383              -0.000120922              -0.000480129               0.001851154               0.001371025               0.000000000               0.000000000               0.000000000               0.000000000              -0.006406005              -0.000130006               0.000485322              -0.002385999               0.000751992              -0.001634007               0.000000000               0.000000000               0.000000000               0.000000000              -0.004321992               0.001127138              -0.000752074              -0.001761637               0.000962918              -0.000798719               0.000000000               0.000000000               0.000000000               0.000000000              -0.002924967               0.002398779              -0.001833166              -0.001396708               0.001265153              -0.000131555               0.000000000               0.000000000               0.000000000               0.000000000              -0.002155209               0.003437337              -0.002077023              -0.001237868               0.001558389               0.000320521               0.000000000               0.000000000               0.000000000               0.000000000              -0.001655480               0.004192858              -0.002032500              -0.001144910               0.001779241               0.000634331               0.000000000               0.000000000               0.000000000               0.000000000              -0.001287562               0.004728582              -0.001887451              -0.001073907               0.001934147               0.000860240               0.000000000               0.000000000               0.000000000               0.000000000              -0.000986550               0.005104016              -0.001715463              -0.001007956               0.002037306               0.001029350               0.000000000               0.000000000               0.000000000               0.000000000              -0.000720445               0.005352391              -0.001544287              -0.000939214               0.002097183               0.001157969               0.000000000               0.000000000               0.000000000               0.000000000              -0.000470890               0.005500568              -0.001388954              -0.000864153               0.002121555               0.001257402               0.000000000               0.000000000               0.000000000               0.000000000              -0.000232582               0.005576642              -0.001253944              -0.000784297               0.002120294               0.001335997               0.000000000               0.000000000               0.000000000               0.000000000              -0.000001546               0.005593740              -0.001130651              -0.000699796               0.002097827               0.001398031               0.000000000               0.000000000               0.000000000               0.000000000               0.000226239               0.005564007              -0.001001378              -0.000610660               0.002058204               0.001447543               0.000000000               0.000000000               0.000000000               0.000000000               0.000451877               0.005497777              -0.000856362              -0.000517767               0.002005163               0.001487396               0.000000000               0.000000000               0.000000000               0.000000000               0.000669650               0.005401197              -0.000697522              -0.000424030               0.001941724               0.001517694               0.000000000               0.000000000               0.000000000               0.000000000               0.000867757               0.005278193              -0.000510684              -0.000334365               0.001870835               0.001536470               0.000000000               0.000000000               0.000000000               0.000000000               0.001033076               0.005143488              -0.000278327              -0.000255532               0.001799656               0.001544124               0.000000000               0.000000000               0.000000000               0.000000000               0.001127113               0.005084104              -0.000153836              -0.000212845               0.001765633               0.001552787               0.000000000               0.000000000               0.000000000               0.000000000              -0.007716921              -0.000508161               0.000532238              -0.002830323               0.000774049              -0.002056275               0.000000000               0.000000000               0.000000000               0.000000000              -0.005002241               0.000422111              -0.000449427              -0.001928602               0.000783566              -0.001145037               0.000000000               0.000000000               0.000000000               0.000000000              -0.003013716               0.001342029              -0.001336869              -0.001297895               0.000879968              -0.000417927               0.000000000               0.000000000               0.000000000               0.000000000              -0.001985166               0.002317242              -0.001584232              -0.001034091               0.001117102               0.000083011               0.000000000               0.000000000               0.000000000               0.000000000              -0.001383935               0.003128050              -0.001589518              -0.000909980               0.001345999               0.000436019               0.000000000               0.000000000               0.000000000               0.000000000              -0.000985830               0.003761003              -0.001502747              -0.000839810               0.001533591               0.000693781               0.000000000               0.000000000               0.000000000               0.000000000              -0.000686749               0.004249607              -0.001382902              -0.000788730               0.001679431               0.000890701               0.000000000               0.000000000               0.000000000               0.000000000              -0.000431805               0.004619626              -0.001256566              -0.000739379               0.001786319               0.001046941               0.000000000               0.000000000               0.000000000               0.000000000              -0.000191517               0.004884868              -0.001140162              -0.000682426               0.001855748               0.001173322               0.000000000               0.000000000               0.000000000               0.000000000               0.000042765               0.005065577              -0.001036962              -0.000617159               0.001894228               0.001277069               0.000000000               0.000000000               0.000000000               0.000000000               0.000275460               0.005182080              -0.000940030              -0.000544462               0.001908830               0.001364368               0.000000000               0.000000000               0.000000000               0.000000000               0.000514387               0.005248553              -0.000838544              -0.000463173               0.001903891               0.001440718               0.000000000               0.000000000               0.000000000               0.000000000               0.000774207               0.005269181              -0.000727315              -0.000368319               0.001879149               0.001510830               0.000000000               0.000000000               0.000000000               0.000000000               0.001056151               0.005248170              -0.000601412              -0.000259964               0.001836027               0.001576063               0.000000000               0.000000000               0.000000000               0.000000000               0.001355093               0.005190742              -0.000448898              -0.000140683               0.001777124               0.001636441               0.000000000               0.000000000               0.000000000               0.000000000               0.001674582               0.005104377              -0.000249710              -0.000010079               0.001704802               0.001694723               0.000000000               0.000000000               0.000000000               0.000000000               0.001909460               0.005081014              -0.000144587               0.000080920               0.001666681               0.001747601               0.000000000               0.000000000               0.000000000               0.000000000              -0.008599588              -0.000685307               0.000337735              -0.003139180               0.000817952              -0.002321228               0.000000000               0.000000000               0.000000000               0.000000000              -0.005472262              -0.000000698              -0.000204165              -0.002052009               0.000683766              -0.001368244               0.000000000               0.000000000               0.000000000               0.000000000              -0.003078782               0.000655066              -0.000704077              -0.001236425               0.000630493              -0.000605932               0.000000000               0.000000000               0.000000000               0.000000000              -0.001863525               0.001553375              -0.000859156              -0.000892992               0.000815450              -0.000077543               0.000000000               0.000000000               0.000000000               0.000000000              -0.001182321               0.002376184              -0.000875318              -0.000740392               0.001038850               0.000298459               0.000000000               0.000000000               0.000000000               0.000000000              -0.000752892               0.003064469              -0.000835429              -0.000665392               0.001243277               0.000577885               0.000000000               0.000000000               0.000000000               0.000000000              -0.000444279               0.003620959              -0.000774894              -0.000619223               0.001413382               0.000794159               0.000000000               0.000000000               0.000000000               0.000000000              -0.000190243               0.004063172              -0.000710025              -0.000579237               0.001547456               0.000968219               0.000000000               0.000000000               0.000000000               0.000000000               0.000040802               0.004405260              -0.000648666              -0.000535356               0.001646857               0.001111502               0.000000000               0.000000000               0.000000000               0.000000000               0.000266127               0.004661965              -0.000592017              -0.000482947               0.001714955               0.001232008               0.000000000               0.000000000               0.000000000               0.000000000               0.000496200               0.004847319              -0.000536936              -0.000419839               0.001755703               0.001335864               0.000000000               0.000000000               0.000000000               0.000000000               0.000744477               0.004977533              -0.000481662              -0.000343012               0.001773498               0.001430486               0.000000000               0.000000000               0.000000000               0.000000000               0.001025033               0.005064029              -0.000422812              -0.000248616               0.001770865               0.001522249               0.000000000               0.000000000               0.000000000               0.000000000               0.001347730               0.005108546              -0.000352260              -0.000133169               0.001747221               0.001614052               0.000000000               0.000000000               0.000000000               0.000000000               0.001722078               0.005110406              -0.000265957               0.000006978               0.001701125               0.001708104               0.000000000               0.000000000               0.000000000               0.000000000               0.002161778               0.005069243              -0.000151385               0.000177010               0.001630728               0.001807737               0.000000000               0.000000000               0.000000000               0.000000000               0.002510827               0.005076877              -0.000091664               0.000306948               0.001589960               0.001896907               0.000000000               0.000000000               0.000000000               0.000000000               0.000000000               0.000000000               0.000000000               0.000000000               0.000000000               0.000000000               0.000000000               0.000000000               0.000000000               0.000000000               0.000000000               0.000000000               0.000000000               0.000000000               0.000000000               0.000000000               0.000000000               0.000000000               0.000000000               0.000000000               0.000000000               0.000000000               0.000000000               0.000000000               0.000000000               0.000000000               0.000000000               0.000000000               0.000000000               0.000000000               0.000000000               0.000000000               0.000000000               0.000000000               0.000000000               0.000000000               0.000000000               0.000000000               0.000000000               0.000000000               0.000000000               0.000000000               0.000000000               0.000000000               0.000000000               0.000000000               0.000000000               0.000000000               0.000000000               0.000000000               0.000000000               0.000000000               0.000000000               0.000000000               0.000000000               0.000000000               0.000000000               0.000000000               0.000000000               0.000000000               0.000000000               0.000000000               0.000000000               0.000000000               0.000000000               0.000000000               0.000000000               0.000000000               0.000000000               0.000000000               0.000000000               0.000000000               0.000000000               0.000000000               0.000000000               0.000000000               0.000000000               0.000000000               0.000000000               0.000000000               0.000000000               0.000000000               0.000000000               0.000000000               0.000000000               0.000000000               0.000000000               0.000000000               0.000000000               0.000000000               0.000000000               0.000000000               0.000000000               0.000000000               0.000000000               0.000000000               0.000000000               0.000000000               0.000000000               0.000000000               0.000000000               0.000000000               0.000000000               0.000000000               0.000000000               0.000000000               0.000000000               0.000000000               0.000000000               0.000000000               0.000000000               0.000000000               0.000000000               0.000000000               0.000000000               0.000000000               0.000000000               0.000000000               0.000000000               0.000000000               0.000000000               0.000000000               0.000000000               0.000000000               0.000000000               0.000000000               0.000000000               0.000000000               0.000000000               0.000000000               0.000000000               0.000000000               0.000000000               0.000000000               0.000000000               0.000000000               0.000000000               0.000000000               0.000000000               0.000000000               0.000000000               0.000000000               0.000000000               0.000000000               0.000000000               0.000000000               0.000000000               0.000000000               0.000000000               0.000000000               0.000000000               0.000000000               0.000000000               0.000000000               0.000000000               0.000000000               0.000000000               0.000000000               0.000000000               0.000000000               0.000000000               0.000000000               0.000000000               0.000000000               0.000000000               0.000000000               0.000000000               0.000000000               0.000000000               0.000000000               0.000000000               0.000000000               0.000000000               0.000000000               0.000000000               0.000000000               0.000000000               0.000000000               0.000000000               0.000000000               0.000000000               0.000000000               0.000000000               0.000000000               0.000000000               0.000000000               0.000000000               0.000000000               0.000000000               0.000000000               0.000000000               0.000000000               0.000000000               0.000000000               0.000000000               0.000000000               0.000000000               0.000000000               0.000000000               0.000000000               0.000000000               0.000000000               0.000000000               0.000000000               0.000000000               0.000000000               0.000000000               0.000000000               0.000000000               0.000000000               0.000000000               0.000000000               0.000000000               0.000000000               0.000000000               0.000000000               0.000000000               0.000000000               0.000000000               0.000000000               0.000000000               0.000000000               0.000000000               0.000000000               0.000000000               0.000000000               0.000000000               0.000000000               0.000000000               0.000000000               0.000000000               0.000000000               0.000000000               0.000000000               0.000000000               0.000000000               0.000000000               0.000000000               0.000000000               0.000000000               0.000000000               0.000000000               0.000000000               0.000000000               0.000000000               0.000000000               0.000000000               0.000000000               0.000000000               0.000000000               0.000000000               0.000000000               0.000000000               0.000000000               0.000000000               0.000000000               0.000000000               0.000000000               0.000000000               0.000000000               0.000000000               0.000000000               0.000000000               0.000000000               0.000000000               0.000000000               0.000000000               0.000000000               0.000000000               0.000000000               0.000000000               0.000000000               0.000000000               0.000000000               0.000000000               0.000000000               0.000000000               0.000000000               0.000000000               0.000000000               0.000000000               0.000000000               0.000000000               0.000000000               0.000000000               0.000000000               0.000000000               0.000000000               0.000000000               0.000000000               0.000000000               0.000000000               0.000000000               0.000000000               0.000000000               0.000000000               0.000000000               0.000000000               0.000000000               0.000000000               0.000000000               0.000000000               0.000000000               0.000000000               0.000000000               0.000000000               0.000000000               0.000000000               0.000000000               0.000000000               0.000000000               0.000000000               0.000000000               0.000000000               0.000000000               0.000000000               0.000000000               0.000000000               0.000000000               0.000000000               0.000000000               0.000000000               0.000000000               0.000000000               0.000000000               0.000000000               0.000000000               0.000000000               0.000000000               0.000000000               0.000000000               0.000000000               0.000000000               0.000000000               0.000000000               0.000000000               0.000000000               0.000000000               0.000000000               0.000000000               0.002040483               0.021026534               0.001478359              -0.001863131               0.007629818               0.005766687               0.000000000               0.000000000               0.000000000               0.000000000               0.001946849               0.016624443               0.000761472              -0.001347984               0.005990753               0.004642770               0.000000000               0.000000000               0.000000000               0.000000000               0.002471980               0.013104394               0.000044750              -0.000711055               0.004605106               0.003894051               0.000000000               0.000000000               0.000000000               0.000000000               0.002343095               0.011136762              -0.000257518              -0.000513433               0.003883361               0.003369928               0.000000000               0.000000000               0.000000000               0.000000000               0.002030867               0.009906484              -0.000377653              -0.000476734               0.003461040               0.002984305               0.000000000               0.000000000               0.000000000               0.000000000               0.001690776               0.009056824              -0.000419492              -0.000498061               0.003184931               0.002686871               0.000000000               0.000000000               0.000000000               0.000000000               0.001373606               0.008424578              -0.000427624              -0.000537969               0.002987487               0.002449519               0.000000000               0.000000000               0.000000000               0.000000000               0.001091679               0.007920812              -0.000418557              -0.000580721               0.002833818               0.002253097               0.000000000               0.000000000               0.000000000               0.000000000               0.000845459               0.007488388              -0.000401999              -0.000619000               0.002702438               0.002083438               0.000000000               0.000000000               0.000000000               0.000000000               0.000637224               0.007101007              -0.000382182              -0.000648665               0.002583201               0.001934535               0.000000000               0.000000000               0.000000000               0.000000000               0.000466522               0.006733995              -0.000358317              -0.000666802               0.002466910               0.001800108               0.000000000               0.000000000               0.000000000               0.000000000               0.000326654               0.006371039              -0.000331973              -0.000673883               0.002348286               0.001674403               0.000000000               0.000000000               0.000000000               0.000000000               0.000211872               0.006003514              -0.000303168              -0.000670985               0.002224813               0.001553828               0.000000000               0.000000000               0.000000000               0.000000000               0.000121536               0.005622614              -0.000266800              -0.000657249               0.002093269               0.001436020               0.000000000               0.000000000               0.000000000               0.000000000               0.000056546               0.005218384              -0.000213545              -0.000631092               0.001949808               0.001318716               0.000000000               0.000000000               0.000000000               0.000000000               0.000021192               0.004776875              -0.000126546              -0.000589161               0.001788663               0.001199502               0.000000000               0.000000000               0.000000000               0.000000000              -0.000023072               0.004446685              -0.000078177              -0.000564486               0.001670375               0.001105889               0.000000000               0.000000000               0.000000000               0.000000000               0.002227987               0.019783913               0.002753798              -0.001637491               0.007140402               0.005502911               0.000000000               0.000000000               0.000000000               0.000000000               0.001839007               0.015813198               0.001417380              -0.001287019               0.005700020               0.004413000               0.000000000               0.000000000               0.000000000               0.000000000               0.002051387               0.012746978               0.000094174              -0.000824100               0.004523650               0.003699550               0.000000000               0.000000000               0.000000000               0.000000000               0.001811158               0.011007345              -0.000447511              -0.000696732               0.003901322               0.003204590               0.000000000               0.000000000               0.000000000               0.000000000               0.001483414               0.009895477              -0.000656127              -0.000680653               0.003525344               0.002844691               0.000000000               0.000000000               0.000000000               0.000000000               0.001171046               0.009108137              -0.000723807              -0.000699373               0.003269140               0.002569766               0.000000000               0.000000000               0.000000000               0.000000000               0.000901840               0.008504713              -0.000732940              -0.000724897               0.003076508               0.002351611               0.000000000               0.000000000               0.000000000               0.000000000               0.000673394               0.008007175              -0.000711461              -0.000748372               0.002918489               0.002170117               0.000000000               0.000000000               0.000000000               0.000000000               0.000485151               0.007577142              -0.000679458              -0.000765209               0.002780759               0.002015549               0.000000000               0.000000000               0.000000000               0.000000000               0.000336974               0.007192209              -0.000643639              -0.000772659               0.002654932               0.001882273               0.000000000               0.000000000               0.000000000               0.000000000               0.000222138               0.006832927              -0.000599171              -0.000770812               0.002534557               0.001763745               0.000000000               0.000000000               0.000000000               0.000000000               0.000137772               0.006488368              -0.000551432              -0.000759380               0.002415894               0.001656514               0.000000000               0.000000000               0.000000000               0.000000000               0.000076512               0.006151874              -0.000498064              -0.000740290               0.002297367               0.001557077               0.000000000               0.000000000               0.000000000               0.000000000               0.000033566               0.005820139              -0.000429945              -0.000714928               0.002178336               0.001463408               0.000000000               0.000000000               0.000000000               0.000000000               0.000008493               0.005493927              -0.000335260              -0.000683554               0.002059142               0.001375588               0.000000000               0.000000000               0.000000000               0.000000000              -0.000000554               0.005175452              -0.000194090              -0.000647138               0.001940846               0.001293708               0.000000000               0.000000000               0.000000000               0.000000000              -0.000020444               0.004965394              -0.000115901              -0.000628339               0.001864561               0.001236222               0.000000000               0.000000000               0.000000000               0.000000000               0.002423513               0.017895391               0.003668083              -0.001328106               0.006407772               0.005079666               0.000000000               0.000000000               0.000000000               0.000000000               0.001624855               0.014602148               0.001894990              -0.001215946               0.005272649               0.004056703               0.000000000               0.000000000               0.000000000               0.000000000               0.001404753               0.012216214               0.000163303              -0.001000242               0.004405445               0.003405203               0.000000000               0.000000000               0.000000000               0.000000000               0.001039039               0.010802519              -0.000512820              -0.000960673               0.003921028               0.002960355               0.000000000               0.000000000               0.000000000               0.000000000               0.000717215               0.009852863              -0.000761095              -0.000962650               0.003605138               0.002642488               0.000000000               0.000000000               0.000000000               0.000000000               0.000461149               0.009148579              -0.000833294              -0.000970639               0.003373042               0.002402403               0.000000000               0.000000000               0.000000000               0.000000000               0.000266623               0.008584037              -0.000834763              -0.000973019               0.003185657               0.002212638               0.000000000               0.000000000               0.000000000               0.000000000               0.000125759               0.008102718              -0.000803635              -0.000965678               0.003022771               0.002057094               0.000000000               0.000000000               0.000000000               0.000000000               0.000029864               0.007682526              -0.000762011              -0.000949114               0.002877188               0.001928073               0.000000000               0.000000000               0.000000000               0.000000000              -0.000029871               0.007302998              -0.000714679              -0.000924074               0.002742333               0.001818259               0.000000000               0.000000000               0.000000000               0.000000000              -0.000063748               0.006954675              -0.000657128              -0.000893238               0.002615948               0.001722710               0.000000000               0.000000000               0.000000000               0.000000000              -0.000078953               0.006631863              -0.000592548              -0.000858588               0.002496795               0.001638207               0.000000000               0.000000000               0.000000000               0.000000000              -0.000082593               0.006333460              -0.000519851              -0.000822653               0.002385350               0.001562697               0.000000000               0.000000000               0.000000000               0.000000000              -0.000074624               0.006061087              -0.000432145              -0.000785618               0.002282215               0.001496597               0.000000000               0.000000000               0.000000000               0.000000000              -0.000053819               0.005818339              -0.000321056              -0.000747473               0.002188584               0.001441112               0.000000000               0.000000000               0.000000000               0.000000000              -0.000026808               0.005616100              -0.000177024              -0.000712064               0.002109369               0.001397305               0.000000000               0.000000000               0.000000000               0.000000000              -0.000021606               0.005504863              -0.000100964              -0.000696208               0.002067006               0.001370797               0.000000000               0.000000000               0.000000000               0.000000000               0.002502682               0.015581745               0.004150930              -0.001009213               0.005530266               0.004521053               0.000000000               0.000000000               0.000000000               0.000000000               0.001280579               0.013152228               0.002179743              -0.001163810               0.004771969               0.003608159               0.000000000               0.000000000               0.000000000               0.000000000               0.000613141               0.011582743               0.000280086              -0.001217912               0.004266846               0.003048934               0.000000000               0.000000000               0.000000000               0.000000000               0.000164058               0.010532418              -0.000420701              -0.001255027               0.003929113               0.002674086               0.000000000               0.000000000               0.000000000               0.000000000              -0.000109610               0.009751810              -0.000666182              -0.001260077               0.003670596               0.002410520               0.000000000               0.000000000               0.000000000               0.000000000              -0.000267382               0.009129843              -0.000732957              -0.001241496               0.003457082               0.002215587               0.000000000               0.000000000               0.000000000               0.000000000              -0.000354152               0.008607090              -0.000728275              -0.001208690               0.003271898               0.002063208               0.000000000               0.000000000               0.000000000               0.000000000              -0.000390304               0.008150963              -0.000693082              -0.001165231               0.003105371               0.001940140               0.000000000               0.000000000               0.000000000               0.000000000              -0.000388606               0.007744478              -0.000648957              -0.001113784               0.002952728               0.001838944               0.000000000               0.000000000               0.000000000               0.000000000              -0.000359767               0.007374578              -0.000597843              -0.001056732               0.002810412               0.001753680               0.000000000               0.000000000               0.000000000               0.000000000              -0.000317286               0.007031760              -0.000538316              -0.000997950               0.002676546               0.001678597               0.000000000               0.000000000               0.000000000               0.000000000              -0.000269814               0.006720988              -0.000475329              -0.000941301               0.002554074               0.001612773               0.000000000               0.000000000               0.000000000               0.000000000              -0.000220245               0.006448593              -0.000407566              -0.000888664               0.002445731               0.001557067               0.000000000               0.000000000               0.000000000               0.000000000              -0.000167821               0.006214696              -0.000326475              -0.000839768               0.002351467               0.001511699               0.000000000               0.000000000               0.000000000               0.000000000              -0.000110739               0.006022514              -0.000230227              -0.000794339               0.002272265               0.001477925               0.000000000               0.000000000               0.000000000               0.000000000              -0.000054811               0.005878747              -0.000119230              -0.000755396               0.002211361               0.001455965               0.000000000               0.000000000               0.000000000               0.000000000              -0.000035818               0.005806348              -0.000065243              -0.000739223               0.002181838               0.001442614               0.000000000               0.000000000               0.000000000               0.000000000               0.002364365               0.013086956               0.004207114              -0.000749235               0.004612019               0.003862784               0.000000000               0.000000000               0.000000000               0.000000000               0.000808389               0.011621900               0.002293596              -0.001149590               0.004257124               0.003107534               0.000000000               0.000000000               0.000000000               0.000000000              -0.000226934               0.010903112               0.000466046              -0.001447986               0.004116996               0.002669010               0.000000000               0.000000000               0.000000000               0.000000000              -0.000678652               0.010194165              -0.000176340              -0.001528761               0.003907608               0.002378847               0.000000000               0.000000000               0.000000000               0.000000000              -0.000846651               0.009563018              -0.000399867              -0.001512868               0.003691930               0.002179062               0.000000000               0.000000000               0.000000000               0.000000000              -0.000878816               0.009014081              -0.000462423              -0.001456313               0.003490101               0.002033788               0.000000000               0.000000000               0.000000000               0.000000000              -0.000844670               0.008532530              -0.000461928              -0.001383314               0.003305253               0.001921939               0.000000000               0.000000000               0.000000000               0.000000000              -0.000770093               0.008098596              -0.000437625              -0.001301106               0.003133207               0.001832101               0.000000000               0.000000000               0.000000000               0.000000000              -0.000677391               0.007697454              -0.000407422              -0.001216200               0.002971192               0.001754992               0.000000000               0.000000000               0.000000000               0.000000000              -0.000576364               0.007326516              -0.000370263              -0.001131948               0.002819464               0.001687515               0.000000000               0.000000000               0.000000000               0.000000000              -0.000474460               0.006986592              -0.000325843              -0.001051244               0.002679255               0.001628011               0.000000000               0.000000000               0.000000000               0.000000000              -0.000381806               0.006683015              -0.000284609              -0.000978552               0.002553833               0.001575282               0.000000000               0.000000000               0.000000000               0.000000000              -0.000295104               0.006420625              -0.000242579              -0.000913240               0.002444600               0.001531360               0.000000000               0.000000000               0.000000000               0.000000000              -0.000213350               0.006201640              -0.000190922              -0.000855209               0.002352262               0.001497053               0.000000000               0.000000000               0.000000000               0.000000000              -0.000136446               0.006027673              -0.000128972              -0.000804624               0.002277412               0.001472788               0.000000000               0.000000000               0.000000000               0.000000000              -0.000065361               0.005897154              -0.000062910              -0.000761653               0.002219583               0.001457930               0.000000000               0.000000000               0.000000000               0.000000000              -0.000042463               0.005826682              -0.000036957              -0.000744257               0.002190294               0.001446037               0.000000000               0.000000000               0.000000000               0.000000000               0.001947866               0.010618537               0.003905852              -0.000596870               0.003738432               0.003141563               0.000000000               0.000000000               0.000000000               0.000000000               0.000232083               0.010125518               0.002283418              -0.001178657               0.003768024               0.002589367               0.000000000               0.000000000               0.000000000               0.000000000              -0.001019799               0.010195889               0.000726183              -0.001656907               0.003950898               0.002293991               0.000000000               0.000000000               0.000000000               0.000000000              -0.001382765               0.009777024               0.000183968              -0.001740661               0.003839196               0.002098535               0.000000000               0.000000000               0.000000000               0.000000000              -0.001405269               0.009277707              -0.000019918              -0.001686685               0.003654766               0.001968081               0.000000000               0.000000000               0.000000000               0.000000000              -0.001296490               0.008800608              -0.000095968              -0.001586256               0.003462258               0.001876003               0.000000000               0.000000000               0.000000000               0.000000000              -0.001140606               0.008352893              -0.000122543              -0.001471835               0.003274881               0.001803046               0.000000000               0.000000000               0.000000000               0.000000000              -0.000975007               0.007922986              -0.000125473              -0.001355998               0.003092968               0.001736971               0.000000000               0.000000000               0.000000000               0.000000000              -0.000816022               0.007514779              -0.000121322              -0.001245353               0.002920019               0.001674666               0.000000000               0.000000000               0.000000000               0.000000000              -0.000666080               0.007134944              -0.000112636              -0.001141645               0.002758839               0.001617194               0.000000000               0.000000000               0.000000000               0.000000000              -0.000526196               0.006793139              -0.000098767              -0.001046463               0.002613178               0.001566715               0.000000000               0.000000000               0.000000000               0.000000000              -0.000403326               0.006492506              -0.000090890              -0.000962808               0.002485083               0.001522275               0.000000000               0.000000000               0.000000000               0.000000000              -0.000297352               0.006235147              -0.000086641              -0.000890898               0.002375327               0.001484429               0.000000000               0.000000000               0.000000000               0.000000000              -0.000203447               0.006023380              -0.000075364              -0.000829213               0.002284178               0.001454964               0.000000000               0.000000000               0.000000000               0.000000000              -0.000122345               0.005854840              -0.000052521              -0.000777732               0.002210838               0.001433105               0.000000000               0.000000000               0.000000000               0.000000000              -0.000057131               0.005724894              -0.000024122              -0.000737034               0.002153957               0.001416923               0.000000000               0.000000000               0.000000000               0.000000000              -0.000042969               0.005648210              -0.000018659              -0.000722138               0.002123431               0.001401293               0.000000000               0.000000000               0.000000000               0.000000000               0.001279102               0.008326168               0.003342855              -0.000561110               0.002962397               0.002401287               0.000000000               0.000000000               0.000000000               0.000000000              -0.000410583               0.008743628               0.002195154              -0.001246920               0.003330153               0.002083233               0.000000000               0.000000000               0.000000000               0.000000000              -0.001685839               0.009463361               0.001048013              -0.001815105               0.003759457               0.001944352               0.000000000               0.000000000               0.000000000               0.000000000              -0.001883228               0.009283003               0.000602570              -0.001866581               0.003716497               0.001849916               0.000000000               0.000000000               0.000000000               0.000000000              -0.001741736               0.008912046               0.000393170              -0.001767152               0.003559703               0.001792551               0.000000000               0.000000000               0.000000000               0.000000000              -0.001506866               0.008495537               0.000280204              -0.001627013               0.003374155               0.001747142               0.000000000               0.000000000               0.000000000               0.000000000              -0.001262802               0.008063349               0.000214693              -0.001481466               0.003181578               0.001700112               0.000000000               0.000000000               0.000000000               0.000000000              -0.001032814               0.007633534               0.000176315              -0.001341494               0.002991651               0.001650157               0.000000000               0.000000000               0.000000000               0.000000000              -0.000825858               0.007221730               0.000145881              -0.001212410               0.002811356               0.001598946               0.000000000               0.000000000               0.000000000               0.000000000              -0.000645053               0.006838410               0.000117395              -0.001096693               0.002645012               0.001548318               0.000000000               0.000000000               0.000000000               0.000000000              -0.000486313               0.006495472               0.000089501              -0.000994299               0.002496569               0.001502270               0.000000000               0.000000000               0.000000000               0.000000000              -0.000352975               0.006198458               0.000054774              -0.000907171               0.002368522               0.001461352               0.000000000               0.000000000               0.000000000               0.000000000              -0.000244643               0.005947692               0.000017245              -0.000835200               0.002260944               0.001425744               0.000000000               0.000000000               0.000000000               0.000000000              -0.000159988               0.005741619              -0.000009968              -0.000777696               0.002173086               0.001395390               0.000000000               0.000000000               0.000000000               0.000000000              -0.000095297               0.005578086              -0.000020643              -0.000732995               0.002103675               0.001370680               0.000000000               0.000000000               0.000000000               0.000000000              -0.000045728               0.005454558              -0.000015820              -0.000698966               0.002051157               0.001352190               0.000000000               0.000000000               0.000000000               0.000000000              -0.000034523               0.005384864              -0.000016649              -0.000686053               0.002023621               0.001337568               0.000000000               0.000000000               0.000000000               0.000000000               0.000467578               0.006379397               0.002627100              -0.000622084               0.002333805               0.001711721               0.000000000               0.000000000               0.000000000               0.000000000              -0.001026546               0.007504244               0.002077935              -0.001322983               0.002942383               0.001619400               0.000000000               0.000000000               0.000000000               0.000000000              -0.002182598               0.008739214               0.001422813              -0.001910872               0.003549999               0.001639128               0.000000000               0.000000000               0.000000000               0.000000000              -0.002204415               0.008808311               0.001038165              -0.001927690               0.003578638               0.001650948               0.000000000               0.000000000               0.000000000               0.000000000              -0.001935171               0.008573047               0.000800362              -0.001797316               0.003456759               0.001659443               0.000000000               0.000000000               0.000000000               0.000000000              -0.001607947               0.008220074               0.000642025              -0.001630485               0.003283492               0.001653007               0.000000000               0.000000000               0.000000000               0.000000000              -0.001298972               0.007818794               0.000532416              -0.001464460               0.003094392               0.001629932               0.000000000               0.000000000               0.000000000               0.000000000              -0.001023503               0.007403672               0.000456250              -0.001309270               0.002904289               0.001595020               0.000000000               0.000000000               0.000000000               0.000000000              -0.000780327               0.007002970               0.000391937              -0.001167991               0.002723630               0.001555639               0.000000000               0.000000000               0.000000000               0.000000000              -0.000575663               0.006627722               0.000325394              -0.001044337               0.002557331               0.001512994               0.000000000               0.000000000               0.000000000               0.000000000              -0.000408103               0.006288803               0.000255947              -0.000939137               0.002409292               0.001470155               0.000000000               0.000000000               0.000000000               0.000000000              -0.000277662               0.005994804               0.000181589              -0.000853472               0.002282739               0.001429267               0.000000000               0.000000000               0.000000000               0.000000000              -0.000184619               0.005746263               0.000107322              -0.000787513               0.002177906               0.001390393               0.000000000               0.000000000               0.000000000               0.000000000              -0.000124686               0.005536984               0.000043814              -0.000738879               0.002091936               0.001353057               0.000000000               0.000000000               0.000000000               0.000000000              -0.000100284               0.005359480               0.000000880              -0.000707540               0.002022322               0.001314782               0.000000000               0.000000000               0.000000000               0.000000000              -0.000092895               0.005218390              -0.000013701              -0.000687132               0.001968490               0.001281358               0.000000000               0.000000000               0.000000000               0.000000000              -0.000086058               0.005152308              -0.000014477              -0.000676308               0.001942855               0.001266547               0.000000000               0.000000000               0.000000000               0.000000000              -0.000500624               0.004560055               0.001861964              -0.000757740               0.001772582               0.001014842               0.000000000               0.000000000               0.000000000               0.000000000              -0.001524589               0.006070486               0.001942058              -0.001330529               0.002466984               0.001136455               0.000000000               0.000000000               0.000000000               0.000000000              -0.002441279               0.007678469               0.001820274              -0.001875284               0.003184558               0.001309274               0.000000000               0.000000000               0.000000000               0.000000000              -0.002377892               0.008089733               0.001508232              -0.001902922               0.003330858               0.001427936               0.000000000               0.000000000               0.000000000               0.000000000              -0.002070737               0.008075540               0.001240724              -0.001785965               0.003287141               0.001501177               0.000000000               0.000000000               0.000000000               0.000000000              -0.001714502               0.007877740               0.001031768              -0.001627652               0.003168438               0.001540786               0.000000000               0.000000000               0.000000000               0.000000000              -0.001379071               0.007589986               0.000874669              -0.001465896               0.003018602               0.001552706               0.000000000               0.000000000               0.000000000               0.000000000              -0.001081562               0.007257297               0.000755711              -0.001312745               0.002856656               0.001543912               0.000000000               0.000000000               0.000000000               0.000000000              -0.000823864               0.006914391               0.000653263              -0.001173245               0.002695856               0.001522610               0.000000000               0.000000000               0.000000000               0.000000000              -0.000607988               0.006573874               0.000553216              -0.001049727               0.002541178               0.001491451               0.000000000               0.000000000               0.000000000               0.000000000              -0.000435362               0.006250748               0.000451848              -0.000944602               0.002398429               0.001453827               0.000000000               0.000000000               0.000000000               0.000000000              -0.000303574               0.005957367               0.000347480              -0.000858509               0.002271939               0.001413430               0.000000000               0.000000000               0.000000000               0.000000000              -0.000213403               0.005704937               0.000243168              -0.000793141               0.002166007               0.001372866               0.000000000               0.000000000               0.000000000               0.000000000              -0.000163873               0.005485677               0.000142290              -0.000747160               0.002077594               0.001330434               0.000000000               0.000000000               0.000000000               0.000000000              -0.000153838               0.005294319               0.000058691              -0.000719477               0.002004581               0.001285104               0.000000000               0.000000000               0.000000000               0.000000000              -0.000173598               0.005132754               0.000013293              -0.000706692               0.001946465               0.001239773               0.000000000               0.000000000               0.000000000               0.000000000              -0.000188716               0.005055890               0.000000382              -0.000702753               0.001919531               0.001216778               0.000000000               0.000000000               0.000000000               0.000000000              -0.001769443               0.002907072               0.001095057              -0.001026923               0.001311322               0.000284398               0.000000000               0.000000000               0.000000000               0.000000000              -0.002091501               0.004634581               0.001735282              -0.001363633               0.001999388               0.000635756               0.000000000               0.000000000               0.000000000               0.000000000              -0.002609760               0.006454815               0.002126518              -0.001785508               0.002746752               0.000961244               0.000000000               0.000000000               0.000000000               0.000000000              -0.002466732               0.007181969               0.001949880              -0.001822767               0.003001554               0.001178787               0.000000000               0.000000000               0.000000000               0.000000000              -0.002152699               0.007419694               0.001687667              -0.001734720               0.003051446               0.001316726               0.000000000               0.000000000               0.000000000               0.000000000              -0.001797777               0.007416926               0.001447971              -0.001601279               0.003006043               0.001404765               0.000000000               0.000000000               0.000000000               0.000000000              -0.001453202               0.007280207               0.001250543              -0.001454973               0.002911702               0.001456729               0.000000000               0.000000000               0.000000000               0.000000000              -0.001143757               0.007071963               0.001089652              -0.001312901               0.002794931               0.001482030               0.000000000               0.000000000               0.000000000               0.000000000              -0.000875084               0.006822252               0.000951388              -0.001180935               0.002667706               0.001486771               0.000000000               0.000000000               0.000000000               0.000000000              -0.000642445               0.006547100               0.000826035              -0.001059302               0.002535445               0.001476143               0.000000000               0.000000000               0.000000000               0.000000000              -0.000445747               0.006269043               0.000703727              -0.000950783               0.002406588               0.001455805               0.000000000               0.000000000               0.000000000               0.000000000              -0.000288833               0.005999937               0.000577930              -0.000858302               0.002286060               0.001427757               0.000000000               0.000000000               0.000000000               0.000000000              -0.000178669               0.005748113               0.000447736              -0.000785513               0.002177856               0.001392343               0.000000000               0.000000000               0.000000000               0.000000000              -0.000123218               0.005516139               0.000312654              -0.000735722               0.002083935               0.001348213               0.000000000               0.000000000               0.000000000               0.000000000              -0.000120398               0.005312233               0.000182647              -0.000709176               0.002007119               0.001297942               0.000000000               0.000000000               0.000000000               0.000000000              -0.000172713               0.005141088               0.000077102              -0.000707402               0.001949479               0.001242078               0.000000000               0.000000000               0.000000000               0.000000000              -0.000231648               0.005051671               0.000025238              -0.000718325               0.001923315               0.001204990               0.000000000               0.000000000               0.000000000               0.000000000              -0.003257276               0.001541655               0.000387005              -0.001414183               0.000985273              -0.000428911               0.000000000               0.000000000               0.000000000               0.000000000              -0.002779815               0.003284581               0.001438903              -0.001453000               0.001579182               0.000126181               0.000000000               0.000000000               0.000000000               0.000000000              -0.002731257               0.005088084               0.002241342              -0.001660229               0.002249420               0.000589191               0.000000000               0.000000000               0.000000000               0.000000000              -0.002438282               0.006031016               0.002235479              -0.001668230               0.002566394               0.000898165               0.000000000               0.000000000               0.000000000               0.000000000              -0.002095164               0.006501209               0.002025412              -0.001598334               0.002699825               0.001101491               0.000000000               0.000000000               0.000000000               0.000000000              -0.001749265               0.006701861               0.001790883              -0.001493704               0.002731832               0.001238128               0.000000000               0.000000000               0.000000000               0.000000000              -0.001418087               0.006735351               0.001577191              -0.001373699               0.002702994               0.001329295               0.000000000               0.000000000               0.000000000               0.000000000              -0.001112694               0.006675899               0.001387462              -0.001251745               0.002642526               0.001390780               0.000000000               0.000000000               0.000000000               0.000000000              -0.000842295               0.006551804               0.001221702              -0.001134834               0.002562191               0.001427357               0.000000000               0.000000000               0.000000000               0.000000000              -0.000601653               0.006378735               0.001077786              -0.001022960               0.002467210               0.001444250               0.000000000               0.000000000               0.000000000               0.000000000              -0.000385645               0.006175846               0.000943752              -0.000916596               0.002364127               0.001447531               0.000000000               0.000000000               0.000000000               0.000000000              -0.000199435               0.005961085               0.000806569              -0.000819922               0.002260316               0.001440394               0.000000000               0.000000000               0.000000000               0.000000000              -0.000055725               0.005742847               0.000658024              -0.000738751               0.002160514               0.001421762               0.000000000               0.000000000               0.000000000               0.000000000               0.000032375               0.005529295               0.000497002              -0.000679020               0.002069420               0.001390400               0.000000000               0.000000000               0.000000000               0.000000000               0.000059233               0.005331575               0.000327966              -0.000644233               0.001991918               0.001347685               0.000000000               0.000000000               0.000000000               0.000000000               0.000012621               0.005156290               0.000160199              -0.000639802               0.001932013               0.001292212               0.000000000               0.000000000               0.000000000               0.000000000              -0.000057090               0.005059904               0.000069094              -0.000653895               0.001904583               0.001250688               0.000000000               0.000000000               0.000000000               0.000000000              -0.004855796               0.000531433              -0.000167081              -0.001887351               0.000806256              -0.001081095               0.000000000               0.000000000               0.000000000               0.000000000              -0.003546530               0.002093956               0.001095038              -0.001591690               0.001228540              -0.000363151               0.000000000               0.000000000               0.000000000               0.000000000              -0.002831284               0.003693882               0.002143725              -0.001523464               0.001739102               0.000215638               0.000000000               0.000000000               0.000000000               0.000000000              -0.002323419               0.004733084               0.002293237              -0.001462915               0.002065316               0.000602401               0.000000000               0.000000000               0.000000000               0.000000000              -0.001915663               0.005379812               0.002166274              -0.001390848               0.002256868               0.000866020               0.000000000               0.000000000               0.000000000               0.000000000              -0.001565923               0.005770282               0.001965006              -0.001308504               0.002359576               0.001051071               0.000000000               0.000000000               0.000000000               0.000000000              -0.001254219               0.005981333               0.001760533              -0.001217997               0.002399756               0.001181760               0.000000000               0.000000000               0.000000000               0.000000000              -0.000968124               0.006077736               0.001568139              -0.001122762               0.002400145               0.001277384               0.000000000               0.000000000               0.000000000               0.000000000              -0.000706184               0.006093455               0.001395228              -0.001026499               0.002373297               0.001346799               0.000000000               0.000000000               0.000000000               0.000000000              -0.000465063               0.006044923               0.001246319              -0.000930012               0.002324958               0.001394946               0.000000000               0.000000000               0.000000000               0.000000000              -0.000238015               0.005946580               0.001110941              -0.000832576               0.002259699               0.001427122               0.000000000               0.000000000               0.000000000               0.000000000              -0.000025968               0.005816455               0.000971479              -0.000736793               0.002184397               0.001447603               0.000000000               0.000000000               0.000000000               0.000000000               0.000157826               0.005664355               0.000815911              -0.000648858               0.002104386               0.001455527               0.000000000               0.000000000               0.000000000               0.000000000               0.000303946               0.005498834               0.000645497              -0.000573373               0.002024051               0.001450677               0.000000000               0.000000000               0.000000000               0.000000000               0.000401991               0.005327124               0.000454678              -0.000515143               0.001947404               0.001432262               0.000000000               0.000000000               0.000000000               0.000000000               0.000430458               0.005160602               0.000238651              -0.000483652               0.001881401               0.001397748               0.000000000               0.000000000               0.000000000               0.000000000               0.000410781               0.005073383               0.000120922              -0.000480129               0.001851154               0.001371025               0.000000000               0.000000000               0.000000000               0.000000000              -0.006406005              -0.000130006              -0.000485322              -0.002385999               0.000751992              -0.001634007               0.000000000               0.000000000               0.000000000               0.000000000              -0.004321992               0.001127138               0.000752074              -0.001761637               0.000962918              -0.000798719               0.000000000               0.000000000               0.000000000               0.000000000              -0.002924967               0.002398779               0.001833166              -0.001396708               0.001265153              -0.000131555               0.000000000               0.000000000               0.000000000               0.000000000              -0.002155209               0.003437337               0.002077023              -0.001237868               0.001558389               0.000320521               0.000000000               0.000000000               0.000000000               0.000000000              -0.001655480               0.004192858               0.002032500              -0.001144910               0.001779241               0.000634331               0.000000000               0.000000000               0.000000000               0.000000000              -0.001287562               0.004728582               0.001887451              -0.001073907               0.001934147               0.000860240               0.000000000               0.000000000               0.000000000               0.000000000              -0.000986550               0.005104016               0.001715463              -0.001007956               0.002037306               0.001029350               0.000000000               0.000000000               0.000000000               0.000000000              -0.000720445               0.005352391               0.001544287              -0.000939214               0.002097183               0.001157969               0.000000000               0.000000000               0.000000000               0.000000000              -0.000470890               0.005500568               0.001388954              -0.000864153               0.002121555               0.001257402               0.000000000               0.000000000               0.000000000               0.000000000              -0.000232582               0.005576642               0.001253944              -0.000784297               0.002120294               0.001335997               0.000000000               0.000000000               0.000000000               0.000000000              -0.000001546               0.005593740               0.001130651              -0.000699796               0.002097827               0.001398031               0.000000000               0.000000000               0.000000000               0.000000000               0.000226239               0.005564007               0.001001378              -0.000610660               0.002058204               0.001447543               0.000000000               0.000000000               0.000000000               0.000000000               0.000451877               0.005497777               0.000856362              -0.000517767               0.002005163               0.001487396               0.000000000               0.000000000               0.000000000               0.000000000               0.000669650               0.005401197               0.000697522              -0.000424030               0.001941724               0.001517694               0.000000000               0.000000000               0.000000000               0.000000000               0.000867757               0.005278193               0.000510684              -0.000334365               0.001870835               0.001536470               0.000000000               0.000000000               0.000000000               0.000000000               0.001033076               0.005143488               0.000278327              -0.000255532               0.001799656               0.001544124               0.000000000               0.000000000               0.000000000               0.000000000               0.001127113               0.005084104               0.000153836              -0.000212845               0.001765633               0.001552787               0.000000000               0.000000000               0.000000000               0.000000000              -0.007716921              -0.000508161              -0.000532238              -0.002830323               0.000774049              -0.002056275               0.000000000               0.000000000               0.000000000               0.000000000              -0.005002241               0.000422111               0.000449427              -0.001928602               0.000783566              -0.001145037               0.000000000               0.000000000               0.000000000               0.000000000              -0.003013716               0.001342029               0.001336869              -0.001297895               0.000879968              -0.000417927               0.000000000               0.000000000               0.000000000               0.000000000              -0.001985166               0.002317242               0.001584232              -0.001034091               0.001117102               0.000083011               0.000000000               0.000000000               0.000000000               0.000000000              -0.001383935               0.003128050               0.001589518              -0.000909980               0.001345999               0.000436019               0.000000000               0.000000000               0.000000000               0.000000000              -0.000985830               0.003761003               0.001502747              -0.000839810               0.001533591               0.000693781               0.000000000               0.000000000               0.000000000               0.000000000              -0.000686749               0.004249607               0.001382902              -0.000788730               0.001679431               0.000890701               0.000000000               0.000000000               0.000000000               0.000000000              -0.000431805               0.004619626               0.001256566              -0.000739379               0.001786319               0.001046941               0.000000000               0.000000000               0.000000000               0.000000000              -0.000191517               0.004884868               0.001140162              -0.000682426               0.001855748               0.001173322               0.000000000               0.000000000               0.000000000               0.000000000               0.000042765               0.005065577               0.001036962              -0.000617159               0.001894228               0.001277069               0.000000000               0.000000000               0.000000000               0.000000000               0.000275460               0.005182080               0.000940030              -0.000544462               0.001908830               0.001364368               0.000000000               0.000000000               0.000000000               0.000000000               0.000514387               0.005248553               0.000838544              -0.000463173               0.001903891               0.001440718               0.000000000               0.000000000               0.000000000               0.000000000               0.000774207               0.005269181               0.000727315              -0.000368319               0.001879149               0.001510830               0.000000000               0.000000000               0.000000000               0.000000000               0.001056151               0.005248170               0.000601412              -0.000259964               0.001836027               0.001576063               0.000000000               0.000000000               0.000000000               0.000000000               0.001355093               0.005190742               0.000448898              -0.000140683               0.001777124               0.001636441               0.000000000               0.000000000               0.000000000               0.000000000               0.001674582               0.005104377               0.000249710              -0.000010079               0.001704802               0.001694723               0.000000000               0.000000000               0.000000000               0.000000000               0.001909460               0.005081014               0.000144587               0.000080920               0.001666681               0.001747601               0.000000000               0.000000000               0.000000000               0.000000000              -0.008599588              -0.000685307              -0.000337735              -0.003139180               0.000817952              -0.002321228               0.000000000               0.000000000               0.000000000               0.000000000              -0.005472262              -0.000000698               0.000204165              -0.002052009               0.000683766              -0.001368244               0.000000000               0.000000000               0.000000000               0.000000000              -0.003078782               0.000655066               0.000704077              -0.001236425               0.000630493              -0.000605932               0.000000000               0.000000000               0.000000000               0.000000000              -0.001863525               0.001553375               0.000859156              -0.000892992               0.000815450              -0.000077543               0.000000000               0.000000000               0.000000000               0.000000000              -0.001182321               0.002376184               0.000875318              -0.000740392               0.001038850               0.000298459               0.000000000               0.000000000               0.000000000               0.000000000              -0.000752892               0.003064469               0.000835429              -0.000665392               0.001243277               0.000577885               0.000000000               0.000000000               0.000000000               0.000000000              -0.000444279               0.003620959               0.000774894              -0.000619223               0.001413382               0.000794159               0.000000000               0.000000000               0.000000000               0.000000000              -0.000190243               0.004063172               0.000710025              -0.000579237               0.001547456               0.000968219               0.000000000               0.000000000               0.000000000               0.000000000               0.000040802               0.004405260               0.000648666              -0.000535356               0.001646857               0.001111502               0.000000000               0.000000000               0.000000000               0.000000000               0.000266127               0.004661965               0.000592017              -0.000482947               0.001714955               0.001232008               0.000000000               0.000000000               0.000000000               0.000000000               0.000496200               0.004847319               0.000536936              -0.000419839               0.001755703               0.001335864               0.000000000               0.000000000               0.000000000               0.000000000               0.000744477               0.004977533               0.000481662              -0.000343012               0.001773498               0.001430486               0.000000000               0.000000000               0.000000000               0.000000000               0.001025033               0.005064029               0.000422812              -0.000248616               0.001770865               0.001522249               0.000000000               0.000000000               0.000000000               0.000000000               0.001347730               0.005108546               0.000352260              -0.000133169               0.001747221               0.001614052               0.000000000               0.000000000               0.000000000               0.000000000               0.001722078               0.005110406               0.000265957               0.000006978               0.001701125               0.001708104               0.000000000               0.000000000               0.000000000               0.000000000               0.002161778               0.005069243               0.000151385               0.000177010               0.001630728               0.001807737               0.000000000               0.000000000               0.000000000               0.000000000               0.002510827               0.005076877               0.000091664               0.000306948               0.001589960               0.001896907               0.000000000               0.000000000               0.000000000               0.000000000               0.000000000               0.000000000               0.000000000               0.000000000               0.000000000               0.000000000               0.000000000               0.000000000               0.000000000               0.000000000               0.000000000               0.000000000               0.000000000               0.000000000               0.000000000               0.000000000               0.000000000               0.000000000               0.000000000               0.000000000               0.000000000               0.000000000               0.000000000               0.000000000               0.000000000               0.000000000               0.000000000               0.000000000               0.000000000               0.000000000               0.000000000               0.000000000               0.000000000               0.000000000               0.000000000               0.000000000               0.000000000               0.000000000               0.000000000               0.000000000               0.000000000               0.000000000               0.000000000               0.000000000               0.000000000               0.000000000               0.000000000               0.000000000               0.000000000               0.000000000               0.000000000               0.000000000               0.000000000               0.000000000               0.000000000               0.000000000               0.000000000               0.000000000               0.000000000               0.000000000               0.000000000               0.000000000               0.000000000               0.000000000               0.000000000               0.000000000               0.000000000               0.000000000               0.000000000               0.000000000               0.000000000               0.000000000               0.000000000               0.000000000               0.000000000               0.000000000               0.000000000               0.000000000               0.000000000               0.000000000               0.000000000               0.000000000               0.000000000               0.000000000               0.000000000               0.000000000               0.000000000               0.000000000               0.000000000               0.000000000               0.000000000               0.000000000               0.000000000               0.000000000               0.000000000               0.000000000               0.000000000               0.000000000               0.000000000               0.000000000               0.000000000               0.000000000               0.000000000               0.000000000               0.000000000               0.000000000               0.000000000               0.000000000               0.000000000               0.000000000               0.000000000               0.000000000               0.000000000               0.000000000               0.000000000               0.000000000               0.000000000               0.000000000               0.000000000               0.000000000               0.000000000               0.000000000               0.000000000               0.000000000               0.000000000               0.000000000               0.000000000               0.000000000               0.000000000               0.000000000               0.000000000               0.000000000               0.000000000               0.000000000               0.000000000               0.000000000               0.000000000               0.000000000               0.000000000               0.000000000               0.000000000               0.000000000               0.000000000               0.000000000               0.000000000               0.000000000               0.000000000               0.000000000               0.000000000               0.000000000               0.000000000               0.000000000               0.000000000               0.000000000               0.000000000               0.000000000               0.000000000               0.000000000               0.000000000               0.000000000               0.000000000               0.000000000               0.000000000               0.000000000               0.000000000               0.000000000               0.000000000               0.000000000               0.000000000               0.000000000 </DataArray>
</PointData>
</Piece>
</UnstructuredGrid> </VTKFile>
