<?xml version="1.0"?>
<VTKFile type="UnstructuredGrid" version="0.1">
<UnstructuredGrid>
<Piece NumberOfPoints="      1156" NumberOfCells="      1024">
<Points>
<DataArray type="Float64"                                    Name="coordinates"                                                      NumberOfComponents=" 3" format="ascii">
              0.133000000               0.000000000               0.000000000               0.155937500               0.000000000               0.000000000               0.178875000               0.000000000               0.000000000               0.201812500               0.000000000               0.000000000               0.224750000               0.000000000               0.000000000               0.247687500               0.000000000               0.000000000               0.270625000               0.000000000               0.000000000               0.293562500               0.000000000               0.000000000               0.316500000               0.000000000               0.000000000               0.339437500               0.000000000               0.000000000               0.362375000               0.000000000               0.000000000               0.385312500               0.000000000               0.000000000               0.408250000               0.000000000               0.000000000               0.431187500               0.000000000               0.000000000               0.454125000               0.000000000               0.000000000               0.477062500               0.000000000               0.000000000               0.500000000               0.000000000               0.000000000               0.132359569               0.013036280               0.000000000               0.155337096               0.016127762               0.000000000               0.178314623               0.019219245               0.000000000               0.201292150               0.022310727               0.000000000               0.224269676               0.025402210               0.000000000               0.247247203               0.028493692               0.000000000               0.270224730               0.031585175               0.000000000               0.293202257               0.034676657               0.000000000               0.316179784               0.037768140               0.000000000               0.339157311               0.040859622               0.000000000               0.362134838               0.043951105               0.000000000               0.385112365               0.047042587               0.000000000               0.408089892               0.050134070               0.000000000               0.431067419               0.053225552               0.000000000               0.454044946               0.056317035               0.000000000               0.477022473               0.059408517               0.000000000               0.500000000               0.062500000               0.000000000               0.130444442               0.025947013               0.000000000               0.153541665               0.032137825               0.000000000               0.176638887               0.038328636               0.000000000               0.199736109               0.044519448               0.000000000               0.222833332               0.050710260               0.000000000               0.245930554               0.056901071               0.000000000               0.269027776               0.063091883               0.000000000               0.292124999               0.069282695               0.000000000               0.315222221               0.075473506               0.000000000               0.338319444               0.081664318               0.000000000               0.361416666               0.087855130               0.000000000               0.384513888               0.094045942               0.000000000               0.407611111               0.100236753               0.000000000               0.430708333               0.106427565               0.000000000               0.453805555               0.112618377               0.000000000               0.476902778               0.118809188               0.000000000               0.500000000               0.125000000               0.000000000               0.127273065               0.038607862               0.000000000               0.150568498               0.047913621               0.000000000               0.173863932               0.057219379               0.000000000               0.197159365               0.066525138               0.000000000               0.220454798               0.075830897               0.000000000               0.243750232               0.085136655               0.000000000               0.267045665               0.094442414               0.000000000               0.290341099               0.103748172               0.000000000               0.313636532               0.113053931               0.000000000               0.336931966               0.122359690               0.000000000               0.360227399               0.131665448               0.000000000               0.383522833               0.140971207               0.000000000               0.406818266               0.150276966               0.000000000               0.430113700               0.159582724               0.000000000               0.453409133               0.168888483               0.000000000               0.476704567               0.178194241               0.000000000               0.500000000               0.187500000               0.000000000               0.122875978               0.050896897               0.000000000               0.146446229               0.063340840               0.000000000               0.170016481               0.075784784               0.000000000               0.193586732               0.088228728               0.000000000               0.217156983               0.100672672               0.000000000               0.240727235               0.113116616               0.000000000               0.264297486               0.125560560               0.000000000               0.287867738               0.138004504               0.000000000               0.311437989               0.150448448               0.000000000               0.335008240               0.162892392               0.000000000               0.358578492               0.175336336               0.000000000               0.382148743               0.187780280               0.000000000               0.405718994               0.200224224               0.000000000               0.429289246               0.212668168               0.000000000               0.452859497               0.225112112               0.000000000               0.476429749               0.237556056               0.000000000               0.500000000               0.250000000               0.000000000               0.117295528               0.062695766               0.000000000               0.141214558               0.078308531               0.000000000               0.165133587               0.093921295               0.000000000               0.189052617               0.109534060               0.000000000               0.212971646               0.125146824               0.000000000               0.236890676               0.140759589               0.000000000               0.260809705               0.156372354               0.000000000               0.284728735               0.171985118               0.000000000               0.308647764               0.187597883               0.000000000               0.332566794               0.203210648               0.000000000               0.356485823               0.218823412               0.000000000               0.380404853               0.234436177               0.000000000               0.404323882               0.250048941               0.000000000               0.428242912               0.265661706               0.000000000               0.452161941               0.281274471               0.000000000               0.476080971               0.296887235               0.000000000               0.500000000               0.312500000               0.000000000               0.110585458               0.073890841               0.000000000               0.134923867               0.092710163               0.000000000               0.159262276               0.111529486               0.000000000               0.183600685               0.130348808               0.000000000               0.207939094               0.149168131               0.000000000               0.232277503               0.167987453               0.000000000               0.256615912               0.186806776               0.000000000               0.280954320               0.205626098               0.000000000               0.305292729               0.224445420               0.000000000               0.329631138               0.243264743               0.000000000               0.353969547               0.262084065               0.000000000               0.378307956               0.280903388               0.000000000               0.402646365               0.299722710               0.000000000               0.426984773               0.318542033               0.000000000               0.451323182               0.337361355               0.000000000               0.475661591               0.356180678               0.000000000               0.500000000               0.375000000               0.000000000               0.102810390               0.084374307               0.000000000               0.127634741               0.106444663               0.000000000               0.152459092               0.128515018               0.000000000               0.177283442               0.150585374               0.000000000               0.202107793               0.172655730               0.000000000               0.226932143               0.194726086               0.000000000               0.251756494               0.216796442               0.000000000               0.276580845               0.238866798               0.000000000               0.301405195               0.260937153               0.000000000               0.326229546               0.283007509               0.000000000               0.351053896               0.305077865               0.000000000               0.375878247               0.327148221               0.000000000               0.400702598               0.349218577               0.000000000               0.425526948               0.371288933               0.000000000               0.450351299               0.393359288               0.000000000               0.475175649               0.415429644               0.000000000               0.500000000               0.437500000               0.000000000               0.094045202               0.094045202               0.000000000               0.119417377               0.119417377               0.000000000               0.144789552               0.144789552               0.000000000               0.170161727               0.170161727               0.000000000               0.195533901               0.195533901               0.000000000               0.220906076               0.220906076               0.000000000               0.246278251               0.246278251               0.000000000               0.271650426               0.271650426               0.000000000               0.297022601               0.297022601               0.000000000               0.322394776               0.322394776               0.000000000               0.347766951               0.347766951               0.000000000               0.373139126               0.373139126               0.000000000               0.398511300               0.398511300               0.000000000               0.423883475               0.423883475               0.000000000               0.449255650               0.449255650               0.000000000               0.474627825               0.474627825               0.000000000               0.500000000               0.500000000               0.000000000               0.084374307               0.102810390               0.000000000               0.106444663               0.127634741               0.000000000               0.128515018               0.152459092               0.000000000               0.150585374               0.177283442               0.000000000               0.172655730               0.202107793               0.000000000               0.194726086               0.226932143               0.000000000               0.216796442               0.251756494               0.000000000               0.238866798               0.276580845               0.000000000               0.260937153               0.301405195               0.000000000               0.283007509               0.326229546               0.000000000               0.305077865               0.351053896               0.000000000               0.327148221               0.375878247               0.000000000               0.349218577               0.400702598               0.000000000               0.371288933               0.425526948               0.000000000               0.393359288               0.450351299               0.000000000               0.415429644               0.475175649               0.000000000               0.437500000               0.500000000               0.000000000               0.073890841               0.110585458               0.000000000               0.092710163               0.134923867               0.000000000               0.111529486               0.159262276               0.000000000               0.130348808               0.183600685               0.000000000               0.149168131               0.207939094               0.000000000               0.167987453               0.232277503               0.000000000               0.186806776               0.256615912               0.000000000               0.205626098               0.280954320               0.000000000               0.224445420               0.305292729               0.000000000               0.243264743               0.329631138               0.000000000               0.262084065               0.353969547               0.000000000               0.280903388               0.378307956               0.000000000               0.299722710               0.402646365               0.000000000               0.318542033               0.426984773               0.000000000               0.337361355               0.451323182               0.000000000               0.356180678               0.475661591               0.000000000               0.375000000               0.500000000               0.000000000               0.062695766               0.117295528               0.000000000               0.078308531               0.141214558               0.000000000               0.093921295               0.165133587               0.000000000               0.109534060               0.189052617               0.000000000               0.125146824               0.212971646               0.000000000               0.140759589               0.236890676               0.000000000               0.156372354               0.260809705               0.000000000               0.171985118               0.284728735               0.000000000               0.187597883               0.308647764               0.000000000               0.203210648               0.332566794               0.000000000               0.218823412               0.356485823               0.000000000               0.234436177               0.380404853               0.000000000               0.250048941               0.404323882               0.000000000               0.265661706               0.428242912               0.000000000               0.281274471               0.452161941               0.000000000               0.296887235               0.476080971               0.000000000               0.312500000               0.500000000               0.000000000               0.050896897               0.122875978               0.000000000               0.063340840               0.146446229               0.000000000               0.075784784               0.170016481               0.000000000               0.088228728               0.193586732               0.000000000               0.100672672               0.217156983               0.000000000               0.113116616               0.240727235               0.000000000               0.125560560               0.264297486               0.000000000               0.138004504               0.287867738               0.000000000               0.150448448               0.311437989               0.000000000               0.162892392               0.335008240               0.000000000               0.175336336               0.358578492               0.000000000               0.187780280               0.382148743               0.000000000               0.200224224               0.405718994               0.000000000               0.212668168               0.429289246               0.000000000               0.225112112               0.452859497               0.000000000               0.237556056               0.476429749               0.000000000               0.250000000               0.500000000               0.000000000               0.038607862               0.127273065               0.000000000               0.047913621               0.150568498               0.000000000               0.057219379               0.173863932               0.000000000               0.066525138               0.197159365               0.000000000               0.075830897               0.220454798               0.000000000               0.085136655               0.243750232               0.000000000               0.094442414               0.267045665               0.000000000               0.103748172               0.290341099               0.000000000               0.113053931               0.313636532               0.000000000               0.122359690               0.336931966               0.000000000               0.131665448               0.360227399               0.000000000               0.140971207               0.383522833               0.000000000               0.150276966               0.406818266               0.000000000               0.159582724               0.430113700               0.000000000               0.168888483               0.453409133               0.000000000               0.178194241               0.476704567               0.000000000               0.187500000               0.500000000               0.000000000               0.025947013               0.130444442               0.000000000               0.032137825               0.153541665               0.000000000               0.038328636               0.176638887               0.000000000               0.044519448               0.199736109               0.000000000               0.050710260               0.222833332               0.000000000               0.056901071               0.245930554               0.000000000               0.063091883               0.269027776               0.000000000               0.069282695               0.292124999               0.000000000               0.075473506               0.315222221               0.000000000               0.081664318               0.338319444               0.000000000               0.087855130               0.361416666               0.000000000               0.094045942               0.384513888               0.000000000               0.100236753               0.407611111               0.000000000               0.106427565               0.430708333               0.000000000               0.112618377               0.453805555               0.000000000               0.118809188               0.476902778               0.000000000               0.125000000               0.500000000               0.000000000               0.013036280               0.132359569               0.000000000               0.016127762               0.155337096               0.000000000               0.019219245               0.178314623               0.000000000               0.022310727               0.201292150               0.000000000               0.025402210               0.224269676               0.000000000               0.028493692               0.247247203               0.000000000               0.031585175               0.270224730               0.000000000               0.034676657               0.293202257               0.000000000               0.037768140               0.316179784               0.000000000               0.040859622               0.339157311               0.000000000               0.043951105               0.362134838               0.000000000               0.047042587               0.385112365               0.000000000               0.050134070               0.408089892               0.000000000               0.053225552               0.431067419               0.000000000               0.056317035               0.454044946               0.000000000               0.059408517               0.477022473               0.000000000               0.062500000               0.500000000               0.000000000               0.000000000               0.133000000               0.000000000               0.000000000               0.155937500               0.000000000               0.000000000               0.178875000               0.000000000               0.000000000               0.201812500               0.000000000               0.000000000               0.224750000               0.000000000               0.000000000               0.247687500               0.000000000               0.000000000               0.270625000               0.000000000               0.000000000               0.293562500               0.000000000               0.000000000               0.316500000               0.000000000               0.000000000               0.339437500               0.000000000               0.000000000               0.362375000               0.000000000               0.000000000               0.385312500               0.000000000               0.000000000               0.408250000               0.000000000               0.000000000               0.431187500               0.000000000               0.000000000               0.454125000               0.000000000               0.000000000               0.477062500               0.000000000               0.000000000               0.500000000               0.000000000               0.133000000               0.000000000               0.000000000               0.155937500               0.000000000               0.000000000               0.178875000               0.000000000               0.000000000               0.201812500               0.000000000               0.000000000               0.224750000               0.000000000               0.000000000               0.247687500               0.000000000               0.000000000               0.270625000               0.000000000               0.000000000               0.293562500               0.000000000               0.000000000               0.316500000               0.000000000               0.000000000               0.339437500               0.000000000               0.000000000               0.362375000               0.000000000               0.000000000               0.385312500               0.000000000               0.000000000               0.408250000               0.000000000               0.000000000               0.431187500               0.000000000               0.000000000               0.454125000               0.000000000               0.000000000               0.477062500               0.000000000               0.000000000               0.500000000               0.000000000               0.000000000               0.132359569              -0.013036280               0.000000000               0.155337096              -0.016127762               0.000000000               0.178314623              -0.019219245               0.000000000               0.201292150              -0.022310727               0.000000000               0.224269676              -0.025402210               0.000000000               0.247247203              -0.028493692               0.000000000               0.270224730              -0.031585175               0.000000000               0.293202257              -0.034676657               0.000000000               0.316179784              -0.037768140               0.000000000               0.339157311              -0.040859622               0.000000000               0.362134838              -0.043951105               0.000000000               0.385112365              -0.047042587               0.000000000               0.408089892              -0.050134070               0.000000000               0.431067419              -0.053225552               0.000000000               0.454044946              -0.056317035               0.000000000               0.477022473              -0.059408517               0.000000000               0.500000000              -0.062500000               0.000000000               0.130444442              -0.025947013               0.000000000               0.153541665              -0.032137825               0.000000000               0.176638887              -0.038328636               0.000000000               0.199736109              -0.044519448               0.000000000               0.222833332              -0.050710260               0.000000000               0.245930554              -0.056901071               0.000000000               0.269027776              -0.063091883               0.000000000               0.292124999              -0.069282695               0.000000000               0.315222221              -0.075473506               0.000000000               0.338319444              -0.081664318               0.000000000               0.361416666              -0.087855130               0.000000000               0.384513888              -0.094045942               0.000000000               0.407611111              -0.100236753               0.000000000               0.430708333              -0.106427565               0.000000000               0.453805555              -0.112618377               0.000000000               0.476902778              -0.118809188               0.000000000               0.500000000              -0.125000000               0.000000000               0.127273065              -0.038607862               0.000000000               0.150568498              -0.047913621               0.000000000               0.173863932              -0.057219379               0.000000000               0.197159365              -0.066525138               0.000000000               0.220454798              -0.075830897               0.000000000               0.243750232              -0.085136655               0.000000000               0.267045665              -0.094442414               0.000000000               0.290341099              -0.103748172               0.000000000               0.313636532              -0.113053931               0.000000000               0.336931966              -0.122359690               0.000000000               0.360227399              -0.131665448               0.000000000               0.383522833              -0.140971207               0.000000000               0.406818266              -0.150276966               0.000000000               0.430113700              -0.159582724               0.000000000               0.453409133              -0.168888483               0.000000000               0.476704567              -0.178194241               0.000000000               0.500000000              -0.187500000               0.000000000               0.122875978              -0.050896897               0.000000000               0.146446229              -0.063340840               0.000000000               0.170016481              -0.075784784               0.000000000               0.193586732              -0.088228728               0.000000000               0.217156983              -0.100672672               0.000000000               0.240727235              -0.113116616               0.000000000               0.264297486              -0.125560560               0.000000000               0.287867738              -0.138004504               0.000000000               0.311437989              -0.150448448               0.000000000               0.335008240              -0.162892392               0.000000000               0.358578492              -0.175336336               0.000000000               0.382148743              -0.187780280               0.000000000               0.405718994              -0.200224224               0.000000000               0.429289246              -0.212668168               0.000000000               0.452859497              -0.225112112               0.000000000               0.476429749              -0.237556056               0.000000000               0.500000000              -0.250000000               0.000000000               0.117295528              -0.062695766               0.000000000               0.141214558              -0.078308531               0.000000000               0.165133587              -0.093921295               0.000000000               0.189052617              -0.109534060               0.000000000               0.212971646              -0.125146824               0.000000000               0.236890676              -0.140759589               0.000000000               0.260809705              -0.156372354               0.000000000               0.284728735              -0.171985118               0.000000000               0.308647764              -0.187597883               0.000000000               0.332566794              -0.203210648               0.000000000               0.356485823              -0.218823412               0.000000000               0.380404853              -0.234436177               0.000000000               0.404323882              -0.250048941               0.000000000               0.428242912              -0.265661706               0.000000000               0.452161941              -0.281274471               0.000000000               0.476080971              -0.296887235               0.000000000               0.500000000              -0.312500000               0.000000000               0.110585458              -0.073890841               0.000000000               0.134923867              -0.092710163               0.000000000               0.159262276              -0.111529486               0.000000000               0.183600685              -0.130348808               0.000000000               0.207939094              -0.149168131               0.000000000               0.232277503              -0.167987453               0.000000000               0.256615912              -0.186806776               0.000000000               0.280954320              -0.205626098               0.000000000               0.305292729              -0.224445420               0.000000000               0.329631138              -0.243264743               0.000000000               0.353969547              -0.262084065               0.000000000               0.378307956              -0.280903388               0.000000000               0.402646365              -0.299722710               0.000000000               0.426984773              -0.318542033               0.000000000               0.451323182              -0.337361355               0.000000000               0.475661591              -0.356180678               0.000000000               0.500000000              -0.375000000               0.000000000               0.102810390              -0.084374307               0.000000000               0.127634741              -0.106444663               0.000000000               0.152459092              -0.128515018               0.000000000               0.177283442              -0.150585374               0.000000000               0.202107793              -0.172655730               0.000000000               0.226932143              -0.194726086               0.000000000               0.251756494              -0.216796442               0.000000000               0.276580845              -0.238866798               0.000000000               0.301405195              -0.260937153               0.000000000               0.326229546              -0.283007509               0.000000000               0.351053896              -0.305077865               0.000000000               0.375878247              -0.327148221               0.000000000               0.400702598              -0.349218577               0.000000000               0.425526948              -0.371288933               0.000000000               0.450351299              -0.393359288               0.000000000               0.475175649              -0.415429644               0.000000000               0.500000000              -0.437500000               0.000000000               0.094045202              -0.094045202               0.000000000               0.119417377              -0.119417377               0.000000000               0.144789552              -0.144789552               0.000000000               0.170161727              -0.170161727               0.000000000               0.195533901              -0.195533901               0.000000000               0.220906076              -0.220906076               0.000000000               0.246278251              -0.246278251               0.000000000               0.271650426              -0.271650426               0.000000000               0.297022601              -0.297022601               0.000000000               0.322394776              -0.322394776               0.000000000               0.347766951              -0.347766951               0.000000000               0.373139126              -0.373139126               0.000000000               0.398511300              -0.398511300               0.000000000               0.423883475              -0.423883475               0.000000000               0.449255650              -0.449255650               0.000000000               0.474627825              -0.474627825               0.000000000               0.500000000              -0.500000000               0.000000000               0.084374307              -0.102810390               0.000000000               0.106444663              -0.127634741               0.000000000               0.128515018              -0.152459092               0.000000000               0.150585374              -0.177283442               0.000000000               0.172655730              -0.202107793               0.000000000               0.194726086              -0.226932143               0.000000000               0.216796442              -0.251756494               0.000000000               0.238866798              -0.276580845               0.000000000               0.260937153              -0.301405195               0.000000000               0.283007509              -0.326229546               0.000000000               0.305077865              -0.351053896               0.000000000               0.327148221              -0.375878247               0.000000000               0.349218577              -0.400702598               0.000000000               0.371288933              -0.425526948               0.000000000               0.393359288              -0.450351299               0.000000000               0.415429644              -0.475175649               0.000000000               0.437500000              -0.500000000               0.000000000               0.073890841              -0.110585458               0.000000000               0.092710163              -0.134923867               0.000000000               0.111529486              -0.159262276               0.000000000               0.130348808              -0.183600685               0.000000000               0.149168131              -0.207939094               0.000000000               0.167987453              -0.232277503               0.000000000               0.186806776              -0.256615912               0.000000000               0.205626098              -0.280954320               0.000000000               0.224445420              -0.305292729               0.000000000               0.243264743              -0.329631138               0.000000000               0.262084065              -0.353969547               0.000000000               0.280903388              -0.378307956               0.000000000               0.299722710              -0.402646365               0.000000000               0.318542033              -0.426984773               0.000000000               0.337361355              -0.451323182               0.000000000               0.356180678              -0.475661591               0.000000000               0.375000000              -0.500000000               0.000000000               0.062695766              -0.117295528               0.000000000               0.078308531              -0.141214558               0.000000000               0.093921295              -0.165133587               0.000000000               0.109534060              -0.189052617               0.000000000               0.125146824              -0.212971646               0.000000000               0.140759589              -0.236890676               0.000000000               0.156372354              -0.260809705               0.000000000               0.171985118              -0.284728735               0.000000000               0.187597883              -0.308647764               0.000000000               0.203210648              -0.332566794               0.000000000               0.218823412              -0.356485823               0.000000000               0.234436177              -0.380404853               0.000000000               0.250048941              -0.404323882               0.000000000               0.265661706              -0.428242912               0.000000000               0.281274471              -0.452161941               0.000000000               0.296887235              -0.476080971               0.000000000               0.312500000              -0.500000000               0.000000000               0.050896897              -0.122875978               0.000000000               0.063340840              -0.146446229               0.000000000               0.075784784              -0.170016481               0.000000000               0.088228728              -0.193586732               0.000000000               0.100672672              -0.217156983               0.000000000               0.113116616              -0.240727235               0.000000000               0.125560560              -0.264297486               0.000000000               0.138004504              -0.287867738               0.000000000               0.150448448              -0.311437989               0.000000000               0.162892392              -0.335008240               0.000000000               0.175336336              -0.358578492               0.000000000               0.187780280              -0.382148743               0.000000000               0.200224224              -0.405718994               0.000000000               0.212668168              -0.429289246               0.000000000               0.225112112              -0.452859497               0.000000000               0.237556056              -0.476429749               0.000000000               0.250000000              -0.500000000               0.000000000               0.038607862              -0.127273065               0.000000000               0.047913621              -0.150568498               0.000000000               0.057219379              -0.173863932               0.000000000               0.066525138              -0.197159365               0.000000000               0.075830897              -0.220454798               0.000000000               0.085136655              -0.243750232               0.000000000               0.094442414              -0.267045665               0.000000000               0.103748172              -0.290341099               0.000000000               0.113053931              -0.313636532               0.000000000               0.122359690              -0.336931966               0.000000000               0.131665448              -0.360227399               0.000000000               0.140971207              -0.383522833               0.000000000               0.150276966              -0.406818266               0.000000000               0.159582724              -0.430113700               0.000000000               0.168888483              -0.453409133               0.000000000               0.178194241              -0.476704567               0.000000000               0.187500000              -0.500000000               0.000000000               0.025947013              -0.130444442               0.000000000               0.032137825              -0.153541665               0.000000000               0.038328636              -0.176638887               0.000000000               0.044519448              -0.199736109               0.000000000               0.050710260              -0.222833332               0.000000000               0.056901071              -0.245930554               0.000000000               0.063091883              -0.269027776               0.000000000               0.069282695              -0.292124999               0.000000000               0.075473506              -0.315222221               0.000000000               0.081664318              -0.338319444               0.000000000               0.087855130              -0.361416666               0.000000000               0.094045942              -0.384513888               0.000000000               0.100236753              -0.407611111               0.000000000               0.106427565              -0.430708333               0.000000000               0.112618377              -0.453805555               0.000000000               0.118809188              -0.476902778               0.000000000               0.125000000              -0.500000000               0.000000000               0.013036280              -0.132359569               0.000000000               0.016127762              -0.155337096               0.000000000               0.019219245              -0.178314623               0.000000000               0.022310727              -0.201292150               0.000000000               0.025402210              -0.224269676               0.000000000               0.028493692              -0.247247203               0.000000000               0.031585175              -0.270224730               0.000000000               0.034676657              -0.293202257               0.000000000               0.037768140              -0.316179784               0.000000000               0.040859622              -0.339157311               0.000000000               0.043951105              -0.362134838               0.000000000               0.047042587              -0.385112365               0.000000000               0.050134070              -0.408089892               0.000000000               0.053225552              -0.431067419               0.000000000               0.056317035              -0.454044946               0.000000000               0.059408517              -0.477022473               0.000000000               0.062500000              -0.500000000               0.000000000               0.000000000              -0.133000000               0.000000000               0.000000000              -0.155937500               0.000000000               0.000000000              -0.178875000               0.000000000               0.000000000              -0.201812500               0.000000000               0.000000000              -0.224750000               0.000000000               0.000000000              -0.247687500               0.000000000               0.000000000              -0.270625000               0.000000000               0.000000000              -0.293562500               0.000000000               0.000000000              -0.316500000               0.000000000               0.000000000              -0.339437500               0.000000000               0.000000000              -0.362375000               0.000000000               0.000000000              -0.385312500               0.000000000               0.000000000              -0.408250000               0.000000000               0.000000000              -0.431187500               0.000000000               0.000000000              -0.454125000               0.000000000               0.000000000              -0.477062500               0.000000000               0.000000000              -0.500000000               0.000000000              -0.133000000               0.000000000               0.000000000              -0.155937500               0.000000000               0.000000000              -0.178875000               0.000000000               0.000000000              -0.201812500               0.000000000               0.000000000              -0.224750000               0.000000000               0.000000000              -0.247687500               0.000000000               0.000000000              -0.270625000               0.000000000               0.000000000              -0.293562500               0.000000000               0.000000000              -0.316500000               0.000000000               0.000000000              -0.339437500               0.000000000               0.000000000              -0.362375000               0.000000000               0.000000000              -0.385312500               0.000000000               0.000000000              -0.408250000               0.000000000               0.000000000              -0.431187500               0.000000000               0.000000000              -0.454125000               0.000000000               0.000000000              -0.477062500               0.000000000               0.000000000              -0.500000000               0.000000000               0.000000000              -0.132359569              -0.013036280               0.000000000              -0.155337096              -0.016127762               0.000000000              -0.178314623              -0.019219245               0.000000000              -0.201292150              -0.022310727               0.000000000              -0.224269676              -0.025402210               0.000000000              -0.247247203              -0.028493692               0.000000000              -0.270224730              -0.031585175               0.000000000              -0.293202257              -0.034676657               0.000000000              -0.316179784              -0.037768140               0.000000000              -0.339157311              -0.040859622               0.000000000              -0.362134838              -0.043951105               0.000000000              -0.385112365              -0.047042587               0.000000000              -0.408089892              -0.050134070               0.000000000              -0.431067419              -0.053225552               0.000000000              -0.454044946              -0.056317035               0.000000000              -0.477022473              -0.059408517               0.000000000              -0.500000000              -0.062500000               0.000000000              -0.130444442              -0.025947013               0.000000000              -0.153541665              -0.032137825               0.000000000              -0.176638887              -0.038328636               0.000000000              -0.199736109              -0.044519448               0.000000000              -0.222833332              -0.050710260               0.000000000              -0.245930554              -0.056901071               0.000000000              -0.269027776              -0.063091883               0.000000000              -0.292124999              -0.069282695               0.000000000              -0.315222221              -0.075473506               0.000000000              -0.338319444              -0.081664318               0.000000000              -0.361416666              -0.087855130               0.000000000              -0.384513888              -0.094045942               0.000000000              -0.407611111              -0.100236753               0.000000000              -0.430708333              -0.106427565               0.000000000              -0.453805555              -0.112618377               0.000000000              -0.476902778              -0.118809188               0.000000000              -0.500000000              -0.125000000               0.000000000              -0.127273065              -0.038607862               0.000000000              -0.150568498              -0.047913621               0.000000000              -0.173863932              -0.057219379               0.000000000              -0.197159365              -0.066525138               0.000000000              -0.220454798              -0.075830897               0.000000000              -0.243750232              -0.085136655               0.000000000              -0.267045665              -0.094442414               0.000000000              -0.290341099              -0.103748172               0.000000000              -0.313636532              -0.113053931               0.000000000              -0.336931966              -0.122359690               0.000000000              -0.360227399              -0.131665448               0.000000000              -0.383522833              -0.140971207               0.000000000              -0.406818266              -0.150276966               0.000000000              -0.430113700              -0.159582724               0.000000000              -0.453409133              -0.168888483               0.000000000              -0.476704567              -0.178194241               0.000000000              -0.500000000              -0.187500000               0.000000000              -0.122875978              -0.050896897               0.000000000              -0.146446229              -0.063340840               0.000000000              -0.170016481              -0.075784784               0.000000000              -0.193586732              -0.088228728               0.000000000              -0.217156983              -0.100672672               0.000000000              -0.240727235              -0.113116616               0.000000000              -0.264297486              -0.125560560               0.000000000              -0.287867738              -0.138004504               0.000000000              -0.311437989              -0.150448448               0.000000000              -0.335008240              -0.162892392               0.000000000              -0.358578492              -0.175336336               0.000000000              -0.382148743              -0.187780280               0.000000000              -0.405718994              -0.200224224               0.000000000              -0.429289246              -0.212668168               0.000000000              -0.452859497              -0.225112112               0.000000000              -0.476429749              -0.237556056               0.000000000              -0.500000000              -0.250000000               0.000000000              -0.117295528              -0.062695766               0.000000000              -0.141214558              -0.078308531               0.000000000              -0.165133587              -0.093921295               0.000000000              -0.189052617              -0.109534060               0.000000000              -0.212971646              -0.125146824               0.000000000              -0.236890676              -0.140759589               0.000000000              -0.260809705              -0.156372354               0.000000000              -0.284728735              -0.171985118               0.000000000              -0.308647764              -0.187597883               0.000000000              -0.332566794              -0.203210648               0.000000000              -0.356485823              -0.218823412               0.000000000              -0.380404853              -0.234436177               0.000000000              -0.404323882              -0.250048941               0.000000000              -0.428242912              -0.265661706               0.000000000              -0.452161941              -0.281274471               0.000000000              -0.476080971              -0.296887235               0.000000000              -0.500000000              -0.312500000               0.000000000              -0.110585458              -0.073890841               0.000000000              -0.134923867              -0.092710163               0.000000000              -0.159262276              -0.111529486               0.000000000              -0.183600685              -0.130348808               0.000000000              -0.207939094              -0.149168131               0.000000000              -0.232277503              -0.167987453               0.000000000              -0.256615912              -0.186806776               0.000000000              -0.280954320              -0.205626098               0.000000000              -0.305292729              -0.224445420               0.000000000              -0.329631138              -0.243264743               0.000000000              -0.353969547              -0.262084065               0.000000000              -0.378307956              -0.280903388               0.000000000              -0.402646365              -0.299722710               0.000000000              -0.426984773              -0.318542033               0.000000000              -0.451323182              -0.337361355               0.000000000              -0.475661591              -0.356180678               0.000000000              -0.500000000              -0.375000000               0.000000000              -0.102810390              -0.084374307               0.000000000              -0.127634741              -0.106444663               0.000000000              -0.152459092              -0.128515018               0.000000000              -0.177283442              -0.150585374               0.000000000              -0.202107793              -0.172655730               0.000000000              -0.226932143              -0.194726086               0.000000000              -0.251756494              -0.216796442               0.000000000              -0.276580845              -0.238866798               0.000000000              -0.301405195              -0.260937153               0.000000000              -0.326229546              -0.283007509               0.000000000              -0.351053896              -0.305077865               0.000000000              -0.375878247              -0.327148221               0.000000000              -0.400702598              -0.349218577               0.000000000              -0.425526948              -0.371288933               0.000000000              -0.450351299              -0.393359288               0.000000000              -0.475175649              -0.415429644               0.000000000              -0.500000000              -0.437500000               0.000000000              -0.094045202              -0.094045202               0.000000000              -0.119417377              -0.119417377               0.000000000              -0.144789552              -0.144789552               0.000000000              -0.170161727              -0.170161727               0.000000000              -0.195533901              -0.195533901               0.000000000              -0.220906076              -0.220906076               0.000000000              -0.246278251              -0.246278251               0.000000000              -0.271650426              -0.271650426               0.000000000              -0.297022601              -0.297022601               0.000000000              -0.322394776              -0.322394776               0.000000000              -0.347766951              -0.347766951               0.000000000              -0.373139126              -0.373139126               0.000000000              -0.398511300              -0.398511300               0.000000000              -0.423883475              -0.423883475               0.000000000              -0.449255650              -0.449255650               0.000000000              -0.474627825              -0.474627825               0.000000000              -0.500000000              -0.500000000               0.000000000              -0.084374307              -0.102810390               0.000000000              -0.106444663              -0.127634741               0.000000000              -0.128515018              -0.152459092               0.000000000              -0.150585374              -0.177283442               0.000000000              -0.172655730              -0.202107793               0.000000000              -0.194726086              -0.226932143               0.000000000              -0.216796442              -0.251756494               0.000000000              -0.238866798              -0.276580845               0.000000000              -0.260937153              -0.301405195               0.000000000              -0.283007509              -0.326229546               0.000000000              -0.305077865              -0.351053896               0.000000000              -0.327148221              -0.375878247               0.000000000              -0.349218577              -0.400702598               0.000000000              -0.371288933              -0.425526948               0.000000000              -0.393359288              -0.450351299               0.000000000              -0.415429644              -0.475175649               0.000000000              -0.437500000              -0.500000000               0.000000000              -0.073890841              -0.110585458               0.000000000              -0.092710163              -0.134923867               0.000000000              -0.111529486              -0.159262276               0.000000000              -0.130348808              -0.183600685               0.000000000              -0.149168131              -0.207939094               0.000000000              -0.167987453              -0.232277503               0.000000000              -0.186806776              -0.256615912               0.000000000              -0.205626098              -0.280954320               0.000000000              -0.224445420              -0.305292729               0.000000000              -0.243264743              -0.329631138               0.000000000              -0.262084065              -0.353969547               0.000000000              -0.280903388              -0.378307956               0.000000000              -0.299722710              -0.402646365               0.000000000              -0.318542033              -0.426984773               0.000000000              -0.337361355              -0.451323182               0.000000000              -0.356180678              -0.475661591               0.000000000              -0.375000000              -0.500000000               0.000000000              -0.062695766              -0.117295528               0.000000000              -0.078308531              -0.141214558               0.000000000              -0.093921295              -0.165133587               0.000000000              -0.109534060              -0.189052617               0.000000000              -0.125146824              -0.212971646               0.000000000              -0.140759589              -0.236890676               0.000000000              -0.156372354              -0.260809705               0.000000000              -0.171985118              -0.284728735               0.000000000              -0.187597883              -0.308647764               0.000000000              -0.203210648              -0.332566794               0.000000000              -0.218823412              -0.356485823               0.000000000              -0.234436177              -0.380404853               0.000000000              -0.250048941              -0.404323882               0.000000000              -0.265661706              -0.428242912               0.000000000              -0.281274471              -0.452161941               0.000000000              -0.296887235              -0.476080971               0.000000000              -0.312500000              -0.500000000               0.000000000              -0.050896897              -0.122875978               0.000000000              -0.063340840              -0.146446229               0.000000000              -0.075784784              -0.170016481               0.000000000              -0.088228728              -0.193586732               0.000000000              -0.100672672              -0.217156983               0.000000000              -0.113116616              -0.240727235               0.000000000              -0.125560560              -0.264297486               0.000000000              -0.138004504              -0.287867738               0.000000000              -0.150448448              -0.311437989               0.000000000              -0.162892392              -0.335008240               0.000000000              -0.175336336              -0.358578492               0.000000000              -0.187780280              -0.382148743               0.000000000              -0.200224224              -0.405718994               0.000000000              -0.212668168              -0.429289246               0.000000000              -0.225112112              -0.452859497               0.000000000              -0.237556056              -0.476429749               0.000000000              -0.250000000              -0.500000000               0.000000000              -0.038607862              -0.127273065               0.000000000              -0.047913621              -0.150568498               0.000000000              -0.057219379              -0.173863932               0.000000000              -0.066525138              -0.197159365               0.000000000              -0.075830897              -0.220454798               0.000000000              -0.085136655              -0.243750232               0.000000000              -0.094442414              -0.267045665               0.000000000              -0.103748172              -0.290341099               0.000000000              -0.113053931              -0.313636532               0.000000000              -0.122359690              -0.336931966               0.000000000              -0.131665448              -0.360227399               0.000000000              -0.140971207              -0.383522833               0.000000000              -0.150276966              -0.406818266               0.000000000              -0.159582724              -0.430113700               0.000000000              -0.168888483              -0.453409133               0.000000000              -0.178194241              -0.476704567               0.000000000              -0.187500000              -0.500000000               0.000000000              -0.025947013              -0.130444442               0.000000000              -0.032137825              -0.153541665               0.000000000              -0.038328636              -0.176638887               0.000000000              -0.044519448              -0.199736109               0.000000000              -0.050710260              -0.222833332               0.000000000              -0.056901071              -0.245930554               0.000000000              -0.063091883              -0.269027776               0.000000000              -0.069282695              -0.292124999               0.000000000              -0.075473506              -0.315222221               0.000000000              -0.081664318              -0.338319444               0.000000000              -0.087855130              -0.361416666               0.000000000              -0.094045942              -0.384513888               0.000000000              -0.100236753              -0.407611111               0.000000000              -0.106427565              -0.430708333               0.000000000              -0.112618377              -0.453805555               0.000000000              -0.118809188              -0.476902778               0.000000000              -0.125000000              -0.500000000               0.000000000              -0.013036280              -0.132359569               0.000000000              -0.016127762              -0.155337096               0.000000000              -0.019219245              -0.178314623               0.000000000              -0.022310727              -0.201292150               0.000000000              -0.025402210              -0.224269676               0.000000000              -0.028493692              -0.247247203               0.000000000              -0.031585175              -0.270224730               0.000000000              -0.034676657              -0.293202257               0.000000000              -0.037768140              -0.316179784               0.000000000              -0.040859622              -0.339157311               0.000000000              -0.043951105              -0.362134838               0.000000000              -0.047042587              -0.385112365               0.000000000              -0.050134070              -0.408089892               0.000000000              -0.053225552              -0.431067419               0.000000000              -0.056317035              -0.454044946               0.000000000              -0.059408517              -0.477022473               0.000000000              -0.062500000              -0.500000000               0.000000000               0.000000000              -0.133000000               0.000000000               0.000000000              -0.155937500               0.000000000               0.000000000              -0.178875000               0.000000000               0.000000000              -0.201812500               0.000000000               0.000000000              -0.224750000               0.000000000               0.000000000              -0.247687500               0.000000000               0.000000000              -0.270625000               0.000000000               0.000000000              -0.293562500               0.000000000               0.000000000              -0.316500000               0.000000000               0.000000000              -0.339437500               0.000000000               0.000000000              -0.362375000               0.000000000               0.000000000              -0.385312500               0.000000000               0.000000000              -0.408250000               0.000000000               0.000000000              -0.431187500               0.000000000               0.000000000              -0.454125000               0.000000000               0.000000000              -0.477062500               0.000000000               0.000000000              -0.500000000               0.000000000              -0.133000000               0.000000000               0.000000000              -0.155937500               0.000000000               0.000000000              -0.178875000               0.000000000               0.000000000              -0.201812500               0.000000000               0.000000000              -0.224750000               0.000000000               0.000000000              -0.247687500               0.000000000               0.000000000              -0.270625000               0.000000000               0.000000000              -0.293562500               0.000000000               0.000000000              -0.316500000               0.000000000               0.000000000              -0.339437500               0.000000000               0.000000000              -0.362375000               0.000000000               0.000000000              -0.385312500               0.000000000               0.000000000              -0.408250000               0.000000000               0.000000000              -0.431187500               0.000000000               0.000000000              -0.454125000               0.000000000               0.000000000              -0.477062500               0.000000000               0.000000000              -0.500000000               0.000000000               0.000000000              -0.132359569               0.013036280               0.000000000              -0.155337096               0.016127762               0.000000000              -0.178314623               0.019219245               0.000000000              -0.201292150               0.022310727               0.000000000              -0.224269676               0.025402210               0.000000000              -0.247247203               0.028493692               0.000000000              -0.270224730               0.031585175               0.000000000              -0.293202257               0.034676657               0.000000000              -0.316179784               0.037768140               0.000000000              -0.339157311               0.040859622               0.000000000              -0.362134838               0.043951105               0.000000000              -0.385112365               0.047042587               0.000000000              -0.408089892               0.050134070               0.000000000              -0.431067419               0.053225552               0.000000000              -0.454044946               0.056317035               0.000000000              -0.477022473               0.059408517               0.000000000              -0.500000000               0.062500000               0.000000000              -0.130444442               0.025947013               0.000000000              -0.153541665               0.032137825               0.000000000              -0.176638887               0.038328636               0.000000000              -0.199736109               0.044519448               0.000000000              -0.222833332               0.050710260               0.000000000              -0.245930554               0.056901071               0.000000000              -0.269027776               0.063091883               0.000000000              -0.292124999               0.069282695               0.000000000              -0.315222221               0.075473506               0.000000000              -0.338319444               0.081664318               0.000000000              -0.361416666               0.087855130               0.000000000              -0.384513888               0.094045942               0.000000000              -0.407611111               0.100236753               0.000000000              -0.430708333               0.106427565               0.000000000              -0.453805555               0.112618377               0.000000000              -0.476902778               0.118809188               0.000000000              -0.500000000               0.125000000               0.000000000              -0.127273065               0.038607862               0.000000000              -0.150568498               0.047913621               0.000000000              -0.173863932               0.057219379               0.000000000              -0.197159365               0.066525138               0.000000000              -0.220454798               0.075830897               0.000000000              -0.243750232               0.085136655               0.000000000              -0.267045665               0.094442414               0.000000000              -0.290341099               0.103748172               0.000000000              -0.313636532               0.113053931               0.000000000              -0.336931966               0.122359690               0.000000000              -0.360227399               0.131665448               0.000000000              -0.383522833               0.140971207               0.000000000              -0.406818266               0.150276966               0.000000000              -0.430113700               0.159582724               0.000000000              -0.453409133               0.168888483               0.000000000              -0.476704567               0.178194241               0.000000000              -0.500000000               0.187500000               0.000000000              -0.122875978               0.050896897               0.000000000              -0.146446229               0.063340840               0.000000000              -0.170016481               0.075784784               0.000000000              -0.193586732               0.088228728               0.000000000              -0.217156983               0.100672672               0.000000000              -0.240727235               0.113116616               0.000000000              -0.264297486               0.125560560               0.000000000              -0.287867738               0.138004504               0.000000000              -0.311437989               0.150448448               0.000000000              -0.335008240               0.162892392               0.000000000              -0.358578492               0.175336336               0.000000000              -0.382148743               0.187780280               0.000000000              -0.405718994               0.200224224               0.000000000              -0.429289246               0.212668168               0.000000000              -0.452859497               0.225112112               0.000000000              -0.476429749               0.237556056               0.000000000              -0.500000000               0.250000000               0.000000000              -0.117295528               0.062695766               0.000000000              -0.141214558               0.078308531               0.000000000              -0.165133587               0.093921295               0.000000000              -0.189052617               0.109534060               0.000000000              -0.212971646               0.125146824               0.000000000              -0.236890676               0.140759589               0.000000000              -0.260809705               0.156372354               0.000000000              -0.284728735               0.171985118               0.000000000              -0.308647764               0.187597883               0.000000000              -0.332566794               0.203210648               0.000000000              -0.356485823               0.218823412               0.000000000              -0.380404853               0.234436177               0.000000000              -0.404323882               0.250048941               0.000000000              -0.428242912               0.265661706               0.000000000              -0.452161941               0.281274471               0.000000000              -0.476080971               0.296887235               0.000000000              -0.500000000               0.312500000               0.000000000              -0.110585458               0.073890841               0.000000000              -0.134923867               0.092710163               0.000000000              -0.159262276               0.111529486               0.000000000              -0.183600685               0.130348808               0.000000000              -0.207939094               0.149168131               0.000000000              -0.232277503               0.167987453               0.000000000              -0.256615912               0.186806776               0.000000000              -0.280954320               0.205626098               0.000000000              -0.305292729               0.224445420               0.000000000              -0.329631138               0.243264743               0.000000000              -0.353969547               0.262084065               0.000000000              -0.378307956               0.280903388               0.000000000              -0.402646365               0.299722710               0.000000000              -0.426984773               0.318542033               0.000000000              -0.451323182               0.337361355               0.000000000              -0.475661591               0.356180678               0.000000000              -0.500000000               0.375000000               0.000000000              -0.102810390               0.084374307               0.000000000              -0.127634741               0.106444663               0.000000000              -0.152459092               0.128515018               0.000000000              -0.177283442               0.150585374               0.000000000              -0.202107793               0.172655730               0.000000000              -0.226932143               0.194726086               0.000000000              -0.251756494               0.216796442               0.000000000              -0.276580845               0.238866798               0.000000000              -0.301405195               0.260937153               0.000000000              -0.326229546               0.283007509               0.000000000              -0.351053896               0.305077865               0.000000000              -0.375878247               0.327148221               0.000000000              -0.400702598               0.349218577               0.000000000              -0.425526948               0.371288933               0.000000000              -0.450351299               0.393359288               0.000000000              -0.475175649               0.415429644               0.000000000              -0.500000000               0.437500000               0.000000000              -0.094045202               0.094045202               0.000000000              -0.119417377               0.119417377               0.000000000              -0.144789552               0.144789552               0.000000000              -0.170161727               0.170161727               0.000000000              -0.195533901               0.195533901               0.000000000              -0.220906076               0.220906076               0.000000000              -0.246278251               0.246278251               0.000000000              -0.271650426               0.271650426               0.000000000              -0.297022601               0.297022601               0.000000000              -0.322394776               0.322394776               0.000000000              -0.347766951               0.347766951               0.000000000              -0.373139126               0.373139126               0.000000000              -0.398511300               0.398511300               0.000000000              -0.423883475               0.423883475               0.000000000              -0.449255650               0.449255650               0.000000000              -0.474627825               0.474627825               0.000000000              -0.500000000               0.500000000               0.000000000              -0.084374307               0.102810390               0.000000000              -0.106444663               0.127634741               0.000000000              -0.128515018               0.152459092               0.000000000              -0.150585374               0.177283442               0.000000000              -0.172655730               0.202107793               0.000000000              -0.194726086               0.226932143               0.000000000              -0.216796442               0.251756494               0.000000000              -0.238866798               0.276580845               0.000000000              -0.260937153               0.301405195               0.000000000              -0.283007509               0.326229546               0.000000000              -0.305077865               0.351053896               0.000000000              -0.327148221               0.375878247               0.000000000              -0.349218577               0.400702598               0.000000000              -0.371288933               0.425526948               0.000000000              -0.393359288               0.450351299               0.000000000              -0.415429644               0.475175649               0.000000000              -0.437500000               0.500000000               0.000000000              -0.073890841               0.110585458               0.000000000              -0.092710163               0.134923867               0.000000000              -0.111529486               0.159262276               0.000000000              -0.130348808               0.183600685               0.000000000              -0.149168131               0.207939094               0.000000000              -0.167987453               0.232277503               0.000000000              -0.186806776               0.256615912               0.000000000              -0.205626098               0.280954320               0.000000000              -0.224445420               0.305292729               0.000000000              -0.243264743               0.329631138               0.000000000              -0.262084065               0.353969547               0.000000000              -0.280903388               0.378307956               0.000000000              -0.299722710               0.402646365               0.000000000              -0.318542033               0.426984773               0.000000000              -0.337361355               0.451323182               0.000000000              -0.356180678               0.475661591               0.000000000              -0.375000000               0.500000000               0.000000000              -0.062695766               0.117295528               0.000000000              -0.078308531               0.141214558               0.000000000              -0.093921295               0.165133587               0.000000000              -0.109534060               0.189052617               0.000000000              -0.125146824               0.212971646               0.000000000              -0.140759589               0.236890676               0.000000000              -0.156372354               0.260809705               0.000000000              -0.171985118               0.284728735               0.000000000              -0.187597883               0.308647764               0.000000000              -0.203210648               0.332566794               0.000000000              -0.218823412               0.356485823               0.000000000              -0.234436177               0.380404853               0.000000000              -0.250048941               0.404323882               0.000000000              -0.265661706               0.428242912               0.000000000              -0.281274471               0.452161941               0.000000000              -0.296887235               0.476080971               0.000000000              -0.312500000               0.500000000               0.000000000              -0.050896897               0.122875978               0.000000000              -0.063340840               0.146446229               0.000000000              -0.075784784               0.170016481               0.000000000              -0.088228728               0.193586732               0.000000000              -0.100672672               0.217156983               0.000000000              -0.113116616               0.240727235               0.000000000              -0.125560560               0.264297486               0.000000000              -0.138004504               0.287867738               0.000000000              -0.150448448               0.311437989               0.000000000              -0.162892392               0.335008240               0.000000000              -0.175336336               0.358578492               0.000000000              -0.187780280               0.382148743               0.000000000              -0.200224224               0.405718994               0.000000000              -0.212668168               0.429289246               0.000000000              -0.225112112               0.452859497               0.000000000              -0.237556056               0.476429749               0.000000000              -0.250000000               0.500000000               0.000000000              -0.038607862               0.127273065               0.000000000              -0.047913621               0.150568498               0.000000000              -0.057219379               0.173863932               0.000000000              -0.066525138               0.197159365               0.000000000              -0.075830897               0.220454798               0.000000000              -0.085136655               0.243750232               0.000000000              -0.094442414               0.267045665               0.000000000              -0.103748172               0.290341099               0.000000000              -0.113053931               0.313636532               0.000000000              -0.122359690               0.336931966               0.000000000              -0.131665448               0.360227399               0.000000000              -0.140971207               0.383522833               0.000000000              -0.150276966               0.406818266               0.000000000              -0.159582724               0.430113700               0.000000000              -0.168888483               0.453409133               0.000000000              -0.178194241               0.476704567               0.000000000              -0.187500000               0.500000000               0.000000000              -0.025947013               0.130444442               0.000000000              -0.032137825               0.153541665               0.000000000              -0.038328636               0.176638887               0.000000000              -0.044519448               0.199736109               0.000000000              -0.050710260               0.222833332               0.000000000              -0.056901071               0.245930554               0.000000000              -0.063091883               0.269027776               0.000000000              -0.069282695               0.292124999               0.000000000              -0.075473506               0.315222221               0.000000000              -0.081664318               0.338319444               0.000000000              -0.087855130               0.361416666               0.000000000              -0.094045942               0.384513888               0.000000000              -0.100236753               0.407611111               0.000000000              -0.106427565               0.430708333               0.000000000              -0.112618377               0.453805555               0.000000000              -0.118809188               0.476902778               0.000000000              -0.125000000               0.500000000               0.000000000              -0.013036280               0.132359569               0.000000000              -0.016127762               0.155337096               0.000000000              -0.019219245               0.178314623               0.000000000              -0.022310727               0.201292150               0.000000000              -0.025402210               0.224269676               0.000000000              -0.028493692               0.247247203               0.000000000              -0.031585175               0.270224730               0.000000000              -0.034676657               0.293202257               0.000000000              -0.037768140               0.316179784               0.000000000              -0.040859622               0.339157311               0.000000000              -0.043951105               0.362134838               0.000000000              -0.047042587               0.385112365               0.000000000              -0.050134070               0.408089892               0.000000000              -0.053225552               0.431067419               0.000000000              -0.056317035               0.454044946               0.000000000              -0.059408517               0.477022473               0.000000000              -0.062500000               0.500000000               0.000000000               0.000000000               0.133000000               0.000000000               0.000000000               0.155937500               0.000000000               0.000000000               0.178875000               0.000000000               0.000000000               0.201812500               0.000000000               0.000000000               0.224750000               0.000000000               0.000000000               0.247687500               0.000000000               0.000000000               0.270625000               0.000000000               0.000000000               0.293562500               0.000000000               0.000000000               0.316500000               0.000000000               0.000000000               0.339437500               0.000000000               0.000000000               0.362375000               0.000000000               0.000000000               0.385312500               0.000000000               0.000000000               0.408250000               0.000000000               0.000000000               0.431187500               0.000000000               0.000000000               0.454125000               0.000000000               0.000000000               0.477062500               0.000000000               0.000000000               0.500000000               0.000000000 </DataArray>
</Points>
<Cells>
<DataArray type="Int32"                                    Name="connectivity"                                                      NumberOfComponents=" 1" format="ascii">
         0          1         18         17          1          2         19         18          2          3         20         19          3          4         21         20          4          5         22         21          5          6         23         22          6          7         24         23          7          8         25         24          8          9         26         25          9         10         27         26         10         11         28         27         11         12         29         28         12         13         30         29         13         14         31         30         14         15         32         31         15         16         33         32         17         18         35         34         18         19         36         35         19         20         37         36         20         21         38         37         21         22         39         38         22         23         40         39         23         24         41         40         24         25         42         41         25         26         43         42         26         27         44         43         27         28         45         44         28         29         46         45         29         30         47         46         30         31         48         47         31         32         49         48         32         33         50         49         34         35         52         51         35         36         53         52         36         37         54         53         37         38         55         54         38         39         56         55         39         40         57         56         40         41         58         57         41         42         59         58         42         43         60         59         43         44         61         60         44         45         62         61         45         46         63         62         46         47         64         63         47         48         65         64         48         49         66         65         49         50         67         66         51         52         69         68         52         53         70         69         53         54         71         70         54         55         72         71         55         56         73         72         56         57         74         73         57         58         75         74         58         59         76         75         59         60         77         76         60         61         78         77         61         62         79         78         62         63         80         79         63         64         81         80         64         65         82         81         65         66         83         82         66         67         84         83         68         69         86         85         69         70         87         86         70         71         88         87         71         72         89         88         72         73         90         89         73         74         91         90         74         75         92         91         75         76         93         92         76         77         94         93         77         78         95         94         78         79         96         95         79         80         97         96         80         81         98         97         81         82         99         98         82         83        100         99         83         84        101        100         85         86        103        102         86         87        104        103         87         88        105        104         88         89        106        105         89         90        107        106         90         91        108        107         91         92        109        108         92         93        110        109         93         94        111        110         94         95        112        111         95         96        113        112         96         97        114        113         97         98        115        114         98         99        116        115         99        100        117        116        100        101        118        117        102        103        120        119        103        104        121        120        104        105        122        121        105        106        123        122        106        107        124        123        107        108        125        124        108        109        126        125        109        110        127        126        110        111        128        127        111        112        129        128        112        113        130        129        113        114        131        130        114        115        132        131        115        116        133        132        116        117        134        133        117        118        135        134        119        120        137        136        120        121        138        137        121        122        139        138        122        123        140        139        123        124        141        140        124        125        142        141        125        126        143        142        126        127        144        143        127        128        145        144        128        129        146        145        129        130        147        146        130        131        148        147        131        132        149        148        132        133        150        149        133        134        151        150        134        135        152        151        136        137        154        153        137        138        155        154        138        139        156        155        139        140        157        156        140        141        158        157        141        142        159        158        142        143        160        159        143        144        161        160        144        145        162        161        145        146        163        162        146        147        164        163        147        148        165        164        148        149        166        165        149        150        167        166        150        151        168        167        151        152        169        168        153        154        171        170        154        155        172        171        155        156        173        172        156        157        174        173        157        158        175        174        158        159        176        175        159        160        177        176        160        161        178        177        161        162        179        178        162        163        180        179        163        164        181        180        164        165        182        181        165        166        183        182        166        167        184        183        167        168        185        184        168        169        186        185        170        171        188        187        171        172        189        188        172        173        190        189        173        174        191        190        174        175        192        191        175        176        193        192        176        177        194        193        177        178        195        194        178        179        196        195        179        180        197        196        180        181        198        197        181        182        199        198        182        183        200        199        183        184        201        200        184        185        202        201        185        186        203        202        187        188        205        204        188        189        206        205        189        190        207        206        190        191        208        207        191        192        209        208        192        193        210        209        193        194        211        210        194        195        212        211        195        196        213        212        196        197        214        213        197        198        215        214        198        199        216        215        199        200        217        216        200        201        218        217        201        202        219        218        202        203        220        219        204        205        222        221        205        206        223        222        206        207        224        223        207        208        225        224        208        209        226        225        209        210        227        226        210        211        228        227        211        212        229        228        212        213        230        229        213        214        231        230        214        215        232        231        215        216        233        232        216        217        234        233        217        218        235        234        218        219        236        235        219        220        237        236        221        222        239        238        222        223        240        239        223        224        241        240        224        225        242        241        225        226        243        242        226        227        244        243        227        228        245        244        228        229        246        245        229        230        247        246        230        231        248        247        231        232        249        248        232        233        250        249        233        234        251        250        234        235        252        251        235        236        253        252        236        237        254        253        238        239        256        255        239        240        257        256        240        241        258        257        241        242        259        258        242        243        260        259        243        244        261        260        244        245        262        261        245        246        263        262        246        247        264        263        247        248        265        264        248        249        266        265        249        250        267        266        250        251        268        267        251        252        269        268        252        253        270        269        253        254        271        270        255        256        273        272        256        257        274        273        257        258        275        274        258        259        276        275        259        260        277        276        260        261        278        277        261        262        279        278        262        263        280        279        263        264        281        280        264        265        282        281        265        266        283        282        266        267        284        283        267        268        285        284        268        269        286        285        269        270        287        286        270        271        288        287        306        307          1          0        307        308          2          1        308        309          3          2        309        310          4          3        310        311          5          4        311        312          6          5        312        313          7          6        313        314          8          7        314        315          9          8        315        316         10          9        316        317         11         10        317        318         12         11        318        319         13         12        319        320         14         13        320        321         15         14        321        322         16         15        323        324        307        306        324        325        308        307        325        326        309        308        326        327        310        309        327        328        311        310        328        329        312        311        329        330        313        312        330        331        314        313        331        332        315        314        332        333        316        315        333        334        317        316        334        335        318        317        335        336        319        318        336        337        320        319        337        338        321        320        338        339        322        321        340        341        324        323        341        342        325        324        342        343        326        325        343        344        327        326        344        345        328        327        345        346        329        328        346        347        330        329        347        348        331        330        348        349        332        331        349        350        333        332        350        351        334        333        351        352        335        334        352        353        336        335        353        354        337        336        354        355        338        337        355        356        339        338        357        358        341        340        358        359        342        341        359        360        343        342        360        361        344        343        361        362        345        344        362        363        346        345        363        364        347        346        364        365        348        347        365        366        349        348        366        367        350        349        367        368        351        350        368        369        352        351        369        370        353        352        370        371        354        353        371        372        355        354        372        373        356        355        374        375        358        357        375        376        359        358        376        377        360        359        377        378        361        360        378        379        362        361        379        380        363        362        380        381        364        363        381        382        365        364        382        383        366        365        383        384        367        366        384        385        368        367        385        386        369        368        386        387        370        369        387        388        371        370        388        389        372        371        389        390        373        372        391        392        375        374        392        393        376        375        393        394        377        376        394        395        378        377        395        396        379        378        396        397        380        379        397        398        381        380        398        399        382        381        399        400        383        382        400        401        384        383        401        402        385        384        402        403        386        385        403        404        387        386        404        405        388        387        405        406        389        388        406        407        390        389        408        409        392        391        409        410        393        392        410        411        394        393        411        412        395        394        412        413        396        395        413        414        397        396        414        415        398        397        415        416        399        398        416        417        400        399        417        418        401        400        418        419        402        401        419        420        403        402        420        421        404        403        421        422        405        404        422        423        406        405        423        424        407        406        425        426        409        408        426        427        410        409        427        428        411        410        428        429        412        411        429        430        413        412        430        431        414        413        431        432        415        414        432        433        416        415        433        434        417        416        434        435        418        417        435        436        419        418        436        437        420        419        437        438        421        420        438        439        422        421        439        440        423        422        440        441        424        423        442        443        426        425        443        444        427        426        444        445        428        427        445        446        429        428        446        447        430        429        447        448        431        430        448        449        432        431        449        450        433        432        450        451        434        433        451        452        435        434        452        453        436        435        453        454        437        436        454        455        438        437        455        456        439        438        456        457        440        439        457        458        441        440        459        460        443        442        460        461        444        443        461        462        445        444        462        463        446        445        463        464        447        446        464        465        448        447        465        466        449        448        466        467        450        449        467        468        451        450        468        469        452        451        469        470        453        452        470        471        454        453        471        472        455        454        472        473        456        455        473        474        457        456        474        475        458        457        476        477        460        459        477        478        461        460        478        479        462        461        479        480        463        462        480        481        464        463        481        482        465        464        482        483        466        465        483        484        467        466        484        485        468        467        485        486        469        468        486        487        470        469        487        488        471        470        488        489        472        471        489        490        473        472        490        491        474        473        491        492        475        474        493        494        477        476        494        495        478        477        495        496        479        478        496        497        480        479        497        498        481        480        498        499        482        481        499        500        483        482        500        501        484        483        501        502        485        484        502        503        486        485        503        504        487        486        504        505        488        487        505        506        489        488        506        507        490        489        507        508        491        490        508        509        492        491        510        511        494        493        511        512        495        494        512        513        496        495        513        514        497        496        514        515        498        497        515        516        499        498        516        517        500        499        517        518        501        500        518        519        502        501        519        520        503        502        520        521        504        503        521        522        505        504        522        523        506        505        523        524        507        506        524        525        508        507        525        526        509        508        527        528        511        510        528        529        512        511        529        530        513        512        530        531        514        513        531        532        515        514        532        533        516        515        533        534        517        516        534        535        518        517        535        536        519        518        536        537        520        519        537        538        521        520        538        539        522        521        539        540        523        522        540        541        524        523        541        542        525        524        542        543        526        525        544        545        528        527        545        546        529        528        546        547        530        529        547        548        531        530        548        549        532        531        549        550        533        532        550        551        534        533        551        552        535        534        552        553        536        535        553        554        537        536        554        555        538        537        555        556        539        538        556        557        540        539        557        558        541        540        558        559        542        541        559        560        543        542        561        562        545        544        562        563        546        545        563        564        547        546        564        565        548        547        565        566        549        548        566        567        550        549        567        568        551        550        568        569        552        551        569        570        553        552        570        571        554        553        571        572        555        554        572        573        556        555        573        574        557        556        574        575        558        557        575        576        559        558        576        577        560        559        578        579        596        595        579        580        597        596        580        581        598        597        581        582        599        598        582        583        600        599        583        584        601        600        584        585        602        601        585        586        603        602        586        587        604        603        587        588        605        604        588        589        606        605        589        590        607        606        590        591        608        607        591        592        609        608        592        593        610        609        593        594        611        610        595        596        613        612        596        597        614        613        597        598        615        614        598        599        616        615        599        600        617        616        600        601        618        617        601        602        619        618        602        603        620        619        603        604        621        620        604        605        622        621        605        606        623        622        606        607        624        623        607        608        625        624        608        609        626        625        609        610        627        626        610        611        628        627        612        613        630        629        613        614        631        630        614        615        632        631        615        616        633        632        616        617        634        633        617        618        635        634        618        619        636        635        619        620        637        636        620        621        638        637        621        622        639        638        622        623        640        639        623        624        641        640        624        625        642        641        625        626        643        642        626        627        644        643        627        628        645        644        629        630        647        646        630        631        648        647        631        632        649        648        632        633        650        649        633        634        651        650        634        635        652        651        635        636        653        652        636        637        654        653        637        638        655        654        638        639        656        655        639        640        657        656        640        641        658        657        641        642        659        658        642        643        660        659        643        644        661        660        644        645        662        661        646        647        664        663        647        648        665        664        648        649        666        665        649        650        667        666        650        651        668        667        651        652        669        668        652        653        670        669        653        654        671        670        654        655        672        671        655        656        673        672        656        657        674        673        657        658        675        674        658        659        676        675        659        660        677        676        660        661        678        677        661        662        679        678        663        664        681        680        664        665        682        681        665        666        683        682        666        667        684        683        667        668        685        684        668        669        686        685        669        670        687        686        670        671        688        687        671        672        689        688        672        673        690        689        673        674        691        690        674        675        692        691        675        676        693        692        676        677        694        693        677        678        695        694        678        679        696        695        680        681        698        697        681        682        699        698        682        683        700        699        683        684        701        700        684        685        702        701        685        686        703        702        686        687        704        703        687        688        705        704        688        689        706        705        689        690        707        706        690        691        708        707        691        692        709        708        692        693        710        709        693        694        711        710        694        695        712        711        695        696        713        712        697        698        715        714        698        699        716        715        699        700        717        716        700        701        718        717        701        702        719        718        702        703        720        719        703        704        721        720        704        705        722        721        705        706        723        722        706        707        724        723        707        708        725        724        708        709        726        725        709        710        727        726        710        711        728        727        711        712        729        728        712        713        730        729        714        715        732        731        715        716        733        732        716        717        734        733        717        718        735        734        718        719        736        735        719        720        737        736        720        721        738        737        721        722        739        738        722        723        740        739        723        724        741        740        724        725        742        741        725        726        743        742        726        727        744        743        727        728        745        744        728        729        746        745        729        730        747        746        731        732        749        748        732        733        750        749        733        734        751        750        734        735        752        751        735        736        753        752        736        737        754        753        737        738        755        754        738        739        756        755        739        740        757        756        740        741        758        757        741        742        759        758        742        743        760        759        743        744        761        760        744        745        762        761        745        746        763        762        746        747        764        763        748        749        766        765        749        750        767        766        750        751        768        767        751        752        769        768        752        753        770        769        753        754        771        770        754        755        772        771        755        756        773        772        756        757        774        773        757        758        775        774        758        759        776        775        759        760        777        776        760        761        778        777        761        762        779        778        762        763        780        779        763        764        781        780        765        766        783        782        766        767        784        783        767        768        785        784        768        769        786        785        769        770        787        786        770        771        788        787        771        772        789        788        772        773        790        789        773        774        791        790        774        775        792        791        775        776        793        792        776        777        794        793        777        778        795        794        778        779        796        795        779        780        797        796        780        781        798        797        782        783        800        799        783        784        801        800        784        785        802        801        785        786        803        802        786        787        804        803        787        788        805        804        788        789        806        805        789        790        807        806        790        791        808        807        791        792        809        808        792        793        810        809        793        794        811        810        794        795        812        811        795        796        813        812        796        797        814        813        797        798        815        814        799        800        817        816        800        801        818        817        801        802        819        818        802        803        820        819        803        804        821        820        804        805        822        821        805        806        823        822        806        807        824        823        807        808        825        824        808        809        826        825        809        810        827        826        810        811        828        827        811        812        829        828        812        813        830        829        813        814        831        830        814        815        832        831        816        817        834        833        817        818        835        834        818        819        836        835        819        820        837        836        820        821        838        837        821        822        839        838        822        823        840        839        823        824        841        840        824        825        842        841        825        826        843        842        826        827        844        843        827        828        845        844        828        829        846        845        829        830        847        846        830        831        848        847        831        832        849        848        833        834        562        561        834        835        563        562        835        836        564        563        836        837        565        564        837        838        566        565        838        839        567        566        839        840        568        567        840        841        569        568        841        842        570        569        842        843        571        570        843        844        572        571        844        845        573        572        845        846        574        573        846        847        575        574        847        848        576        575        848        849        577        576        884        885        579        578        885        886        580        579        886        887        581        580        887        888        582        581        888        889        583        582        889        890        584        583        890        891        585        584        891        892        586        585        892        893        587        586        893        894        588        587        894        895        589        588        895        896        590        589        896        897        591        590        897        898        592        591        898        899        593        592        899        900        594        593        901        902        885        884        902        903        886        885        903        904        887        886        904        905        888        887        905        906        889        888        906        907        890        889        907        908        891        890        908        909        892        891        909        910        893        892        910        911        894        893        911        912        895        894        912        913        896        895        913        914        897        896        914        915        898        897        915        916        899        898        916        917        900        899        918        919        902        901        919        920        903        902        920        921        904        903        921        922        905        904        922        923        906        905        923        924        907        906        924        925        908        907        925        926        909        908        926        927        910        909        927        928        911        910        928        929        912        911        929        930        913        912        930        931        914        913        931        932        915        914        932        933        916        915        933        934        917        916        935        936        919        918        936        937        920        919        937        938        921        920        938        939        922        921        939        940        923        922        940        941        924        923        941        942        925        924        942        943        926        925        943        944        927        926        944        945        928        927        945        946        929        928        946        947        930        929        947        948        931        930        948        949        932        931        949        950        933        932        950        951        934        933        952        953        936        935        953        954        937        936        954        955        938        937        955        956        939        938        956        957        940        939        957        958        941        940        958        959        942        941        959        960        943        942        960        961        944        943        961        962        945        944        962        963        946        945        963        964        947        946        964        965        948        947        965        966        949        948        966        967        950        949        967        968        951        950        969        970        953        952        970        971        954        953        971        972        955        954        972        973        956        955        973        974        957        956        974        975        958        957        975        976        959        958        976        977        960        959        977        978        961        960        978        979        962        961        979        980        963        962        980        981        964        963        981        982        965        964        982        983        966        965        983        984        967        966        984        985        968        967        986        987        970        969        987        988        971        970        988        989        972        971        989        990        973        972        990        991        974        973        991        992        975        974        992        993        976        975        993        994        977        976        994        995        978        977        995        996        979        978        996        997        980        979        997        998        981        980        998        999        982        981        999       1000        983        982       1000       1001        984        983       1001       1002        985        984       1003       1004        987        986       1004       1005        988        987       1005       1006        989        988       1006       1007        990        989       1007       1008        991        990       1008       1009        992        991       1009       1010        993        992       1010       1011        994        993       1011       1012        995        994       1012       1013        996        995       1013       1014        997        996       1014       1015        998        997       1015       1016        999        998       1016       1017       1000        999       1017       1018       1001       1000       1018       1019       1002       1001       1020       1021       1004       1003       1021       1022       1005       1004       1022       1023       1006       1005       1023       1024       1007       1006       1024       1025       1008       1007       1025       1026       1009       1008       1026       1027       1010       1009       1027       1028       1011       1010       1028       1029       1012       1011       1029       1030       1013       1012       1030       1031       1014       1013       1031       1032       1015       1014       1032       1033       1016       1015       1033       1034       1017       1016       1034       1035       1018       1017       1035       1036       1019       1018       1037       1038       1021       1020       1038       1039       1022       1021       1039       1040       1023       1022       1040       1041       1024       1023       1041       1042       1025       1024       1042       1043       1026       1025       1043       1044       1027       1026       1044       1045       1028       1027       1045       1046       1029       1028       1046       1047       1030       1029       1047       1048       1031       1030       1048       1049       1032       1031       1049       1050       1033       1032       1050       1051       1034       1033       1051       1052       1035       1034       1052       1053       1036       1035       1054       1055       1038       1037       1055       1056       1039       1038       1056       1057       1040       1039       1057       1058       1041       1040       1058       1059       1042       1041       1059       1060       1043       1042       1060       1061       1044       1043       1061       1062       1045       1044       1062       1063       1046       1045       1063       1064       1047       1046       1064       1065       1048       1047       1065       1066       1049       1048       1066       1067       1050       1049       1067       1068       1051       1050       1068       1069       1052       1051       1069       1070       1053       1052       1071       1072       1055       1054       1072       1073       1056       1055       1073       1074       1057       1056       1074       1075       1058       1057       1075       1076       1059       1058       1076       1077       1060       1059       1077       1078       1061       1060       1078       1079       1062       1061       1079       1080       1063       1062       1080       1081       1064       1063       1081       1082       1065       1064       1082       1083       1066       1065       1083       1084       1067       1066       1084       1085       1068       1067       1085       1086       1069       1068       1086       1087       1070       1069       1088       1089       1072       1071       1089       1090       1073       1072       1090       1091       1074       1073       1091       1092       1075       1074       1092       1093       1076       1075       1093       1094       1077       1076       1094       1095       1078       1077       1095       1096       1079       1078       1096       1097       1080       1079       1097       1098       1081       1080       1098       1099       1082       1081       1099       1100       1083       1082       1100       1101       1084       1083       1101       1102       1085       1084       1102       1103       1086       1085       1103       1104       1087       1086       1105       1106       1089       1088       1106       1107       1090       1089       1107       1108       1091       1090       1108       1109       1092       1091       1109       1110       1093       1092       1110       1111       1094       1093       1111       1112       1095       1094       1112       1113       1096       1095       1113       1114       1097       1096       1114       1115       1098       1097       1115       1116       1099       1098       1116       1117       1100       1099       1117       1118       1101       1100       1118       1119       1102       1101       1119       1120       1103       1102       1120       1121       1104       1103       1122       1123       1106       1105       1123       1124       1107       1106       1124       1125       1108       1107       1125       1126       1109       1108       1126       1127       1110       1109       1127       1128       1111       1110       1128       1129       1112       1111       1129       1130       1113       1112       1130       1131       1114       1113       1131       1132       1115       1114       1132       1133       1116       1115       1133       1134       1117       1116       1134       1135       1118       1117       1135       1136       1119       1118       1136       1137       1120       1119       1137       1138       1121       1120        272        273       1123       1122        273        274       1124       1123        274        275       1125       1124        275        276       1126       1125        276        277       1127       1126        277        278       1128       1127        278        279       1129       1128        279        280       1130       1129        280        281       1131       1130        281        282       1132       1131        282        283       1133       1132        283        284       1134       1133        284        285       1135       1134        285        286       1136       1135        286        287       1137       1136        287        288       1138       1137 </DataArray>
<DataArray type="Int32"                                    Name="offsets"                                                      NumberOfComponents=" 1" format="ascii">
         4          8         12         16         20         24         28         32         36         40         44         48         52         56         60         64         68         72         76         80         84         88         92         96        100        104        108        112        116        120        124        128        132        136        140        144        148        152        156        160        164        168        172        176        180        184        188        192        196        200        204        208        212        216        220        224        228        232        236        240        244        248        252        256        260        264        268        272        276        280        284        288        292        296        300        304        308        312        316        320        324        328        332        336        340        344        348        352        356        360        364        368        372        376        380        384        388        392        396        400        404        408        412        416        420        424        428        432        436        440        444        448        452        456        460        464        468        472        476        480        484        488        492        496        500        504        508        512        516        520        524        528        532        536        540        544        548        552        556        560        564        568        572        576        580        584        588        592        596        600        604        608        612        616        620        624        628        632        636        640        644        648        652        656        660        664        668        672        676        680        684        688        692        696        700        704        708        712        716        720        724        728        732        736        740        744        748        752        756        760        764        768        772        776        780        784        788        792        796        800        804        808        812        816        820        824        828        832        836        840        844        848        852        856        860        864        868        872        876        880        884        888        892        896        900        904        908        912        916        920        924        928        932        936        940        944        948        952        956        960        964        968        972        976        980        984        988        992        996       1000       1004       1008       1012       1016       1020       1024       1028       1032       1036       1040       1044       1048       1052       1056       1060       1064       1068       1072       1076       1080       1084       1088       1092       1096       1100       1104       1108       1112       1116       1120       1124       1128       1132       1136       1140       1144       1148       1152       1156       1160       1164       1168       1172       1176       1180       1184       1188       1192       1196       1200       1204       1208       1212       1216       1220       1224       1228       1232       1236       1240       1244       1248       1252       1256       1260       1264       1268       1272       1276       1280       1284       1288       1292       1296       1300       1304       1308       1312       1316       1320       1324       1328       1332       1336       1340       1344       1348       1352       1356       1360       1364       1368       1372       1376       1380       1384       1388       1392       1396       1400       1404       1408       1412       1416       1420       1424       1428       1432       1436       1440       1444       1448       1452       1456       1460       1464       1468       1472       1476       1480       1484       1488       1492       1496       1500       1504       1508       1512       1516       1520       1524       1528       1532       1536       1540       1544       1548       1552       1556       1560       1564       1568       1572       1576       1580       1584       1588       1592       1596       1600       1604       1608       1612       1616       1620       1624       1628       1632       1636       1640       1644       1648       1652       1656       1660       1664       1668       1672       1676       1680       1684       1688       1692       1696       1700       1704       1708       1712       1716       1720       1724       1728       1732       1736       1740       1744       1748       1752       1756       1760       1764       1768       1772       1776       1780       1784       1788       1792       1796       1800       1804       1808       1812       1816       1820       1824       1828       1832       1836       1840       1844       1848       1852       1856       1860       1864       1868       1872       1876       1880       1884       1888       1892       1896       1900       1904       1908       1912       1916       1920       1924       1928       1932       1936       1940       1944       1948       1952       1956       1960       1964       1968       1972       1976       1980       1984       1988       1992       1996       2000       2004       2008       2012       2016       2020       2024       2028       2032       2036       2040       2044       2048       2052       2056       2060       2064       2068       2072       2076       2080       2084       2088       2092       2096       2100       2104       2108       2112       2116       2120       2124       2128       2132       2136       2140       2144       2148       2152       2156       2160       2164       2168       2172       2176       2180       2184       2188       2192       2196       2200       2204       2208       2212       2216       2220       2224       2228       2232       2236       2240       2244       2248       2252       2256       2260       2264       2268       2272       2276       2280       2284       2288       2292       2296       2300       2304       2308       2312       2316       2320       2324       2328       2332       2336       2340       2344       2348       2352       2356       2360       2364       2368       2372       2376       2380       2384       2388       2392       2396       2400       2404       2408       2412       2416       2420       2424       2428       2432       2436       2440       2444       2448       2452       2456       2460       2464       2468       2472       2476       2480       2484       2488       2492       2496       2500       2504       2508       2512       2516       2520       2524       2528       2532       2536       2540       2544       2548       2552       2556       2560       2564       2568       2572       2576       2580       2584       2588       2592       2596       2600       2604       2608       2612       2616       2620       2624       2628       2632       2636       2640       2644       2648       2652       2656       2660       2664       2668       2672       2676       2680       2684       2688       2692       2696       2700       2704       2708       2712       2716       2720       2724       2728       2732       2736       2740       2744       2748       2752       2756       2760       2764       2768       2772       2776       2780       2784       2788       2792       2796       2800       2804       2808       2812       2816       2820       2824       2828       2832       2836       2840       2844       2848       2852       2856       2860       2864       2868       2872       2876       2880       2884       2888       2892       2896       2900       2904       2908       2912       2916       2920       2924       2928       2932       2936       2940       2944       2948       2952       2956       2960       2964       2968       2972       2976       2980       2984       2988       2992       2996       3000       3004       3008       3012       3016       3020       3024       3028       3032       3036       3040       3044       3048       3052       3056       3060       3064       3068       3072       3076       3080       3084       3088       3092       3096       3100       3104       3108       3112       3116       3120       3124       3128       3132       3136       3140       3144       3148       3152       3156       3160       3164       3168       3172       3176       3180       3184       3188       3192       3196       3200       3204       3208       3212       3216       3220       3224       3228       3232       3236       3240       3244       3248       3252       3256       3260       3264       3268       3272       3276       3280       3284       3288       3292       3296       3300       3304       3308       3312       3316       3320       3324       3328       3332       3336       3340       3344       3348       3352       3356       3360       3364       3368       3372       3376       3380       3384       3388       3392       3396       3400       3404       3408       3412       3416       3420       3424       3428       3432       3436       3440       3444       3448       3452       3456       3460       3464       3468       3472       3476       3480       3484       3488       3492       3496       3500       3504       3508       3512       3516       3520       3524       3528       3532       3536       3540       3544       3548       3552       3556       3560       3564       3568       3572       3576       3580       3584       3588       3592       3596       3600       3604       3608       3612       3616       3620       3624       3628       3632       3636       3640       3644       3648       3652       3656       3660       3664       3668       3672       3676       3680       3684       3688       3692       3696       3700       3704       3708       3712       3716       3720       3724       3728       3732       3736       3740       3744       3748       3752       3756       3760       3764       3768       3772       3776       3780       3784       3788       3792       3796       3800       3804       3808       3812       3816       3820       3824       3828       3832       3836       3840       3844       3848       3852       3856       3860       3864       3868       3872       3876       3880       3884       3888       3892       3896       3900       3904       3908       3912       3916       3920       3924       3928       3932       3936       3940       3944       3948       3952       3956       3960       3964       3968       3972       3976       3980       3984       3988       3992       3996       4000       4004       4008       4012       4016       4020       4024       4028       4032       4036       4040       4044       4048       4052       4056       4060       4064       4068       4072       4076       4080       4084       4088       4092       4096 </DataArray>
<DataArray type="UInt8"                                    Name="types"                                                      NumberOfComponents=" 1" format="ascii">
         9          9          9          9          9          9          9          9          9          9          9          9          9          9          9          9          9          9          9          9          9          9          9          9          9          9          9          9          9          9          9          9          9          9          9          9          9          9          9          9          9          9          9          9          9          9          9          9          9          9          9          9          9          9          9          9          9          9          9          9          9          9          9          9          9          9          9          9          9          9          9          9          9          9          9          9          9          9          9          9          9          9          9          9          9          9          9          9          9          9          9          9          9          9          9          9          9          9          9          9          9          9          9          9          9          9          9          9          9          9          9          9          9          9          9          9          9          9          9          9          9          9          9          9          9          9          9          9          9          9          9          9          9          9          9          9          9          9          9          9          9          9          9          9          9          9          9          9          9          9          9          9          9          9          9          9          9          9          9          9          9          9          9          9          9          9          9          9          9          9          9          9          9          9          9          9          9          9          9          9          9          9          9          9          9          9          9          9          9          9          9          9          9          9          9          9          9          9          9          9          9          9          9          9          9          9          9          9          9          9          9          9          9          9          9          9          9          9          9          9          9          9          9          9          9          9          9          9          9          9          9          9          9          9          9          9          9          9          9          9          9          9          9          9          9          9          9          9          9          9          9          9          9          9          9          9          9          9          9          9          9          9          9          9          9          9          9          9          9          9          9          9          9          9          9          9          9          9          9          9          9          9          9          9          9          9          9          9          9          9          9          9          9          9          9          9          9          9          9          9          9          9          9          9          9          9          9          9          9          9          9          9          9          9          9          9          9          9          9          9          9          9          9          9          9          9          9          9          9          9          9          9          9          9          9          9          9          9          9          9          9          9          9          9          9          9          9          9          9          9          9          9          9          9          9          9          9          9          9          9          9          9          9          9          9          9          9          9          9          9          9          9          9          9          9          9          9          9          9          9          9          9          9          9          9          9          9          9          9          9          9          9          9          9          9          9          9          9          9          9          9          9          9          9          9          9          9          9          9          9          9          9          9          9          9          9          9          9          9          9          9          9          9          9          9          9          9          9          9          9          9          9          9          9          9          9          9          9          9          9          9          9          9          9          9          9          9          9          9          9          9          9          9          9          9          9          9          9          9          9          9          9          9          9          9          9          9          9          9          9          9          9          9          9          9          9          9          9          9          9          9          9          9          9          9          9          9          9          9          9          9          9          9          9          9          9          9          9          9          9          9          9          9          9          9          9          9          9          9          9          9          9          9          9          9          9          9          9          9          9          9          9          9          9          9          9          9          9          9          9          9          9          9          9          9          9          9          9          9          9          9          9          9          9          9          9          9          9          9          9          9          9          9          9          9          9          9          9          9          9          9          9          9          9          9          9          9          9          9          9          9          9          9          9          9          9          9          9          9          9          9          9          9          9          9          9          9          9          9          9          9          9          9          9          9          9          9          9          9          9          9          9          9          9          9          9          9          9          9          9          9          9          9          9          9          9          9          9          9          9          9          9          9          9          9          9          9          9          9          9          9          9          9          9          9          9          9          9          9          9          9          9          9          9          9          9          9          9          9          9          9          9          9          9          9          9          9          9          9          9          9          9          9          9          9          9          9          9          9          9          9          9          9          9          9          9          9          9          9          9          9          9          9          9          9          9          9          9          9          9          9          9          9          9          9          9          9          9          9          9          9          9          9          9          9          9          9          9          9          9          9          9          9          9          9          9          9          9          9          9          9          9          9          9          9          9          9          9          9          9          9          9          9          9          9          9          9          9          9          9          9          9          9          9          9          9          9          9          9          9          9          9          9          9          9          9          9          9          9          9          9          9          9          9          9          9          9          9          9          9          9          9          9          9          9          9          9          9          9          9          9          9          9          9          9          9          9          9          9          9          9          9          9          9          9          9          9          9          9          9          9          9          9          9          9          9          9          9          9          9          9          9          9          9          9          9          9          9          9          9          9          9          9          9          9          9          9          9          9          9          9          9          9          9          9          9          9          9          9          9          9          9          9          9          9          9          9          9          9          9          9          9          9          9          9          9          9          9          9          9          9          9          9          9          9          9          9          9          9          9          9          9          9          9          9          9          9          9          9          9          9          9          9          9          9          9          9          9          9          9          9          9          9          9          9          9          9          9          9          9          9          9          9          9          9          9          9          9          9          9          9          9          9          9          9          9          9          9          9          9          9          9          9          9          9          9          9          9          9          9          9          9          9          9          9          9          9          9          9          9          9          9          9          9          9          9          9          9          9          9          9          9          9          9          9          9          9          9          9          9          9          9          9          9          9          9          9          9          9          9          9          9          9          9          9          9          9          9          9          9          9          9          9          9          9          9          9          9          9          9          9          9          9          9          9          9          9          9          9          9          9          9          9          9          9          9          9          9          9          9          9          9          9          9          9          9          9          9          9          9          9          9          9          9 </DataArray>
</Cells>
<CellData>
<DataArray type="Int32"                                    Name="material"                                                      NumberOfComponents=" 1" format="ascii">
         1          1          1          1          1          1          1          1          1          1          1          1          1          1          1          1          1          1          1          1          1          1          1          1          1          1          1          1          1          1          1          1          1          1          1          1          1          1          1          1          1          1          1          1          1          1          1          1          1          1          1          1          1          1          1          1          1          1          1          1          1          1          1          1          1          1          1          1          1          1          1          1          1          1          1          1          1          1          1          1          1          1          1          1          1          1          1          1          1          1          1          1          1          1          1          1          1          1          1          1          1          1          1          1          1          1          1          1          1          1          1          1          1          1          1          1          1          1          1          1          1          1          1          1          1          1          1          1          1          1          1          1          1          1          1          1          1          1          1          1          1          1          1          1          1          1          1          1          1          1          1          1          1          1          1          1          1          1          1          1          1          1          1          1          1          1          1          1          1          1          1          1          1          1          1          1          1          1          1          1          1          1          1          1          1          1          1          1          1          1          1          1          1          1          1          1          1          1          1          1          1          1          1          1          1          1          1          1          1          1          1          1          1          1          1          1          1          1          1          1          1          1          1          1          1          1          1          1          1          1          1          1          1          1          1          1          1          1          1          1          1          1          1          1          1          1          1          1          1          1          1          1          1          1          1          1          1          1          1          1          1          1          1          1          1          1          1          1          1          1          1          1          1          1          1          1          1          1          1          1          1          1          1          1          1          1          1          1          1          1          1          1          1          1          1          1          1          1          1          1          1          1          1          1          1          1          1          1          1          1          1          1          1          1          1          1          1          1          1          1          1          1          1          1          1          1          1          1          1          1          1          1          1          1          1          1          1          1          1          1          1          1          1          1          1          1          1          1          1          1          1          1          1          1          1          1          1          1          1          1          1          1          1          1          1          1          1          1          1          1          1          1          1          1          1          1          1          1          1          1          1          1          1          1          1          1          1          1          1          1          1          1          1          1          1          1          1          1          1          1          1          1          1          1          1          1          1          1          1          1          1          1          1          1          1          1          1          1          1          1          1          1          1          1          1          1          1          1          1          1          1          1          1          1          1          1          1          1          1          1          1          1          1          1          1          1          1          1          1          1          1          1          1          1          1          1          1          1          1          1          1          1          1          1          1          1          1          1          1          1          1          1          1          1          1          1          1          1          1          1          1          1          1          1          1          1          1          1          1          1          1          1          1          1          1          1          1          1          1          1          1          1          1          1          1          1          1          1          1          1          1          1          1          1          1          1          1          1          1          1          1          1          1          1          1          1          1          1          1          1          1          1          1          1          1          1          1          1          1          1          1          1          1          1          1          1          1          1          1          1          1          1          1          1          1          1          1          1          1          1          1          1          1          1          1          1          1          1          1          1          1          1          1          1          1          1          1          1          1          1          1          1          1          1          1          1          1          1          1          1          1          1          1          1          1          1          1          1          1          1          1          1          1          1          1          1          1          1          1          1          1          1          1          1          1          1          1          1          1          1          1          1          1          1          1          1          1          1          1          1          1          1          1          1          1          1          1          1          1          1          1          1          1          1          1          1          1          1          1          1          1          1          1          1          1          1          1          1          1          1          1          1          1          1          1          1          1          1          1          1          1          1          1          1          1          1          1          1          1          1          1          1          1          1          1          1          1          1          1          1          1          1          1          1          1          1          1          1          1          1          1          1          1          1          1          1          1          1          1          1          1          1          1          1          1          1          1          1          1          1          1          1          1          1          1          1          1          1          1          1          1          1          1          1          1          1          1          1          1          1          1          1          1          1          1          1          1          1          1          1          1          1          1          1          1          1          1          1          1          1          1          1          1          1          1          1          1          1          1          1          1          1          1          1          1          1          1          1          1          1          1          1          1          1          1          1          1          1          1          1          1          1          1          1          1          1          1          1          1          1          1          1          1          1          1          1          1          1          1          1          1          1          1          1          1          1          1          1          1          1          1          1          1          1          1          1          1          1          1          1          1          1          1          1          1          1          1          1          1          1          1          1          1          1          1          1          1          1          1          1          1          1          1          1          1          1          1          1          1          1          1          1          1          1          1          1          1          1          1          1          1          1          1          1          1          1          1          1          1          1          1          1          1          1          1          1          1          1          1          1          1          1          1          1          1          1          1          1          1          1          1          1          1          1          1          1          1          1          1          1          1          1          1          1          1          1          1          1          1          1          1          1          1          1          1          1          1          1          1          1          1          1          1          1          1          1          1          1          1          1          1          1          1          1          1          1          1          1          1          1          1          1          1          1          1          1          1          1          1          1          1          1          1          1          1          1          1          1          1          1          1          1          1          1          1          1          1          1          1          1          1          1          1          1          1          1          1          1          1          1          1          1          1          1          1          1          1          1          1          1          1          1          1          1          1          1          1          1          1          1          1          1          1          1          1          1          1          1          1          1          1          1          1          1 </DataArray>
</CellData>
<PointData>
<DataArray type="Float64"                                    Name="u"                                                      NumberOfComponents=" 3" format="ascii">
             -0.000002818               0.000000000               0.999999997              -0.000015442               0.000000000               0.999999997              -0.000021812              -0.000000000               0.999999997              -0.000025697              -0.000000000               0.999999997              -0.000028872              -0.000000000               0.999999997              -0.000032013               0.000000000               0.999999997              -0.000035377              -0.000000000               0.999999997              -0.000039198               0.000000000               0.999999997              -0.000043466               0.000000000               0.999999997              -0.000048179               0.000000000               0.999999997              -0.000053362              -0.000000000               0.999999997              -0.000059035              -0.000000000               0.999999997              -0.000065184               0.000000000               0.999999997              -0.000071852              -0.000000000               0.999999997              -0.000079063              -0.000000000               0.999999997              -0.000086805              -0.000000000               0.999999997              -0.000095107               0.000000000               0.999999997              -0.000002886               0.000030844               0.999999997              -0.000015027               0.000027759               0.999999997              -0.000021084               0.000027041               0.999999997              -0.000024877               0.000027770               0.999999997              -0.000027994               0.000029419               0.999999997              -0.000031154               0.000031624               0.999999997              -0.000034646               0.000034206               0.999999997              -0.000038558               0.000037087               0.999999997              -0.000042932               0.000040185               0.999999997              -0.000047781               0.000043505               0.999999997              -0.000053131               0.000047021               0.999999997              -0.000058959               0.000050667               0.999999997              -0.000065254               0.000054404               0.999999997              -0.000072012               0.000058331               0.999999997              -0.000079305               0.000062306               0.999999997              -0.000087167               0.000066346               0.999999997              -0.000095588               0.000070294               0.999999997              -0.000002977               0.000061408               0.999999997              -0.000013791               0.000055116               0.999999997              -0.000019084               0.000053850               0.999999997              -0.000022534               0.000055431               0.999999997              -0.000025628               0.000058737               0.999999997              -0.000028917               0.000063196               0.999999997              -0.000032580               0.000068413               0.999999997              -0.000036750               0.000074183               0.999999997              -0.000041498               0.000080443               0.999999997              -0.000046796               0.000087060               0.999999997              -0.000052642               0.000094169               0.999999997              -0.000058937               0.000101405               0.999999997              -0.000065664               0.000108872               0.999999997              -0.000072867               0.000116704               0.999999997              -0.000080585               0.000124863               0.999999997              -0.000088885               0.000133166               0.999999997              -0.000097758               0.000141552               0.999999997              -0.000003063               0.000091332               0.999999997              -0.000011697               0.000081823               0.999999997              -0.000015953               0.000080197               0.999999997              -0.000019054               0.000082807               0.999999997              -0.000022136               0.000087941               0.999999997              -0.000025672               0.000094706               0.999999997              -0.000029795               0.000102649               0.999999997              -0.000034582               0.000111463               0.999999997              -0.000040026               0.000120949               0.999999997              -0.000046025               0.000130986               0.999999997              -0.000052547               0.000141539               0.999999997              -0.000059600               0.000152447               0.999999997              -0.000067169               0.000163639               0.999999997              -0.000075226               0.000175386               0.999999997              -0.000083792               0.000187680               0.999999997              -0.000092873               0.000200432               0.999999997              -0.000102451               0.000213386               0.999999997              -0.000003226               0.000120256               0.999999997              -0.000008919               0.000107656               0.999999997              -0.000011993               0.000105978               0.999999997              -0.000014844               0.000109859               0.999999997              -0.000018174               0.000116979               0.999999997              -0.000022237               0.000126217               0.999999997              -0.000027146               0.000136917               0.999999997              -0.000032843               0.000148777               0.999999997              -0.000039205               0.000161440               0.999999997              -0.000046207               0.000174801               0.999999997              -0.000053791               0.000188809               0.999999997              -0.000061931               0.000203359               0.999999997              -0.000070621               0.000218252               0.999999997              -0.000079830               0.000233824               0.999999997              -0.000089516               0.000250229               0.999999997              -0.000099654               0.000267179               0.999999997              -0.000110161               0.000284536               0.999999997              -0.000003326               0.000147984               0.999999997              -0.000005595               0.000132524               0.999999997              -0.000007627               0.000131088               0.999999997              -0.000010468               0.000136381               0.999999997              -0.000014362               0.000145553               0.999999997              -0.000019294               0.000157257               0.999999997              -0.000025220               0.000170834               0.999999997              -0.000031991               0.000185700               0.999999997              -0.000039550               0.000201580               0.999999997              -0.000047806               0.000218271               0.999999997              -0.000056673               0.000235629               0.999999997              -0.000066130               0.000253733               0.999999997              -0.000076104               0.000272413               0.999999997              -0.000086582               0.000291796               0.999999997              -0.000097482               0.000312126               0.999999997              -0.000108708               0.000333155               0.999999997              -0.000120187               0.000354563               0.999999997              -0.000003364               0.000174232               0.999999997              -0.000001957               0.000156349               0.999999997              -0.000003234               0.000155367               0.999999997              -0.000006450               0.000162092               0.999999997              -0.000011190               0.000173395               0.999999997              -0.000017221               0.000187664               0.999999997              -0.000024372               0.000204045               0.999999997              -0.000032496               0.000221904               0.999999997              -0.000041454               0.000240928               0.999999997              -0.000051091               0.000260936               0.999999997              -0.000061278               0.000281722               0.999999997              -0.000071923               0.000303498               0.999999997              -0.000083085               0.000326068               0.999999997              -0.000094739               0.000349408               0.999999997              -0.000106808               0.000373674               0.999999997              -0.000119135               0.000398635               0.999999997              -0.000131645               0.000423901               0.999999997              -0.000003372               0.000198669               0.999999997               0.000001723               0.000179019               0.999999997               0.000000823               0.000178632               0.999999997              -0.000003106               0.000186881               0.999999997              -0.000008952               0.000200299               0.999999997              -0.000016269               0.000217105               0.999999997              -0.000024823               0.000236308               0.999999997              -0.000034416               0.000257082               0.999999997              -0.000044729               0.000279339               0.999999997              -0.000055628               0.000302762               0.999999997              -0.000066980               0.000327281               0.999999997              -0.000078894               0.000352861               0.999999997              -0.000091278               0.000379441               0.999999997              -0.000104127               0.000406883               0.999999997              -0.000117265               0.000435150               0.999999997              -0.000130543               0.000463855               0.999999997              -0.000143876               0.000492810               0.999999997              -0.000003400               0.000220903               0.999999997               0.000005316               0.000200553               0.999999997               0.000004200               0.000200749               0.999999997              -0.000000651               0.000210509               0.999999997              -0.000007652               0.000226088               0.999999997              -0.000016433               0.000245437               0.999999997              -0.000026434               0.000267447               0.999999997              -0.000037382               0.000291339               0.999999997              -0.000048937               0.000316943               0.999999997              -0.000060977               0.000343999               0.999999997              -0.000073579               0.000372407               0.999999997              -0.000086610               0.000402122               0.999999997              -0.000100023               0.000432916               0.999999997              -0.000113769               0.000464536               0.999999997              -0.000127675               0.000496683               0.999999997              -0.000141523               0.000529143               0.999999997              -0.000155384               0.000561738               0.999999997              -0.000003714               0.000241677               0.999999997               0.000007621               0.000222867               0.999999997               0.000007814               0.000220868               0.999999997               0.000003901               0.000228099               0.999999997              -0.000002220               0.000240995               0.999999997              -0.000010017               0.000257853               0.999999997              -0.000018926               0.000277515               0.999999997              -0.000028693               0.000299193               0.999999997              -0.000039053               0.000322484               0.999999997              -0.000049851               0.000347216               0.999999997              -0.000060984               0.000373334               0.999999997              -0.000072386               0.000400781               0.999999997              -0.000084038               0.000429410               0.999999997              -0.000095937               0.000458967               0.999999997              -0.000108049               0.000489264               0.999999997              -0.000120136               0.000519957               0.999999997              -0.000132213               0.000551042               0.999999997              -0.000003755               0.000260462               0.999999997               0.000008950               0.000244204               0.999999997               0.000010490               0.000241218               0.999999997               0.000007642               0.000246410               0.999999997               0.000002541               0.000257011               0.999999997              -0.000004087               0.000271542               0.999999997              -0.000011803               0.000288982               0.999999997              -0.000020310               0.000308548               0.999999997              -0.000029491               0.000329785               0.999999997              -0.000039140               0.000352350               0.999999997              -0.000048852               0.000376266               0.999999997              -0.000058643               0.000401524               0.999999997              -0.000068528               0.000427997               0.999999997              -0.000078588               0.000455422               0.999999997              -0.000088753               0.000483611               0.999999997              -0.000098872               0.000512441               0.999999997              -0.000109009               0.000541785               0.999999997              -0.000003597               0.000276859               0.999999997               0.000009322               0.000264016               0.999999997               0.000011942               0.000260996               0.999999997               0.000010160               0.000264864               0.999999997               0.000006278               0.000273670               0.999999997               0.000000842               0.000286242               0.999999997              -0.000005520               0.000301749               0.999999997              -0.000012737               0.000319423               0.999999997              -0.000020642               0.000338782               0.999999997              -0.000028972               0.000359595               0.999999997              -0.000037287               0.000381633               0.999999997              -0.000045413               0.000404916               0.999999997              -0.000053580               0.000429370               0.999999997              -0.000061715               0.000454804               0.999999997              -0.000069887               0.000481014               0.999999997              -0.000077780               0.000507816               0.999999997              -0.000085443               0.000535276               0.999999997              -0.000003212               0.000290591               0.999999997               0.000008758               0.000281574               0.999999997               0.000011982               0.000279249               0.999999997               0.000011186               0.000282546               0.999999997               0.000008420               0.000290097               0.999999997               0.000004344               0.000301157               0.999999997              -0.000000678               0.000315032               0.999999997              -0.000006458               0.000331118               0.999999997              -0.000012945               0.000348977               0.999999997              -0.000019866               0.000368307               0.999999997              -0.000026759               0.000388878               0.999999997              -0.000033320               0.000410669               0.999999997              -0.000039669               0.000433570               0.999999997              -0.000046059               0.000457390               0.999999997              -0.000052182               0.000481986               0.999999997              -0.000057664               0.000507204               0.999999997              -0.000062408               0.000533017               0.999999997              -0.000002618               0.000301453               0.999999997               0.000007372               0.000296146               0.999999997               0.000010586               0.000294996               0.999999997               0.000010497               0.000298179               0.999999997               0.000008714               0.000305078               0.999999997               0.000005938               0.000315053               0.999999997               0.000002258               0.000327764               0.999999997              -0.000002033               0.000342612               0.999999997              -0.000006980               0.000359151               0.999999997              -0.000012395               0.000377282               0.999999997              -0.000017804               0.000396775               0.999999997              -0.000022831               0.000417500               0.999999997              -0.000027539               0.000439252               0.999999997              -0.000032063               0.000461986               0.999999997              -0.000036226               0.000485508               0.999999997              -0.000039620               0.000509709               0.999999997              -0.000041954               0.000534445               0.999999997              -0.000001866               0.000309338               0.999999997               0.000005290               0.000307013               0.999999997               0.000007885               0.000307149               0.999999997               0.000008154               0.000310602               0.999999997               0.000007147               0.000317199               0.999999997               0.000005433               0.000326567               0.999999997               0.000003079               0.000338405               0.999999997               0.000000181               0.000352295               0.999999997              -0.000003146               0.000367964               0.999999997              -0.000006745               0.000385276               0.999999997              -0.000010466               0.000404097               0.999999997              -0.000014033               0.000424158               0.999999997              -0.000017090               0.000445324               0.999999997              -0.000019731               0.000467522               0.999999997              -0.000022218               0.000490477               0.999999997              -0.000024143               0.000514008               0.999999997              -0.000024910               0.000538057               0.999999997              -0.000000975               0.000314135               0.999999997               0.000002747               0.000313784               0.999999997               0.000004210               0.000314799               0.999999997               0.000004431               0.000318537               0.999999997               0.000003977               0.000325084               0.999999997               0.000003164               0.000334135               0.999999997               0.000002032               0.000345489               0.999999997               0.000000590               0.000358886               0.999999997              -0.000001078               0.000374167               0.999999997              -0.000002803               0.000391064               0.999999997              -0.000004742               0.000409410               0.999999997              -0.000006618               0.000429073               0.999999997              -0.000007949               0.000449953               0.999999997              -0.000009173               0.000471843               0.999999997              -0.000010470               0.000494600               0.999999997              -0.000011392               0.000518029               0.999999997              -0.000011342               0.000541893               0.999999997               0.000000000               0.000315686               0.999999997               0.000000000               0.000316062               0.999999997              -0.000000000               0.000317434               0.999999997               0.000000000               0.000321281               0.999999997              -0.000000000               0.000327872               0.999999997              -0.000000000               0.000336813               0.999999997              -0.000000000               0.000347951               0.999999997               0.000000000               0.000361259               0.999999997              -0.000000000               0.000376514               0.999999997               0.000000000               0.000393250               0.999999997               0.000000000               0.000411382               0.999999997              -0.000000000               0.000430887               0.999999997              -0.000000000               0.000451588               0.999999997              -0.000000000               0.000473362               0.999999997               0.000000000               0.000496088               0.999999997               0.000000000               0.000519636               0.999999997               0.000000000               0.000543623               0.999999997              -0.000002818               0.000000000               0.999999997              -0.000015442               0.000000000               0.999999997              -0.000021812              -0.000000000               0.999999997              -0.000025697              -0.000000000               0.999999997              -0.000028872              -0.000000000               0.999999997              -0.000032013               0.000000000               0.999999997              -0.000035377              -0.000000000               0.999999997              -0.000039198               0.000000000               0.999999997              -0.000043466               0.000000000               0.999999997              -0.000048179               0.000000000               0.999999997              -0.000053362              -0.000000000               0.999999997              -0.000059035              -0.000000000               0.999999997              -0.000065184               0.000000000               0.999999997              -0.000071852              -0.000000000               0.999999997              -0.000079063              -0.000000000               0.999999997              -0.000086805              -0.000000000               0.999999997              -0.000095107               0.000000000               0.999999997              -0.000002886              -0.000030844               0.999999997              -0.000015027              -0.000027759               0.999999997              -0.000021084              -0.000027041               0.999999997              -0.000024877              -0.000027770               0.999999997              -0.000027994              -0.000029419               0.999999997              -0.000031154              -0.000031624               0.999999997              -0.000034646              -0.000034206               0.999999997              -0.000038558              -0.000037087               0.999999997              -0.000042932              -0.000040185               0.999999997              -0.000047781              -0.000043505               0.999999997              -0.000053131              -0.000047021               0.999999997              -0.000058959              -0.000050667               0.999999997              -0.000065254              -0.000054404               0.999999997              -0.000072012              -0.000058331               0.999999997              -0.000079305              -0.000062306               0.999999997              -0.000087167              -0.000066346               0.999999997              -0.000095588              -0.000070294               0.999999997              -0.000002977              -0.000061408               0.999999997              -0.000013791              -0.000055116               0.999999997              -0.000019084              -0.000053850               0.999999997              -0.000022534              -0.000055431               0.999999997              -0.000025628              -0.000058737               0.999999997              -0.000028917              -0.000063196               0.999999997              -0.000032580              -0.000068413               0.999999997              -0.000036750              -0.000074183               0.999999997              -0.000041498              -0.000080443               0.999999997              -0.000046796              -0.000087060               0.999999997              -0.000052642              -0.000094169               0.999999997              -0.000058937              -0.000101405               0.999999997              -0.000065664              -0.000108872               0.999999997              -0.000072867              -0.000116704               0.999999997              -0.000080585              -0.000124863               0.999999997              -0.000088885              -0.000133166               0.999999997              -0.000097758              -0.000141552               0.999999997              -0.000003063              -0.000091332               0.999999997              -0.000011697              -0.000081823               0.999999997              -0.000015953              -0.000080197               0.999999997              -0.000019054              -0.000082807               0.999999997              -0.000022136              -0.000087941               0.999999997              -0.000025672              -0.000094706               0.999999997              -0.000029795              -0.000102649               0.999999997              -0.000034582              -0.000111463               0.999999997              -0.000040026              -0.000120949               0.999999997              -0.000046025              -0.000130986               0.999999997              -0.000052547              -0.000141539               0.999999997              -0.000059600              -0.000152447               0.999999997              -0.000067169              -0.000163639               0.999999997              -0.000075226              -0.000175386               0.999999997              -0.000083792              -0.000187680               0.999999997              -0.000092873              -0.000200432               0.999999997              -0.000102451              -0.000213386               0.999999997              -0.000003226              -0.000120256               0.999999997              -0.000008919              -0.000107656               0.999999997              -0.000011993              -0.000105978               0.999999997              -0.000014844              -0.000109859               0.999999997              -0.000018174              -0.000116979               0.999999997              -0.000022237              -0.000126217               0.999999997              -0.000027146              -0.000136917               0.999999997              -0.000032843              -0.000148777               0.999999997              -0.000039205              -0.000161440               0.999999997              -0.000046207              -0.000174801               0.999999997              -0.000053791              -0.000188809               0.999999997              -0.000061931              -0.000203359               0.999999997              -0.000070621              -0.000218252               0.999999997              -0.000079830              -0.000233824               0.999999997              -0.000089516              -0.000250229               0.999999997              -0.000099654              -0.000267179               0.999999997              -0.000110161              -0.000284536               0.999999997              -0.000003326              -0.000147984               0.999999997              -0.000005595              -0.000132524               0.999999997              -0.000007627              -0.000131088               0.999999997              -0.000010468              -0.000136381               0.999999997              -0.000014362              -0.000145553               0.999999997              -0.000019294              -0.000157257               0.999999997              -0.000025220              -0.000170834               0.999999997              -0.000031991              -0.000185700               0.999999997              -0.000039550              -0.000201580               0.999999997              -0.000047806              -0.000218271               0.999999997              -0.000056673              -0.000235629               0.999999997              -0.000066130              -0.000253733               0.999999997              -0.000076104              -0.000272413               0.999999997              -0.000086582              -0.000291796               0.999999997              -0.000097482              -0.000312126               0.999999997              -0.000108708              -0.000333155               0.999999997              -0.000120187              -0.000354563               0.999999997              -0.000003364              -0.000174232               0.999999997              -0.000001957              -0.000156349               0.999999997              -0.000003234              -0.000155367               0.999999997              -0.000006450              -0.000162092               0.999999997              -0.000011190              -0.000173395               0.999999997              -0.000017221              -0.000187664               0.999999997              -0.000024372              -0.000204045               0.999999997              -0.000032496              -0.000221904               0.999999997              -0.000041454              -0.000240928               0.999999997              -0.000051091              -0.000260936               0.999999997              -0.000061278              -0.000281722               0.999999997              -0.000071923              -0.000303498               0.999999997              -0.000083085              -0.000326068               0.999999997              -0.000094739              -0.000349408               0.999999997              -0.000106808              -0.000373674               0.999999997              -0.000119135              -0.000398635               0.999999997              -0.000131645              -0.000423901               0.999999997              -0.000003372              -0.000198669               0.999999997               0.000001723              -0.000179019               0.999999997               0.000000823              -0.000178632               0.999999997              -0.000003106              -0.000186881               0.999999997              -0.000008952              -0.000200299               0.999999997              -0.000016269              -0.000217105               0.999999997              -0.000024823              -0.000236308               0.999999997              -0.000034416              -0.000257082               0.999999997              -0.000044729              -0.000279339               0.999999997              -0.000055628              -0.000302762               0.999999997              -0.000066980              -0.000327281               0.999999997              -0.000078894              -0.000352861               0.999999997              -0.000091278              -0.000379441               0.999999997              -0.000104127              -0.000406883               0.999999997              -0.000117265              -0.000435150               0.999999997              -0.000130543              -0.000463855               0.999999997              -0.000143876              -0.000492810               0.999999997              -0.000003400              -0.000220903               0.999999997               0.000005316              -0.000200553               0.999999997               0.000004200              -0.000200749               0.999999997              -0.000000651              -0.000210509               0.999999997              -0.000007652              -0.000226088               0.999999997              -0.000016433              -0.000245437               0.999999997              -0.000026434              -0.000267447               0.999999997              -0.000037382              -0.000291339               0.999999997              -0.000048937              -0.000316943               0.999999997              -0.000060977              -0.000343999               0.999999997              -0.000073579              -0.000372407               0.999999997              -0.000086610              -0.000402122               0.999999997              -0.000100023              -0.000432916               0.999999997              -0.000113769              -0.000464536               0.999999997              -0.000127675              -0.000496683               0.999999997              -0.000141523              -0.000529143               0.999999997              -0.000155384              -0.000561738               0.999999997              -0.000003714              -0.000241677               0.999999997               0.000007621              -0.000222867               0.999999997               0.000007814              -0.000220868               0.999999997               0.000003901              -0.000228099               0.999999997              -0.000002220              -0.000240995               0.999999997              -0.000010017              -0.000257853               0.999999997              -0.000018926              -0.000277515               0.999999997              -0.000028693              -0.000299193               0.999999997              -0.000039053              -0.000322484               0.999999997              -0.000049851              -0.000347216               0.999999997              -0.000060984              -0.000373334               0.999999997              -0.000072386              -0.000400781               0.999999997              -0.000084038              -0.000429410               0.999999997              -0.000095937              -0.000458967               0.999999997              -0.000108049              -0.000489264               0.999999997              -0.000120136              -0.000519957               0.999999997              -0.000132213              -0.000551042               0.999999997              -0.000003755              -0.000260462               0.999999997               0.000008950              -0.000244204               0.999999997               0.000010490              -0.000241218               0.999999997               0.000007642              -0.000246410               0.999999997               0.000002541              -0.000257011               0.999999997              -0.000004087              -0.000271542               0.999999997              -0.000011803              -0.000288982               0.999999997              -0.000020310              -0.000308548               0.999999997              -0.000029491              -0.000329785               0.999999997              -0.000039140              -0.000352350               0.999999997              -0.000048852              -0.000376266               0.999999997              -0.000058643              -0.000401524               0.999999997              -0.000068528              -0.000427997               0.999999997              -0.000078588              -0.000455422               0.999999997              -0.000088753              -0.000483611               0.999999997              -0.000098872              -0.000512441               0.999999997              -0.000109009              -0.000541785               0.999999997              -0.000003597              -0.000276859               0.999999997               0.000009322              -0.000264016               0.999999997               0.000011942              -0.000260996               0.999999997               0.000010160              -0.000264864               0.999999997               0.000006278              -0.000273670               0.999999997               0.000000842              -0.000286242               0.999999997              -0.000005520              -0.000301749               0.999999997              -0.000012737              -0.000319423               0.999999997              -0.000020642              -0.000338782               0.999999997              -0.000028972              -0.000359595               0.999999997              -0.000037287              -0.000381633               0.999999997              -0.000045413              -0.000404916               0.999999997              -0.000053580              -0.000429370               0.999999997              -0.000061715              -0.000454804               0.999999997              -0.000069887              -0.000481014               0.999999997              -0.000077780              -0.000507816               0.999999997              -0.000085443              -0.000535276               0.999999997              -0.000003212              -0.000290591               0.999999997               0.000008758              -0.000281574               0.999999997               0.000011982              -0.000279249               0.999999997               0.000011186              -0.000282546               0.999999997               0.000008420              -0.000290097               0.999999997               0.000004344              -0.000301157               0.999999997              -0.000000678              -0.000315032               0.999999997              -0.000006458              -0.000331118               0.999999997              -0.000012945              -0.000348977               0.999999997              -0.000019866              -0.000368307               0.999999997              -0.000026759              -0.000388878               0.999999997              -0.000033320              -0.000410669               0.999999997              -0.000039669              -0.000433570               0.999999997              -0.000046059              -0.000457390               0.999999997              -0.000052182              -0.000481986               0.999999997              -0.000057664              -0.000507204               0.999999997              -0.000062408              -0.000533017               0.999999997              -0.000002618              -0.000301453               0.999999997               0.000007372              -0.000296146               0.999999997               0.000010586              -0.000294996               0.999999997               0.000010497              -0.000298179               0.999999997               0.000008714              -0.000305078               0.999999997               0.000005938              -0.000315053               0.999999997               0.000002258              -0.000327764               0.999999997              -0.000002033              -0.000342612               0.999999997              -0.000006980              -0.000359151               0.999999997              -0.000012395              -0.000377282               0.999999997              -0.000017804              -0.000396775               0.999999997              -0.000022831              -0.000417500               0.999999997              -0.000027539              -0.000439252               0.999999997              -0.000032063              -0.000461986               0.999999997              -0.000036226              -0.000485508               0.999999997              -0.000039620              -0.000509709               0.999999997              -0.000041954              -0.000534445               0.999999997              -0.000001866              -0.000309338               0.999999997               0.000005290              -0.000307013               0.999999997               0.000007885              -0.000307149               0.999999997               0.000008154              -0.000310602               0.999999997               0.000007147              -0.000317199               0.999999997               0.000005433              -0.000326567               0.999999997               0.000003079              -0.000338405               0.999999997               0.000000181              -0.000352295               0.999999997              -0.000003146              -0.000367964               0.999999997              -0.000006745              -0.000385276               0.999999997              -0.000010466              -0.000404097               0.999999997              -0.000014033              -0.000424158               0.999999997              -0.000017090              -0.000445324               0.999999997              -0.000019731              -0.000467522               0.999999997              -0.000022218              -0.000490477               0.999999997              -0.000024143              -0.000514008               0.999999997              -0.000024910              -0.000538057               0.999999997              -0.000000975              -0.000314135               0.999999997               0.000002747              -0.000313784               0.999999997               0.000004210              -0.000314799               0.999999997               0.000004431              -0.000318537               0.999999997               0.000003977              -0.000325084               0.999999997               0.000003164              -0.000334135               0.999999997               0.000002032              -0.000345489               0.999999997               0.000000590              -0.000358886               0.999999997              -0.000001078              -0.000374167               0.999999997              -0.000002803              -0.000391064               0.999999997              -0.000004742              -0.000409410               0.999999997              -0.000006618              -0.000429073               0.999999997              -0.000007949              -0.000449953               0.999999997              -0.000009173              -0.000471843               0.999999997              -0.000010470              -0.000494600               0.999999997              -0.000011392              -0.000518029               0.999999997              -0.000011342              -0.000541893               0.999999997              -0.000000000              -0.000315686               0.999999997              -0.000000000              -0.000316062               0.999999997              -0.000000000              -0.000317434               0.999999997               0.000000000              -0.000321281               0.999999997              -0.000000000              -0.000327872               0.999999997              -0.000000000              -0.000336813               0.999999997              -0.000000000              -0.000347951               0.999999997              -0.000000000              -0.000361259               0.999999997              -0.000000000              -0.000376514               0.999999997              -0.000000000              -0.000393250               0.999999997              -0.000000000              -0.000411382               0.999999997              -0.000000000              -0.000430887               0.999999997               0.000000000              -0.000451588               0.999999997               0.000000000              -0.000473362               0.999999997              -0.000000000              -0.000496088               0.999999997               0.000000000              -0.000519636               0.999999997               0.000000000              -0.000543623               0.999999997               0.000002818              -0.000000000               0.999999997               0.000015442              -0.000000000               0.999999997               0.000021812              -0.000000000               0.999999997               0.000025697              -0.000000000               0.999999997               0.000028872              -0.000000000               0.999999997               0.000032013              -0.000000000               0.999999997               0.000035377              -0.000000000               0.999999997               0.000039198               0.000000000               0.999999997               0.000043466               0.000000000               0.999999997               0.000048179              -0.000000000               0.999999997               0.000053362               0.000000000               0.999999997               0.000059035               0.000000000               0.999999997               0.000065184               0.000000000               0.999999997               0.000071852               0.000000000               0.999999997               0.000079063               0.000000000               0.999999997               0.000086805               0.000000000               0.999999997               0.000095107               0.000000000               0.999999997               0.000002886              -0.000030844               0.999999997               0.000015027              -0.000027759               0.999999997               0.000021084              -0.000027041               0.999999997               0.000024877              -0.000027770               0.999999997               0.000027994              -0.000029419               0.999999997               0.000031154              -0.000031624               0.999999997               0.000034646              -0.000034206               0.999999997               0.000038558              -0.000037087               0.999999997               0.000042932              -0.000040185               0.999999997               0.000047781              -0.000043505               0.999999997               0.000053131              -0.000047021               0.999999997               0.000058959              -0.000050667               0.999999997               0.000065254              -0.000054404               0.999999997               0.000072012              -0.000058331               0.999999997               0.000079305              -0.000062306               0.999999997               0.000087167              -0.000066346               0.999999997               0.000095588              -0.000070294               0.999999997               0.000002977              -0.000061408               0.999999997               0.000013791              -0.000055116               0.999999997               0.000019084              -0.000053850               0.999999997               0.000022534              -0.000055431               0.999999997               0.000025628              -0.000058737               0.999999997               0.000028917              -0.000063196               0.999999997               0.000032580              -0.000068413               0.999999997               0.000036750              -0.000074183               0.999999997               0.000041498              -0.000080443               0.999999997               0.000046796              -0.000087060               0.999999997               0.000052642              -0.000094169               0.999999997               0.000058937              -0.000101405               0.999999997               0.000065664              -0.000108872               0.999999997               0.000072867              -0.000116704               0.999999997               0.000080585              -0.000124863               0.999999997               0.000088885              -0.000133166               0.999999997               0.000097758              -0.000141552               0.999999997               0.000003063              -0.000091332               0.999999997               0.000011697              -0.000081823               0.999999997               0.000015953              -0.000080197               0.999999997               0.000019054              -0.000082807               0.999999997               0.000022136              -0.000087941               0.999999997               0.000025672              -0.000094706               0.999999997               0.000029795              -0.000102649               0.999999997               0.000034582              -0.000111463               0.999999997               0.000040026              -0.000120949               0.999999997               0.000046025              -0.000130986               0.999999997               0.000052547              -0.000141539               0.999999997               0.000059600              -0.000152447               0.999999997               0.000067169              -0.000163639               0.999999997               0.000075226              -0.000175386               0.999999997               0.000083792              -0.000187680               0.999999997               0.000092873              -0.000200432               0.999999997               0.000102451              -0.000213386               0.999999997               0.000003226              -0.000120256               0.999999997               0.000008919              -0.000107656               0.999999997               0.000011993              -0.000105978               0.999999997               0.000014844              -0.000109859               0.999999997               0.000018174              -0.000116979               0.999999997               0.000022237              -0.000126217               0.999999997               0.000027146              -0.000136917               0.999999997               0.000032843              -0.000148777               0.999999997               0.000039205              -0.000161440               0.999999997               0.000046207              -0.000174801               0.999999997               0.000053791              -0.000188809               0.999999997               0.000061931              -0.000203359               0.999999997               0.000070621              -0.000218252               0.999999997               0.000079830              -0.000233824               0.999999997               0.000089516              -0.000250229               0.999999997               0.000099654              -0.000267179               0.999999997               0.000110161              -0.000284536               0.999999997               0.000003326              -0.000147984               0.999999997               0.000005595              -0.000132524               0.999999997               0.000007627              -0.000131088               0.999999997               0.000010468              -0.000136381               0.999999997               0.000014362              -0.000145553               0.999999997               0.000019294              -0.000157257               0.999999997               0.000025220              -0.000170834               0.999999997               0.000031991              -0.000185700               0.999999997               0.000039550              -0.000201580               0.999999997               0.000047806              -0.000218271               0.999999997               0.000056673              -0.000235629               0.999999997               0.000066130              -0.000253733               0.999999997               0.000076104              -0.000272413               0.999999997               0.000086582              -0.000291796               0.999999997               0.000097482              -0.000312126               0.999999997               0.000108708              -0.000333155               0.999999997               0.000120187              -0.000354563               0.999999997               0.000003364              -0.000174232               0.999999997               0.000001957              -0.000156349               0.999999997               0.000003234              -0.000155367               0.999999997               0.000006450              -0.000162092               0.999999997               0.000011190              -0.000173395               0.999999997               0.000017221              -0.000187664               0.999999997               0.000024372              -0.000204045               0.999999997               0.000032496              -0.000221904               0.999999997               0.000041454              -0.000240928               0.999999997               0.000051091              -0.000260936               0.999999997               0.000061278              -0.000281722               0.999999997               0.000071923              -0.000303498               0.999999997               0.000083085              -0.000326068               0.999999997               0.000094739              -0.000349408               0.999999997               0.000106808              -0.000373674               0.999999997               0.000119135              -0.000398635               0.999999997               0.000131645              -0.000423901               0.999999997               0.000003372              -0.000198669               0.999999997              -0.000001723              -0.000179019               0.999999997              -0.000000823              -0.000178632               0.999999997               0.000003106              -0.000186881               0.999999997               0.000008952              -0.000200299               0.999999997               0.000016269              -0.000217105               0.999999997               0.000024823              -0.000236308               0.999999997               0.000034416              -0.000257082               0.999999997               0.000044729              -0.000279339               0.999999997               0.000055628              -0.000302762               0.999999997               0.000066980              -0.000327281               0.999999997               0.000078894              -0.000352861               0.999999997               0.000091278              -0.000379441               0.999999997               0.000104127              -0.000406883               0.999999997               0.000117265              -0.000435150               0.999999997               0.000130543              -0.000463855               0.999999997               0.000143876              -0.000492810               0.999999997               0.000003400              -0.000220903               0.999999997              -0.000005316              -0.000200553               0.999999997              -0.000004200              -0.000200749               0.999999997               0.000000651              -0.000210509               0.999999997               0.000007652              -0.000226088               0.999999997               0.000016433              -0.000245437               0.999999997               0.000026434              -0.000267447               0.999999997               0.000037382              -0.000291339               0.999999997               0.000048937              -0.000316943               0.999999997               0.000060977              -0.000343999               0.999999997               0.000073579              -0.000372407               0.999999997               0.000086610              -0.000402122               0.999999997               0.000100023              -0.000432916               0.999999997               0.000113769              -0.000464536               0.999999997               0.000127675              -0.000496683               0.999999997               0.000141523              -0.000529143               0.999999997               0.000155384              -0.000561738               0.999999997               0.000003714              -0.000241677               0.999999997              -0.000007621              -0.000222867               0.999999997              -0.000007814              -0.000220868               0.999999997              -0.000003901              -0.000228099               0.999999997               0.000002220              -0.000240995               0.999999997               0.000010017              -0.000257853               0.999999997               0.000018926              -0.000277515               0.999999997               0.000028693              -0.000299193               0.999999997               0.000039053              -0.000322484               0.999999997               0.000049851              -0.000347216               0.999999997               0.000060984              -0.000373334               0.999999997               0.000072386              -0.000400781               0.999999997               0.000084038              -0.000429410               0.999999997               0.000095937              -0.000458967               0.999999997               0.000108049              -0.000489264               0.999999997               0.000120136              -0.000519957               0.999999997               0.000132213              -0.000551042               0.999999997               0.000003755              -0.000260462               0.999999997              -0.000008950              -0.000244204               0.999999997              -0.000010490              -0.000241218               0.999999997              -0.000007642              -0.000246410               0.999999997              -0.000002541              -0.000257011               0.999999997               0.000004087              -0.000271542               0.999999997               0.000011803              -0.000288982               0.999999997               0.000020310              -0.000308548               0.999999997               0.000029491              -0.000329785               0.999999997               0.000039140              -0.000352350               0.999999997               0.000048852              -0.000376266               0.999999997               0.000058643              -0.000401524               0.999999997               0.000068528              -0.000427997               0.999999997               0.000078588              -0.000455422               0.999999997               0.000088753              -0.000483611               0.999999997               0.000098872              -0.000512441               0.999999997               0.000109009              -0.000541785               0.999999997               0.000003597              -0.000276859               0.999999997              -0.000009322              -0.000264016               0.999999997              -0.000011942              -0.000260996               0.999999997              -0.000010160              -0.000264864               0.999999997              -0.000006278              -0.000273670               0.999999997              -0.000000842              -0.000286242               0.999999997               0.000005520              -0.000301749               0.999999997               0.000012737              -0.000319423               0.999999997               0.000020642              -0.000338782               0.999999997               0.000028972              -0.000359595               0.999999997               0.000037287              -0.000381633               0.999999997               0.000045413              -0.000404916               0.999999997               0.000053580              -0.000429370               0.999999997               0.000061715              -0.000454804               0.999999997               0.000069887              -0.000481014               0.999999997               0.000077780              -0.000507816               0.999999997               0.000085443              -0.000535276               0.999999997               0.000003212              -0.000290591               0.999999997              -0.000008758              -0.000281574               0.999999997              -0.000011982              -0.000279249               0.999999997              -0.000011186              -0.000282546               0.999999997              -0.000008420              -0.000290097               0.999999997              -0.000004344              -0.000301157               0.999999997               0.000000678              -0.000315032               0.999999997               0.000006458              -0.000331118               0.999999997               0.000012945              -0.000348977               0.999999997               0.000019866              -0.000368307               0.999999997               0.000026759              -0.000388878               0.999999997               0.000033320              -0.000410669               0.999999997               0.000039669              -0.000433570               0.999999997               0.000046059              -0.000457390               0.999999997               0.000052182              -0.000481986               0.999999997               0.000057664              -0.000507204               0.999999997               0.000062408              -0.000533017               0.999999997               0.000002618              -0.000301453               0.999999997              -0.000007372              -0.000296146               0.999999997              -0.000010586              -0.000294996               0.999999997              -0.000010497              -0.000298179               0.999999997              -0.000008714              -0.000305078               0.999999997              -0.000005938              -0.000315053               0.999999997              -0.000002258              -0.000327764               0.999999997               0.000002033              -0.000342612               0.999999997               0.000006980              -0.000359151               0.999999997               0.000012395              -0.000377282               0.999999997               0.000017804              -0.000396775               0.999999997               0.000022831              -0.000417500               0.999999997               0.000027539              -0.000439252               0.999999997               0.000032063              -0.000461986               0.999999997               0.000036226              -0.000485508               0.999999997               0.000039620              -0.000509709               0.999999997               0.000041954              -0.000534445               0.999999997               0.000001866              -0.000309338               0.999999997              -0.000005290              -0.000307013               0.999999997              -0.000007885              -0.000307149               0.999999997              -0.000008154              -0.000310602               0.999999997              -0.000007147              -0.000317199               0.999999997              -0.000005433              -0.000326567               0.999999997              -0.000003079              -0.000338405               0.999999997              -0.000000181              -0.000352295               0.999999997               0.000003146              -0.000367964               0.999999997               0.000006745              -0.000385276               0.999999997               0.000010466              -0.000404097               0.999999997               0.000014033              -0.000424158               0.999999997               0.000017090              -0.000445324               0.999999997               0.000019731              -0.000467522               0.999999997               0.000022218              -0.000490477               0.999999997               0.000024143              -0.000514008               0.999999997               0.000024910              -0.000538057               0.999999997               0.000000975              -0.000314135               0.999999997              -0.000002747              -0.000313784               0.999999997              -0.000004210              -0.000314799               0.999999997              -0.000004431              -0.000318537               0.999999997              -0.000003977              -0.000325084               0.999999997              -0.000003164              -0.000334135               0.999999997              -0.000002032              -0.000345489               0.999999997              -0.000000590              -0.000358886               0.999999997               0.000001078              -0.000374167               0.999999997               0.000002803              -0.000391064               0.999999997               0.000004742              -0.000409410               0.999999997               0.000006618              -0.000429073               0.999999997               0.000007949              -0.000449953               0.999999997               0.000009173              -0.000471843               0.999999997               0.000010470              -0.000494600               0.999999997               0.000011392              -0.000518029               0.999999997               0.000011342              -0.000541893               0.999999997              -0.000000000              -0.000315686               0.999999997              -0.000000000              -0.000316062               0.999999997              -0.000000000              -0.000317434               0.999999997               0.000000000              -0.000321281               0.999999997              -0.000000000              -0.000327872               0.999999997              -0.000000000              -0.000336813               0.999999997              -0.000000000              -0.000347951               0.999999997              -0.000000000              -0.000361259               0.999999997              -0.000000000              -0.000376514               0.999999997              -0.000000000              -0.000393250               0.999999997              -0.000000000              -0.000411382               0.999999997              -0.000000000              -0.000430887               0.999999997               0.000000000              -0.000451588               0.999999997               0.000000000              -0.000473362               0.999999997              -0.000000000              -0.000496088               0.999999997               0.000000000              -0.000519636               0.999999997               0.000000000              -0.000543623               0.999999997               0.000002818              -0.000000000               0.999999997               0.000015442              -0.000000000               0.999999997               0.000021812              -0.000000000               0.999999997               0.000025697              -0.000000000               0.999999997               0.000028872              -0.000000000               0.999999997               0.000032013              -0.000000000               0.999999997               0.000035377              -0.000000000               0.999999997               0.000039198               0.000000000               0.999999997               0.000043466               0.000000000               0.999999997               0.000048179              -0.000000000               0.999999997               0.000053362               0.000000000               0.999999997               0.000059035               0.000000000               0.999999997               0.000065184               0.000000000               0.999999997               0.000071852               0.000000000               0.999999997               0.000079063               0.000000000               0.999999997               0.000086805               0.000000000               0.999999997               0.000095107               0.000000000               0.999999997               0.000002886               0.000030844               0.999999997               0.000015027               0.000027759               0.999999997               0.000021084               0.000027041               0.999999997               0.000024877               0.000027770               0.999999997               0.000027994               0.000029419               0.999999997               0.000031154               0.000031624               0.999999997               0.000034646               0.000034206               0.999999997               0.000038558               0.000037087               0.999999997               0.000042932               0.000040185               0.999999997               0.000047781               0.000043505               0.999999997               0.000053131               0.000047021               0.999999997               0.000058959               0.000050667               0.999999997               0.000065254               0.000054404               0.999999997               0.000072012               0.000058331               0.999999997               0.000079305               0.000062306               0.999999997               0.000087167               0.000066346               0.999999997               0.000095588               0.000070294               0.999999997               0.000002977               0.000061408               0.999999997               0.000013791               0.000055116               0.999999997               0.000019084               0.000053850               0.999999997               0.000022534               0.000055431               0.999999997               0.000025628               0.000058737               0.999999997               0.000028917               0.000063196               0.999999997               0.000032580               0.000068413               0.999999997               0.000036750               0.000074183               0.999999997               0.000041498               0.000080443               0.999999997               0.000046796               0.000087060               0.999999997               0.000052642               0.000094169               0.999999997               0.000058937               0.000101405               0.999999997               0.000065664               0.000108872               0.999999997               0.000072867               0.000116704               0.999999997               0.000080585               0.000124863               0.999999997               0.000088885               0.000133166               0.999999997               0.000097758               0.000141552               0.999999997               0.000003063               0.000091332               0.999999997               0.000011697               0.000081823               0.999999997               0.000015953               0.000080197               0.999999997               0.000019054               0.000082807               0.999999997               0.000022136               0.000087941               0.999999997               0.000025672               0.000094706               0.999999997               0.000029795               0.000102649               0.999999997               0.000034582               0.000111463               0.999999997               0.000040026               0.000120949               0.999999997               0.000046025               0.000130986               0.999999997               0.000052547               0.000141539               0.999999997               0.000059600               0.000152447               0.999999997               0.000067169               0.000163639               0.999999997               0.000075226               0.000175386               0.999999997               0.000083792               0.000187680               0.999999997               0.000092873               0.000200432               0.999999997               0.000102451               0.000213386               0.999999997               0.000003226               0.000120256               0.999999997               0.000008919               0.000107656               0.999999997               0.000011993               0.000105978               0.999999997               0.000014844               0.000109859               0.999999997               0.000018174               0.000116979               0.999999997               0.000022237               0.000126217               0.999999997               0.000027146               0.000136917               0.999999997               0.000032843               0.000148777               0.999999997               0.000039205               0.000161440               0.999999997               0.000046207               0.000174801               0.999999997               0.000053791               0.000188809               0.999999997               0.000061931               0.000203359               0.999999997               0.000070621               0.000218252               0.999999997               0.000079830               0.000233824               0.999999997               0.000089516               0.000250229               0.999999997               0.000099654               0.000267179               0.999999997               0.000110161               0.000284536               0.999999997               0.000003326               0.000147984               0.999999997               0.000005595               0.000132524               0.999999997               0.000007627               0.000131088               0.999999997               0.000010468               0.000136381               0.999999997               0.000014362               0.000145553               0.999999997               0.000019294               0.000157257               0.999999997               0.000025220               0.000170834               0.999999997               0.000031991               0.000185700               0.999999997               0.000039550               0.000201580               0.999999997               0.000047806               0.000218271               0.999999997               0.000056673               0.000235629               0.999999997               0.000066130               0.000253733               0.999999997               0.000076104               0.000272413               0.999999997               0.000086582               0.000291796               0.999999997               0.000097482               0.000312126               0.999999997               0.000108708               0.000333155               0.999999997               0.000120187               0.000354563               0.999999997               0.000003364               0.000174232               0.999999997               0.000001957               0.000156349               0.999999997               0.000003234               0.000155367               0.999999997               0.000006450               0.000162092               0.999999997               0.000011190               0.000173395               0.999999997               0.000017221               0.000187664               0.999999997               0.000024372               0.000204045               0.999999997               0.000032496               0.000221904               0.999999997               0.000041454               0.000240928               0.999999997               0.000051091               0.000260936               0.999999997               0.000061278               0.000281722               0.999999997               0.000071923               0.000303498               0.999999997               0.000083085               0.000326068               0.999999997               0.000094739               0.000349408               0.999999997               0.000106808               0.000373674               0.999999997               0.000119135               0.000398635               0.999999997               0.000131645               0.000423901               0.999999997               0.000003372               0.000198669               0.999999997              -0.000001723               0.000179019               0.999999997              -0.000000823               0.000178632               0.999999997               0.000003106               0.000186881               0.999999997               0.000008952               0.000200299               0.999999997               0.000016269               0.000217105               0.999999997               0.000024823               0.000236308               0.999999997               0.000034416               0.000257082               0.999999997               0.000044729               0.000279339               0.999999997               0.000055628               0.000302762               0.999999997               0.000066980               0.000327281               0.999999997               0.000078894               0.000352861               0.999999997               0.000091278               0.000379441               0.999999997               0.000104127               0.000406883               0.999999997               0.000117265               0.000435150               0.999999997               0.000130543               0.000463855               0.999999997               0.000143876               0.000492810               0.999999997               0.000003400               0.000220903               0.999999997              -0.000005316               0.000200553               0.999999997              -0.000004200               0.000200749               0.999999997               0.000000651               0.000210509               0.999999997               0.000007652               0.000226088               0.999999997               0.000016433               0.000245437               0.999999997               0.000026434               0.000267447               0.999999997               0.000037382               0.000291339               0.999999997               0.000048937               0.000316943               0.999999997               0.000060977               0.000343999               0.999999997               0.000073579               0.000372407               0.999999997               0.000086610               0.000402122               0.999999997               0.000100023               0.000432916               0.999999997               0.000113769               0.000464536               0.999999997               0.000127675               0.000496683               0.999999997               0.000141523               0.000529143               0.999999997               0.000155384               0.000561738               0.999999997               0.000003714               0.000241677               0.999999997              -0.000007621               0.000222867               0.999999997              -0.000007814               0.000220868               0.999999997              -0.000003901               0.000228099               0.999999997               0.000002220               0.000240995               0.999999997               0.000010017               0.000257853               0.999999997               0.000018926               0.000277515               0.999999997               0.000028693               0.000299193               0.999999997               0.000039053               0.000322484               0.999999997               0.000049851               0.000347216               0.999999997               0.000060984               0.000373334               0.999999997               0.000072386               0.000400781               0.999999997               0.000084038               0.000429410               0.999999997               0.000095937               0.000458967               0.999999997               0.000108049               0.000489264               0.999999997               0.000120136               0.000519957               0.999999997               0.000132213               0.000551042               0.999999997               0.000003755               0.000260462               0.999999997              -0.000008950               0.000244204               0.999999997              -0.000010490               0.000241218               0.999999997              -0.000007642               0.000246410               0.999999997              -0.000002541               0.000257011               0.999999997               0.000004087               0.000271542               0.999999997               0.000011803               0.000288982               0.999999997               0.000020310               0.000308548               0.999999997               0.000029491               0.000329785               0.999999997               0.000039140               0.000352350               0.999999997               0.000048852               0.000376266               0.999999997               0.000058643               0.000401524               0.999999997               0.000068528               0.000427997               0.999999997               0.000078588               0.000455422               0.999999997               0.000088753               0.000483611               0.999999997               0.000098872               0.000512441               0.999999997               0.000109009               0.000541785               0.999999997               0.000003597               0.000276859               0.999999997              -0.000009322               0.000264016               0.999999997              -0.000011942               0.000260996               0.999999997              -0.000010160               0.000264864               0.999999997              -0.000006278               0.000273670               0.999999997              -0.000000842               0.000286242               0.999999997               0.000005520               0.000301749               0.999999997               0.000012737               0.000319423               0.999999997               0.000020642               0.000338782               0.999999997               0.000028972               0.000359595               0.999999997               0.000037287               0.000381633               0.999999997               0.000045413               0.000404916               0.999999997               0.000053580               0.000429370               0.999999997               0.000061715               0.000454804               0.999999997               0.000069887               0.000481014               0.999999997               0.000077780               0.000507816               0.999999997               0.000085443               0.000535276               0.999999997               0.000003212               0.000290591               0.999999997              -0.000008758               0.000281574               0.999999997              -0.000011982               0.000279249               0.999999997              -0.000011186               0.000282546               0.999999997              -0.000008420               0.000290097               0.999999997              -0.000004344               0.000301157               0.999999997               0.000000678               0.000315032               0.999999997               0.000006458               0.000331118               0.999999997               0.000012945               0.000348977               0.999999997               0.000019866               0.000368307               0.999999997               0.000026759               0.000388878               0.999999997               0.000033320               0.000410669               0.999999997               0.000039669               0.000433570               0.999999997               0.000046059               0.000457390               0.999999997               0.000052182               0.000481986               0.999999997               0.000057664               0.000507204               0.999999997               0.000062408               0.000533017               0.999999997               0.000002618               0.000301453               0.999999997              -0.000007372               0.000296146               0.999999997              -0.000010586               0.000294996               0.999999997              -0.000010497               0.000298179               0.999999997              -0.000008714               0.000305078               0.999999997              -0.000005938               0.000315053               0.999999997              -0.000002258               0.000327764               0.999999997               0.000002033               0.000342612               0.999999997               0.000006980               0.000359151               0.999999997               0.000012395               0.000377282               0.999999997               0.000017804               0.000396775               0.999999997               0.000022831               0.000417500               0.999999997               0.000027539               0.000439252               0.999999997               0.000032063               0.000461986               0.999999997               0.000036226               0.000485508               0.999999997               0.000039620               0.000509709               0.999999997               0.000041954               0.000534445               0.999999997               0.000001866               0.000309338               0.999999997              -0.000005290               0.000307013               0.999999997              -0.000007885               0.000307149               0.999999997              -0.000008154               0.000310602               0.999999997              -0.000007147               0.000317199               0.999999997              -0.000005433               0.000326567               0.999999997              -0.000003079               0.000338405               0.999999997              -0.000000181               0.000352295               0.999999997               0.000003146               0.000367964               0.999999997               0.000006745               0.000385276               0.999999997               0.000010466               0.000404097               0.999999997               0.000014033               0.000424158               0.999999997               0.000017090               0.000445324               0.999999997               0.000019731               0.000467522               0.999999997               0.000022218               0.000490477               0.999999997               0.000024143               0.000514008               0.999999997               0.000024910               0.000538057               0.999999997               0.000000975               0.000314135               0.999999997              -0.000002747               0.000313784               0.999999997              -0.000004210               0.000314799               0.999999997              -0.000004431               0.000318537               0.999999997              -0.000003977               0.000325084               0.999999997              -0.000003164               0.000334135               0.999999997              -0.000002032               0.000345489               0.999999997              -0.000000590               0.000358886               0.999999997               0.000001078               0.000374167               0.999999997               0.000002803               0.000391064               0.999999997               0.000004742               0.000409410               0.999999997               0.000006618               0.000429073               0.999999997               0.000007949               0.000449953               0.999999997               0.000009173               0.000471843               0.999999997               0.000010470               0.000494600               0.999999997               0.000011392               0.000518029               0.999999997               0.000011342               0.000541893               0.999999997               0.000000000               0.000315686               0.999999997               0.000000000               0.000316062               0.999999997              -0.000000000               0.000317434               0.999999997               0.000000000               0.000321281               0.999999997              -0.000000000               0.000327872               0.999999997              -0.000000000               0.000336813               0.999999997              -0.000000000               0.000347951               0.999999997               0.000000000               0.000361259               0.999999997              -0.000000000               0.000376514               0.999999997               0.000000000               0.000393250               0.999999997               0.000000000               0.000411382               0.999999997              -0.000000000               0.000430887               0.999999997              -0.000000000               0.000451588               0.999999997              -0.000000000               0.000473362               0.999999997               0.000000000               0.000496088               0.999999997               0.000000000               0.000519636               0.999999997               0.000000000               0.000543623               0.999999997 </DataArray>
<DataArray type="Float64"                                    Name="defo"                                                      NumberOfComponents=" 3" format="ascii">
             -0.000002818               0.000000000               0.999999997              -0.000015442               0.000000000               0.999999997              -0.000021812              -0.000000000               0.999999997              -0.000025697              -0.000000000               0.999999997              -0.000028872              -0.000000000               0.999999997              -0.000032013               0.000000000               0.999999997              -0.000035377              -0.000000000               0.999999997              -0.000039198               0.000000000               0.999999997              -0.000043466               0.000000000               0.999999997              -0.000048179               0.000000000               0.999999997              -0.000053362              -0.000000000               0.999999997              -0.000059035              -0.000000000               0.999999997              -0.000065184               0.000000000               0.999999997              -0.000071852              -0.000000000               0.999999997              -0.000079063              -0.000000000               0.999999997              -0.000086805              -0.000000000               0.999999997              -0.000095107               0.000000000               0.999999997              -0.000002886               0.000030844               0.999999997              -0.000015027               0.000027759               0.999999997              -0.000021084               0.000027041               0.999999997              -0.000024877               0.000027770               0.999999997              -0.000027994               0.000029419               0.999999997              -0.000031154               0.000031624               0.999999997              -0.000034646               0.000034206               0.999999997              -0.000038558               0.000037087               0.999999997              -0.000042932               0.000040185               0.999999997              -0.000047781               0.000043505               0.999999997              -0.000053131               0.000047021               0.999999997              -0.000058959               0.000050667               0.999999997              -0.000065254               0.000054404               0.999999997              -0.000072012               0.000058331               0.999999997              -0.000079305               0.000062306               0.999999997              -0.000087167               0.000066346               0.999999997              -0.000095588               0.000070294               0.999999997              -0.000002977               0.000061408               0.999999997              -0.000013791               0.000055116               0.999999997              -0.000019084               0.000053850               0.999999997              -0.000022534               0.000055431               0.999999997              -0.000025628               0.000058737               0.999999997              -0.000028917               0.000063196               0.999999997              -0.000032580               0.000068413               0.999999997              -0.000036750               0.000074183               0.999999997              -0.000041498               0.000080443               0.999999997              -0.000046796               0.000087060               0.999999997              -0.000052642               0.000094169               0.999999997              -0.000058937               0.000101405               0.999999997              -0.000065664               0.000108872               0.999999997              -0.000072867               0.000116704               0.999999997              -0.000080585               0.000124863               0.999999997              -0.000088885               0.000133166               0.999999997              -0.000097758               0.000141552               0.999999997              -0.000003063               0.000091332               0.999999997              -0.000011697               0.000081823               0.999999997              -0.000015953               0.000080197               0.999999997              -0.000019054               0.000082807               0.999999997              -0.000022136               0.000087941               0.999999997              -0.000025672               0.000094706               0.999999997              -0.000029795               0.000102649               0.999999997              -0.000034582               0.000111463               0.999999997              -0.000040026               0.000120949               0.999999997              -0.000046025               0.000130986               0.999999997              -0.000052547               0.000141539               0.999999997              -0.000059600               0.000152447               0.999999997              -0.000067169               0.000163639               0.999999997              -0.000075226               0.000175386               0.999999997              -0.000083792               0.000187680               0.999999997              -0.000092873               0.000200432               0.999999997              -0.000102451               0.000213386               0.999999997              -0.000003226               0.000120256               0.999999997              -0.000008919               0.000107656               0.999999997              -0.000011993               0.000105978               0.999999997              -0.000014844               0.000109859               0.999999997              -0.000018174               0.000116979               0.999999997              -0.000022237               0.000126217               0.999999997              -0.000027146               0.000136917               0.999999997              -0.000032843               0.000148777               0.999999997              -0.000039205               0.000161440               0.999999997              -0.000046207               0.000174801               0.999999997              -0.000053791               0.000188809               0.999999997              -0.000061931               0.000203359               0.999999997              -0.000070621               0.000218252               0.999999997              -0.000079830               0.000233824               0.999999997              -0.000089516               0.000250229               0.999999997              -0.000099654               0.000267179               0.999999997              -0.000110161               0.000284536               0.999999997              -0.000003326               0.000147984               0.999999997              -0.000005595               0.000132524               0.999999997              -0.000007627               0.000131088               0.999999997              -0.000010468               0.000136381               0.999999997              -0.000014362               0.000145553               0.999999997              -0.000019294               0.000157257               0.999999997              -0.000025220               0.000170834               0.999999997              -0.000031991               0.000185700               0.999999997              -0.000039550               0.000201580               0.999999997              -0.000047806               0.000218271               0.999999997              -0.000056673               0.000235629               0.999999997              -0.000066130               0.000253733               0.999999997              -0.000076104               0.000272413               0.999999997              -0.000086582               0.000291796               0.999999997              -0.000097482               0.000312126               0.999999997              -0.000108708               0.000333155               0.999999997              -0.000120187               0.000354563               0.999999997              -0.000003364               0.000174232               0.999999997              -0.000001957               0.000156349               0.999999997              -0.000003234               0.000155367               0.999999997              -0.000006450               0.000162092               0.999999997              -0.000011190               0.000173395               0.999999997              -0.000017221               0.000187664               0.999999997              -0.000024372               0.000204045               0.999999997              -0.000032496               0.000221904               0.999999997              -0.000041454               0.000240928               0.999999997              -0.000051091               0.000260936               0.999999997              -0.000061278               0.000281722               0.999999997              -0.000071923               0.000303498               0.999999997              -0.000083085               0.000326068               0.999999997              -0.000094739               0.000349408               0.999999997              -0.000106808               0.000373674               0.999999997              -0.000119135               0.000398635               0.999999997              -0.000131645               0.000423901               0.999999997              -0.000003372               0.000198669               0.999999997               0.000001723               0.000179019               0.999999997               0.000000823               0.000178632               0.999999997              -0.000003106               0.000186881               0.999999997              -0.000008952               0.000200299               0.999999997              -0.000016269               0.000217105               0.999999997              -0.000024823               0.000236308               0.999999997              -0.000034416               0.000257082               0.999999997              -0.000044729               0.000279339               0.999999997              -0.000055628               0.000302762               0.999999997              -0.000066980               0.000327281               0.999999997              -0.000078894               0.000352861               0.999999997              -0.000091278               0.000379441               0.999999997              -0.000104127               0.000406883               0.999999997              -0.000117265               0.000435150               0.999999997              -0.000130543               0.000463855               0.999999997              -0.000143876               0.000492810               0.999999997              -0.000003400               0.000220903               0.999999997               0.000005316               0.000200553               0.999999997               0.000004200               0.000200749               0.999999997              -0.000000651               0.000210509               0.999999997              -0.000007652               0.000226088               0.999999997              -0.000016433               0.000245437               0.999999997              -0.000026434               0.000267447               0.999999997              -0.000037382               0.000291339               0.999999997              -0.000048937               0.000316943               0.999999997              -0.000060977               0.000343999               0.999999997              -0.000073579               0.000372407               0.999999997              -0.000086610               0.000402122               0.999999997              -0.000100023               0.000432916               0.999999997              -0.000113769               0.000464536               0.999999997              -0.000127675               0.000496683               0.999999997              -0.000141523               0.000529143               0.999999997              -0.000155384               0.000561738               0.999999997              -0.000003714               0.000241677               0.999999997               0.000007621               0.000222867               0.999999997               0.000007814               0.000220868               0.999999997               0.000003901               0.000228099               0.999999997              -0.000002220               0.000240995               0.999999997              -0.000010017               0.000257853               0.999999997              -0.000018926               0.000277515               0.999999997              -0.000028693               0.000299193               0.999999997              -0.000039053               0.000322484               0.999999997              -0.000049851               0.000347216               0.999999997              -0.000060984               0.000373334               0.999999997              -0.000072386               0.000400781               0.999999997              -0.000084038               0.000429410               0.999999997              -0.000095937               0.000458967               0.999999997              -0.000108049               0.000489264               0.999999997              -0.000120136               0.000519957               0.999999997              -0.000132213               0.000551042               0.999999997              -0.000003755               0.000260462               0.999999997               0.000008950               0.000244204               0.999999997               0.000010490               0.000241218               0.999999997               0.000007642               0.000246410               0.999999997               0.000002541               0.000257011               0.999999997              -0.000004087               0.000271542               0.999999997              -0.000011803               0.000288982               0.999999997              -0.000020310               0.000308548               0.999999997              -0.000029491               0.000329785               0.999999997              -0.000039140               0.000352350               0.999999997              -0.000048852               0.000376266               0.999999997              -0.000058643               0.000401524               0.999999997              -0.000068528               0.000427997               0.999999997              -0.000078588               0.000455422               0.999999997              -0.000088753               0.000483611               0.999999997              -0.000098872               0.000512441               0.999999997              -0.000109009               0.000541785               0.999999997              -0.000003597               0.000276859               0.999999997               0.000009322               0.000264016               0.999999997               0.000011942               0.000260996               0.999999997               0.000010160               0.000264864               0.999999997               0.000006278               0.000273670               0.999999997               0.000000842               0.000286242               0.999999997              -0.000005520               0.000301749               0.999999997              -0.000012737               0.000319423               0.999999997              -0.000020642               0.000338782               0.999999997              -0.000028972               0.000359595               0.999999997              -0.000037287               0.000381633               0.999999997              -0.000045413               0.000404916               0.999999997              -0.000053580               0.000429370               0.999999997              -0.000061715               0.000454804               0.999999997              -0.000069887               0.000481014               0.999999997              -0.000077780               0.000507816               0.999999997              -0.000085443               0.000535276               0.999999997              -0.000003212               0.000290591               0.999999997               0.000008758               0.000281574               0.999999997               0.000011982               0.000279249               0.999999997               0.000011186               0.000282546               0.999999997               0.000008420               0.000290097               0.999999997               0.000004344               0.000301157               0.999999997              -0.000000678               0.000315032               0.999999997              -0.000006458               0.000331118               0.999999997              -0.000012945               0.000348977               0.999999997              -0.000019866               0.000368307               0.999999997              -0.000026759               0.000388878               0.999999997              -0.000033320               0.000410669               0.999999997              -0.000039669               0.000433570               0.999999997              -0.000046059               0.000457390               0.999999997              -0.000052182               0.000481986               0.999999997              -0.000057664               0.000507204               0.999999997              -0.000062408               0.000533017               0.999999997              -0.000002618               0.000301453               0.999999997               0.000007372               0.000296146               0.999999997               0.000010586               0.000294996               0.999999997               0.000010497               0.000298179               0.999999997               0.000008714               0.000305078               0.999999997               0.000005938               0.000315053               0.999999997               0.000002258               0.000327764               0.999999997              -0.000002033               0.000342612               0.999999997              -0.000006980               0.000359151               0.999999997              -0.000012395               0.000377282               0.999999997              -0.000017804               0.000396775               0.999999997              -0.000022831               0.000417500               0.999999997              -0.000027539               0.000439252               0.999999997              -0.000032063               0.000461986               0.999999997              -0.000036226               0.000485508               0.999999997              -0.000039620               0.000509709               0.999999997              -0.000041954               0.000534445               0.999999997              -0.000001866               0.000309338               0.999999997               0.000005290               0.000307013               0.999999997               0.000007885               0.000307149               0.999999997               0.000008154               0.000310602               0.999999997               0.000007147               0.000317199               0.999999997               0.000005433               0.000326567               0.999999997               0.000003079               0.000338405               0.999999997               0.000000181               0.000352295               0.999999997              -0.000003146               0.000367964               0.999999997              -0.000006745               0.000385276               0.999999997              -0.000010466               0.000404097               0.999999997              -0.000014033               0.000424158               0.999999997              -0.000017090               0.000445324               0.999999997              -0.000019731               0.000467522               0.999999997              -0.000022218               0.000490477               0.999999997              -0.000024143               0.000514008               0.999999997              -0.000024910               0.000538057               0.999999997              -0.000000975               0.000314135               0.999999997               0.000002747               0.000313784               0.999999997               0.000004210               0.000314799               0.999999997               0.000004431               0.000318537               0.999999997               0.000003977               0.000325084               0.999999997               0.000003164               0.000334135               0.999999997               0.000002032               0.000345489               0.999999997               0.000000590               0.000358886               0.999999997              -0.000001078               0.000374167               0.999999997              -0.000002803               0.000391064               0.999999997              -0.000004742               0.000409410               0.999999997              -0.000006618               0.000429073               0.999999997              -0.000007949               0.000449953               0.999999997              -0.000009173               0.000471843               0.999999997              -0.000010470               0.000494600               0.999999997              -0.000011392               0.000518029               0.999999997              -0.000011342               0.000541893               0.999999997               0.000000000               0.000315686               0.999999997               0.000000000               0.000316062               0.999999997              -0.000000000               0.000317434               0.999999997               0.000000000               0.000321281               0.999999997              -0.000000000               0.000327872               0.999999997              -0.000000000               0.000336813               0.999999997              -0.000000000               0.000347951               0.999999997               0.000000000               0.000361259               0.999999997              -0.000000000               0.000376514               0.999999997               0.000000000               0.000393250               0.999999997               0.000000000               0.000411382               0.999999997              -0.000000000               0.000430887               0.999999997              -0.000000000               0.000451588               0.999999997              -0.000000000               0.000473362               0.999999997               0.000000000               0.000496088               0.999999997               0.000000000               0.000519636               0.999999997               0.000000000               0.000543623               0.999999997              -0.000002818               0.000000000               0.999999997              -0.000015442               0.000000000               0.999999997              -0.000021812              -0.000000000               0.999999997              -0.000025697              -0.000000000               0.999999997              -0.000028872              -0.000000000               0.999999997              -0.000032013               0.000000000               0.999999997              -0.000035377              -0.000000000               0.999999997              -0.000039198               0.000000000               0.999999997              -0.000043466               0.000000000               0.999999997              -0.000048179               0.000000000               0.999999997              -0.000053362              -0.000000000               0.999999997              -0.000059035              -0.000000000               0.999999997              -0.000065184               0.000000000               0.999999997              -0.000071852              -0.000000000               0.999999997              -0.000079063              -0.000000000               0.999999997              -0.000086805              -0.000000000               0.999999997              -0.000095107               0.000000000               0.999999997              -0.000002886              -0.000030844               0.999999997              -0.000015027              -0.000027759               0.999999997              -0.000021084              -0.000027041               0.999999997              -0.000024877              -0.000027770               0.999999997              -0.000027994              -0.000029419               0.999999997              -0.000031154              -0.000031624               0.999999997              -0.000034646              -0.000034206               0.999999997              -0.000038558              -0.000037087               0.999999997              -0.000042932              -0.000040185               0.999999997              -0.000047781              -0.000043505               0.999999997              -0.000053131              -0.000047021               0.999999997              -0.000058959              -0.000050667               0.999999997              -0.000065254              -0.000054404               0.999999997              -0.000072012              -0.000058331               0.999999997              -0.000079305              -0.000062306               0.999999997              -0.000087167              -0.000066346               0.999999997              -0.000095588              -0.000070294               0.999999997              -0.000002977              -0.000061408               0.999999997              -0.000013791              -0.000055116               0.999999997              -0.000019084              -0.000053850               0.999999997              -0.000022534              -0.000055431               0.999999997              -0.000025628              -0.000058737               0.999999997              -0.000028917              -0.000063196               0.999999997              -0.000032580              -0.000068413               0.999999997              -0.000036750              -0.000074183               0.999999997              -0.000041498              -0.000080443               0.999999997              -0.000046796              -0.000087060               0.999999997              -0.000052642              -0.000094169               0.999999997              -0.000058937              -0.000101405               0.999999997              -0.000065664              -0.000108872               0.999999997              -0.000072867              -0.000116704               0.999999997              -0.000080585              -0.000124863               0.999999997              -0.000088885              -0.000133166               0.999999997              -0.000097758              -0.000141552               0.999999997              -0.000003063              -0.000091332               0.999999997              -0.000011697              -0.000081823               0.999999997              -0.000015953              -0.000080197               0.999999997              -0.000019054              -0.000082807               0.999999997              -0.000022136              -0.000087941               0.999999997              -0.000025672              -0.000094706               0.999999997              -0.000029795              -0.000102649               0.999999997              -0.000034582              -0.000111463               0.999999997              -0.000040026              -0.000120949               0.999999997              -0.000046025              -0.000130986               0.999999997              -0.000052547              -0.000141539               0.999999997              -0.000059600              -0.000152447               0.999999997              -0.000067169              -0.000163639               0.999999997              -0.000075226              -0.000175386               0.999999997              -0.000083792              -0.000187680               0.999999997              -0.000092873              -0.000200432               0.999999997              -0.000102451              -0.000213386               0.999999997              -0.000003226              -0.000120256               0.999999997              -0.000008919              -0.000107656               0.999999997              -0.000011993              -0.000105978               0.999999997              -0.000014844              -0.000109859               0.999999997              -0.000018174              -0.000116979               0.999999997              -0.000022237              -0.000126217               0.999999997              -0.000027146              -0.000136917               0.999999997              -0.000032843              -0.000148777               0.999999997              -0.000039205              -0.000161440               0.999999997              -0.000046207              -0.000174801               0.999999997              -0.000053791              -0.000188809               0.999999997              -0.000061931              -0.000203359               0.999999997              -0.000070621              -0.000218252               0.999999997              -0.000079830              -0.000233824               0.999999997              -0.000089516              -0.000250229               0.999999997              -0.000099654              -0.000267179               0.999999997              -0.000110161              -0.000284536               0.999999997              -0.000003326              -0.000147984               0.999999997              -0.000005595              -0.000132524               0.999999997              -0.000007627              -0.000131088               0.999999997              -0.000010468              -0.000136381               0.999999997              -0.000014362              -0.000145553               0.999999997              -0.000019294              -0.000157257               0.999999997              -0.000025220              -0.000170834               0.999999997              -0.000031991              -0.000185700               0.999999997              -0.000039550              -0.000201580               0.999999997              -0.000047806              -0.000218271               0.999999997              -0.000056673              -0.000235629               0.999999997              -0.000066130              -0.000253733               0.999999997              -0.000076104              -0.000272413               0.999999997              -0.000086582              -0.000291796               0.999999997              -0.000097482              -0.000312126               0.999999997              -0.000108708              -0.000333155               0.999999997              -0.000120187              -0.000354563               0.999999997              -0.000003364              -0.000174232               0.999999997              -0.000001957              -0.000156349               0.999999997              -0.000003234              -0.000155367               0.999999997              -0.000006450              -0.000162092               0.999999997              -0.000011190              -0.000173395               0.999999997              -0.000017221              -0.000187664               0.999999997              -0.000024372              -0.000204045               0.999999997              -0.000032496              -0.000221904               0.999999997              -0.000041454              -0.000240928               0.999999997              -0.000051091              -0.000260936               0.999999997              -0.000061278              -0.000281722               0.999999997              -0.000071923              -0.000303498               0.999999997              -0.000083085              -0.000326068               0.999999997              -0.000094739              -0.000349408               0.999999997              -0.000106808              -0.000373674               0.999999997              -0.000119135              -0.000398635               0.999999997              -0.000131645              -0.000423901               0.999999997              -0.000003372              -0.000198669               0.999999997               0.000001723              -0.000179019               0.999999997               0.000000823              -0.000178632               0.999999997              -0.000003106              -0.000186881               0.999999997              -0.000008952              -0.000200299               0.999999997              -0.000016269              -0.000217105               0.999999997              -0.000024823              -0.000236308               0.999999997              -0.000034416              -0.000257082               0.999999997              -0.000044729              -0.000279339               0.999999997              -0.000055628              -0.000302762               0.999999997              -0.000066980              -0.000327281               0.999999997              -0.000078894              -0.000352861               0.999999997              -0.000091278              -0.000379441               0.999999997              -0.000104127              -0.000406883               0.999999997              -0.000117265              -0.000435150               0.999999997              -0.000130543              -0.000463855               0.999999997              -0.000143876              -0.000492810               0.999999997              -0.000003400              -0.000220903               0.999999997               0.000005316              -0.000200553               0.999999997               0.000004200              -0.000200749               0.999999997              -0.000000651              -0.000210509               0.999999997              -0.000007652              -0.000226088               0.999999997              -0.000016433              -0.000245437               0.999999997              -0.000026434              -0.000267447               0.999999997              -0.000037382              -0.000291339               0.999999997              -0.000048937              -0.000316943               0.999999997              -0.000060977              -0.000343999               0.999999997              -0.000073579              -0.000372407               0.999999997              -0.000086610              -0.000402122               0.999999997              -0.000100023              -0.000432916               0.999999997              -0.000113769              -0.000464536               0.999999997              -0.000127675              -0.000496683               0.999999997              -0.000141523              -0.000529143               0.999999997              -0.000155384              -0.000561738               0.999999997              -0.000003714              -0.000241677               0.999999997               0.000007621              -0.000222867               0.999999997               0.000007814              -0.000220868               0.999999997               0.000003901              -0.000228099               0.999999997              -0.000002220              -0.000240995               0.999999997              -0.000010017              -0.000257853               0.999999997              -0.000018926              -0.000277515               0.999999997              -0.000028693              -0.000299193               0.999999997              -0.000039053              -0.000322484               0.999999997              -0.000049851              -0.000347216               0.999999997              -0.000060984              -0.000373334               0.999999997              -0.000072386              -0.000400781               0.999999997              -0.000084038              -0.000429410               0.999999997              -0.000095937              -0.000458967               0.999999997              -0.000108049              -0.000489264               0.999999997              -0.000120136              -0.000519957               0.999999997              -0.000132213              -0.000551042               0.999999997              -0.000003755              -0.000260462               0.999999997               0.000008950              -0.000244204               0.999999997               0.000010490              -0.000241218               0.999999997               0.000007642              -0.000246410               0.999999997               0.000002541              -0.000257011               0.999999997              -0.000004087              -0.000271542               0.999999997              -0.000011803              -0.000288982               0.999999997              -0.000020310              -0.000308548               0.999999997              -0.000029491              -0.000329785               0.999999997              -0.000039140              -0.000352350               0.999999997              -0.000048852              -0.000376266               0.999999997              -0.000058643              -0.000401524               0.999999997              -0.000068528              -0.000427997               0.999999997              -0.000078588              -0.000455422               0.999999997              -0.000088753              -0.000483611               0.999999997              -0.000098872              -0.000512441               0.999999997              -0.000109009              -0.000541785               0.999999997              -0.000003597              -0.000276859               0.999999997               0.000009322              -0.000264016               0.999999997               0.000011942              -0.000260996               0.999999997               0.000010160              -0.000264864               0.999999997               0.000006278              -0.000273670               0.999999997               0.000000842              -0.000286242               0.999999997              -0.000005520              -0.000301749               0.999999997              -0.000012737              -0.000319423               0.999999997              -0.000020642              -0.000338782               0.999999997              -0.000028972              -0.000359595               0.999999997              -0.000037287              -0.000381633               0.999999997              -0.000045413              -0.000404916               0.999999997              -0.000053580              -0.000429370               0.999999997              -0.000061715              -0.000454804               0.999999997              -0.000069887              -0.000481014               0.999999997              -0.000077780              -0.000507816               0.999999997              -0.000085443              -0.000535276               0.999999997              -0.000003212              -0.000290591               0.999999997               0.000008758              -0.000281574               0.999999997               0.000011982              -0.000279249               0.999999997               0.000011186              -0.000282546               0.999999997               0.000008420              -0.000290097               0.999999997               0.000004344              -0.000301157               0.999999997              -0.000000678              -0.000315032               0.999999997              -0.000006458              -0.000331118               0.999999997              -0.000012945              -0.000348977               0.999999997              -0.000019866              -0.000368307               0.999999997              -0.000026759              -0.000388878               0.999999997              -0.000033320              -0.000410669               0.999999997              -0.000039669              -0.000433570               0.999999997              -0.000046059              -0.000457390               0.999999997              -0.000052182              -0.000481986               0.999999997              -0.000057664              -0.000507204               0.999999997              -0.000062408              -0.000533017               0.999999997              -0.000002618              -0.000301453               0.999999997               0.000007372              -0.000296146               0.999999997               0.000010586              -0.000294996               0.999999997               0.000010497              -0.000298179               0.999999997               0.000008714              -0.000305078               0.999999997               0.000005938              -0.000315053               0.999999997               0.000002258              -0.000327764               0.999999997              -0.000002033              -0.000342612               0.999999997              -0.000006980              -0.000359151               0.999999997              -0.000012395              -0.000377282               0.999999997              -0.000017804              -0.000396775               0.999999997              -0.000022831              -0.000417500               0.999999997              -0.000027539              -0.000439252               0.999999997              -0.000032063              -0.000461986               0.999999997              -0.000036226              -0.000485508               0.999999997              -0.000039620              -0.000509709               0.999999997              -0.000041954              -0.000534445               0.999999997              -0.000001866              -0.000309338               0.999999997               0.000005290              -0.000307013               0.999999997               0.000007885              -0.000307149               0.999999997               0.000008154              -0.000310602               0.999999997               0.000007147              -0.000317199               0.999999997               0.000005433              -0.000326567               0.999999997               0.000003079              -0.000338405               0.999999997               0.000000181              -0.000352295               0.999999997              -0.000003146              -0.000367964               0.999999997              -0.000006745              -0.000385276               0.999999997              -0.000010466              -0.000404097               0.999999997              -0.000014033              -0.000424158               0.999999997              -0.000017090              -0.000445324               0.999999997              -0.000019731              -0.000467522               0.999999997              -0.000022218              -0.000490477               0.999999997              -0.000024143              -0.000514008               0.999999997              -0.000024910              -0.000538057               0.999999997              -0.000000975              -0.000314135               0.999999997               0.000002747              -0.000313784               0.999999997               0.000004210              -0.000314799               0.999999997               0.000004431              -0.000318537               0.999999997               0.000003977              -0.000325084               0.999999997               0.000003164              -0.000334135               0.999999997               0.000002032              -0.000345489               0.999999997               0.000000590              -0.000358886               0.999999997              -0.000001078              -0.000374167               0.999999997              -0.000002803              -0.000391064               0.999999997              -0.000004742              -0.000409410               0.999999997              -0.000006618              -0.000429073               0.999999997              -0.000007949              -0.000449953               0.999999997              -0.000009173              -0.000471843               0.999999997              -0.000010470              -0.000494600               0.999999997              -0.000011392              -0.000518029               0.999999997              -0.000011342              -0.000541893               0.999999997              -0.000000000              -0.000315686               0.999999997              -0.000000000              -0.000316062               0.999999997              -0.000000000              -0.000317434               0.999999997               0.000000000              -0.000321281               0.999999997              -0.000000000              -0.000327872               0.999999997              -0.000000000              -0.000336813               0.999999997              -0.000000000              -0.000347951               0.999999997              -0.000000000              -0.000361259               0.999999997              -0.000000000              -0.000376514               0.999999997              -0.000000000              -0.000393250               0.999999997              -0.000000000              -0.000411382               0.999999997              -0.000000000              -0.000430887               0.999999997               0.000000000              -0.000451588               0.999999997               0.000000000              -0.000473362               0.999999997              -0.000000000              -0.000496088               0.999999997               0.000000000              -0.000519636               0.999999997               0.000000000              -0.000543623               0.999999997               0.000002818              -0.000000000               0.999999997               0.000015442              -0.000000000               0.999999997               0.000021812              -0.000000000               0.999999997               0.000025697              -0.000000000               0.999999997               0.000028872              -0.000000000               0.999999997               0.000032013              -0.000000000               0.999999997               0.000035377              -0.000000000               0.999999997               0.000039198               0.000000000               0.999999997               0.000043466               0.000000000               0.999999997               0.000048179              -0.000000000               0.999999997               0.000053362               0.000000000               0.999999997               0.000059035               0.000000000               0.999999997               0.000065184               0.000000000               0.999999997               0.000071852               0.000000000               0.999999997               0.000079063               0.000000000               0.999999997               0.000086805               0.000000000               0.999999997               0.000095107               0.000000000               0.999999997               0.000002886              -0.000030844               0.999999997               0.000015027              -0.000027759               0.999999997               0.000021084              -0.000027041               0.999999997               0.000024877              -0.000027770               0.999999997               0.000027994              -0.000029419               0.999999997               0.000031154              -0.000031624               0.999999997               0.000034646              -0.000034206               0.999999997               0.000038558              -0.000037087               0.999999997               0.000042932              -0.000040185               0.999999997               0.000047781              -0.000043505               0.999999997               0.000053131              -0.000047021               0.999999997               0.000058959              -0.000050667               0.999999997               0.000065254              -0.000054404               0.999999997               0.000072012              -0.000058331               0.999999997               0.000079305              -0.000062306               0.999999997               0.000087167              -0.000066346               0.999999997               0.000095588              -0.000070294               0.999999997               0.000002977              -0.000061408               0.999999997               0.000013791              -0.000055116               0.999999997               0.000019084              -0.000053850               0.999999997               0.000022534              -0.000055431               0.999999997               0.000025628              -0.000058737               0.999999997               0.000028917              -0.000063196               0.999999997               0.000032580              -0.000068413               0.999999997               0.000036750              -0.000074183               0.999999997               0.000041498              -0.000080443               0.999999997               0.000046796              -0.000087060               0.999999997               0.000052642              -0.000094169               0.999999997               0.000058937              -0.000101405               0.999999997               0.000065664              -0.000108872               0.999999997               0.000072867              -0.000116704               0.999999997               0.000080585              -0.000124863               0.999999997               0.000088885              -0.000133166               0.999999997               0.000097758              -0.000141552               0.999999997               0.000003063              -0.000091332               0.999999997               0.000011697              -0.000081823               0.999999997               0.000015953              -0.000080197               0.999999997               0.000019054              -0.000082807               0.999999997               0.000022136              -0.000087941               0.999999997               0.000025672              -0.000094706               0.999999997               0.000029795              -0.000102649               0.999999997               0.000034582              -0.000111463               0.999999997               0.000040026              -0.000120949               0.999999997               0.000046025              -0.000130986               0.999999997               0.000052547              -0.000141539               0.999999997               0.000059600              -0.000152447               0.999999997               0.000067169              -0.000163639               0.999999997               0.000075226              -0.000175386               0.999999997               0.000083792              -0.000187680               0.999999997               0.000092873              -0.000200432               0.999999997               0.000102451              -0.000213386               0.999999997               0.000003226              -0.000120256               0.999999997               0.000008919              -0.000107656               0.999999997               0.000011993              -0.000105978               0.999999997               0.000014844              -0.000109859               0.999999997               0.000018174              -0.000116979               0.999999997               0.000022237              -0.000126217               0.999999997               0.000027146              -0.000136917               0.999999997               0.000032843              -0.000148777               0.999999997               0.000039205              -0.000161440               0.999999997               0.000046207              -0.000174801               0.999999997               0.000053791              -0.000188809               0.999999997               0.000061931              -0.000203359               0.999999997               0.000070621              -0.000218252               0.999999997               0.000079830              -0.000233824               0.999999997               0.000089516              -0.000250229               0.999999997               0.000099654              -0.000267179               0.999999997               0.000110161              -0.000284536               0.999999997               0.000003326              -0.000147984               0.999999997               0.000005595              -0.000132524               0.999999997               0.000007627              -0.000131088               0.999999997               0.000010468              -0.000136381               0.999999997               0.000014362              -0.000145553               0.999999997               0.000019294              -0.000157257               0.999999997               0.000025220              -0.000170834               0.999999997               0.000031991              -0.000185700               0.999999997               0.000039550              -0.000201580               0.999999997               0.000047806              -0.000218271               0.999999997               0.000056673              -0.000235629               0.999999997               0.000066130              -0.000253733               0.999999997               0.000076104              -0.000272413               0.999999997               0.000086582              -0.000291796               0.999999997               0.000097482              -0.000312126               0.999999997               0.000108708              -0.000333155               0.999999997               0.000120187              -0.000354563               0.999999997               0.000003364              -0.000174232               0.999999997               0.000001957              -0.000156349               0.999999997               0.000003234              -0.000155367               0.999999997               0.000006450              -0.000162092               0.999999997               0.000011190              -0.000173395               0.999999997               0.000017221              -0.000187664               0.999999997               0.000024372              -0.000204045               0.999999997               0.000032496              -0.000221904               0.999999997               0.000041454              -0.000240928               0.999999997               0.000051091              -0.000260936               0.999999997               0.000061278              -0.000281722               0.999999997               0.000071923              -0.000303498               0.999999997               0.000083085              -0.000326068               0.999999997               0.000094739              -0.000349408               0.999999997               0.000106808              -0.000373674               0.999999997               0.000119135              -0.000398635               0.999999997               0.000131645              -0.000423901               0.999999997               0.000003372              -0.000198669               0.999999997              -0.000001723              -0.000179019               0.999999997              -0.000000823              -0.000178632               0.999999997               0.000003106              -0.000186881               0.999999997               0.000008952              -0.000200299               0.999999997               0.000016269              -0.000217105               0.999999997               0.000024823              -0.000236308               0.999999997               0.000034416              -0.000257082               0.999999997               0.000044729              -0.000279339               0.999999997               0.000055628              -0.000302762               0.999999997               0.000066980              -0.000327281               0.999999997               0.000078894              -0.000352861               0.999999997               0.000091278              -0.000379441               0.999999997               0.000104127              -0.000406883               0.999999997               0.000117265              -0.000435150               0.999999997               0.000130543              -0.000463855               0.999999997               0.000143876              -0.000492810               0.999999997               0.000003400              -0.000220903               0.999999997              -0.000005316              -0.000200553               0.999999997              -0.000004200              -0.000200749               0.999999997               0.000000651              -0.000210509               0.999999997               0.000007652              -0.000226088               0.999999997               0.000016433              -0.000245437               0.999999997               0.000026434              -0.000267447               0.999999997               0.000037382              -0.000291339               0.999999997               0.000048937              -0.000316943               0.999999997               0.000060977              -0.000343999               0.999999997               0.000073579              -0.000372407               0.999999997               0.000086610              -0.000402122               0.999999997               0.000100023              -0.000432916               0.999999997               0.000113769              -0.000464536               0.999999997               0.000127675              -0.000496683               0.999999997               0.000141523              -0.000529143               0.999999997               0.000155384              -0.000561738               0.999999997               0.000003714              -0.000241677               0.999999997              -0.000007621              -0.000222867               0.999999997              -0.000007814              -0.000220868               0.999999997              -0.000003901              -0.000228099               0.999999997               0.000002220              -0.000240995               0.999999997               0.000010017              -0.000257853               0.999999997               0.000018926              -0.000277515               0.999999997               0.000028693              -0.000299193               0.999999997               0.000039053              -0.000322484               0.999999997               0.000049851              -0.000347216               0.999999997               0.000060984              -0.000373334               0.999999997               0.000072386              -0.000400781               0.999999997               0.000084038              -0.000429410               0.999999997               0.000095937              -0.000458967               0.999999997               0.000108049              -0.000489264               0.999999997               0.000120136              -0.000519957               0.999999997               0.000132213              -0.000551042               0.999999997               0.000003755              -0.000260462               0.999999997              -0.000008950              -0.000244204               0.999999997              -0.000010490              -0.000241218               0.999999997              -0.000007642              -0.000246410               0.999999997              -0.000002541              -0.000257011               0.999999997               0.000004087              -0.000271542               0.999999997               0.000011803              -0.000288982               0.999999997               0.000020310              -0.000308548               0.999999997               0.000029491              -0.000329785               0.999999997               0.000039140              -0.000352350               0.999999997               0.000048852              -0.000376266               0.999999997               0.000058643              -0.000401524               0.999999997               0.000068528              -0.000427997               0.999999997               0.000078588              -0.000455422               0.999999997               0.000088753              -0.000483611               0.999999997               0.000098872              -0.000512441               0.999999997               0.000109009              -0.000541785               0.999999997               0.000003597              -0.000276859               0.999999997              -0.000009322              -0.000264016               0.999999997              -0.000011942              -0.000260996               0.999999997              -0.000010160              -0.000264864               0.999999997              -0.000006278              -0.000273670               0.999999997              -0.000000842              -0.000286242               0.999999997               0.000005520              -0.000301749               0.999999997               0.000012737              -0.000319423               0.999999997               0.000020642              -0.000338782               0.999999997               0.000028972              -0.000359595               0.999999997               0.000037287              -0.000381633               0.999999997               0.000045413              -0.000404916               0.999999997               0.000053580              -0.000429370               0.999999997               0.000061715              -0.000454804               0.999999997               0.000069887              -0.000481014               0.999999997               0.000077780              -0.000507816               0.999999997               0.000085443              -0.000535276               0.999999997               0.000003212              -0.000290591               0.999999997              -0.000008758              -0.000281574               0.999999997              -0.000011982              -0.000279249               0.999999997              -0.000011186              -0.000282546               0.999999997              -0.000008420              -0.000290097               0.999999997              -0.000004344              -0.000301157               0.999999997               0.000000678              -0.000315032               0.999999997               0.000006458              -0.000331118               0.999999997               0.000012945              -0.000348977               0.999999997               0.000019866              -0.000368307               0.999999997               0.000026759              -0.000388878               0.999999997               0.000033320              -0.000410669               0.999999997               0.000039669              -0.000433570               0.999999997               0.000046059              -0.000457390               0.999999997               0.000052182              -0.000481986               0.999999997               0.000057664              -0.000507204               0.999999997               0.000062408              -0.000533017               0.999999997               0.000002618              -0.000301453               0.999999997              -0.000007372              -0.000296146               0.999999997              -0.000010586              -0.000294996               0.999999997              -0.000010497              -0.000298179               0.999999997              -0.000008714              -0.000305078               0.999999997              -0.000005938              -0.000315053               0.999999997              -0.000002258              -0.000327764               0.999999997               0.000002033              -0.000342612               0.999999997               0.000006980              -0.000359151               0.999999997               0.000012395              -0.000377282               0.999999997               0.000017804              -0.000396775               0.999999997               0.000022831              -0.000417500               0.999999997               0.000027539              -0.000439252               0.999999997               0.000032063              -0.000461986               0.999999997               0.000036226              -0.000485508               0.999999997               0.000039620              -0.000509709               0.999999997               0.000041954              -0.000534445               0.999999997               0.000001866              -0.000309338               0.999999997              -0.000005290              -0.000307013               0.999999997              -0.000007885              -0.000307149               0.999999997              -0.000008154              -0.000310602               0.999999997              -0.000007147              -0.000317199               0.999999997              -0.000005433              -0.000326567               0.999999997              -0.000003079              -0.000338405               0.999999997              -0.000000181              -0.000352295               0.999999997               0.000003146              -0.000367964               0.999999997               0.000006745              -0.000385276               0.999999997               0.000010466              -0.000404097               0.999999997               0.000014033              -0.000424158               0.999999997               0.000017090              -0.000445324               0.999999997               0.000019731              -0.000467522               0.999999997               0.000022218              -0.000490477               0.999999997               0.000024143              -0.000514008               0.999999997               0.000024910              -0.000538057               0.999999997               0.000000975              -0.000314135               0.999999997              -0.000002747              -0.000313784               0.999999997              -0.000004210              -0.000314799               0.999999997              -0.000004431              -0.000318537               0.999999997              -0.000003977              -0.000325084               0.999999997              -0.000003164              -0.000334135               0.999999997              -0.000002032              -0.000345489               0.999999997              -0.000000590              -0.000358886               0.999999997               0.000001078              -0.000374167               0.999999997               0.000002803              -0.000391064               0.999999997               0.000004742              -0.000409410               0.999999997               0.000006618              -0.000429073               0.999999997               0.000007949              -0.000449953               0.999999997               0.000009173              -0.000471843               0.999999997               0.000010470              -0.000494600               0.999999997               0.000011392              -0.000518029               0.999999997               0.000011342              -0.000541893               0.999999997              -0.000000000              -0.000315686               0.999999997              -0.000000000              -0.000316062               0.999999997              -0.000000000              -0.000317434               0.999999997               0.000000000              -0.000321281               0.999999997              -0.000000000              -0.000327872               0.999999997              -0.000000000              -0.000336813               0.999999997              -0.000000000              -0.000347951               0.999999997              -0.000000000              -0.000361259               0.999999997              -0.000000000              -0.000376514               0.999999997              -0.000000000              -0.000393250               0.999999997              -0.000000000              -0.000411382               0.999999997              -0.000000000              -0.000430887               0.999999997               0.000000000              -0.000451588               0.999999997               0.000000000              -0.000473362               0.999999997              -0.000000000              -0.000496088               0.999999997               0.000000000              -0.000519636               0.999999997               0.000000000              -0.000543623               0.999999997               0.000002818              -0.000000000               0.999999997               0.000015442              -0.000000000               0.999999997               0.000021812              -0.000000000               0.999999997               0.000025697              -0.000000000               0.999999997               0.000028872              -0.000000000               0.999999997               0.000032013              -0.000000000               0.999999997               0.000035377              -0.000000000               0.999999997               0.000039198               0.000000000               0.999999997               0.000043466               0.000000000               0.999999997               0.000048179              -0.000000000               0.999999997               0.000053362               0.000000000               0.999999997               0.000059035               0.000000000               0.999999997               0.000065184               0.000000000               0.999999997               0.000071852               0.000000000               0.999999997               0.000079063               0.000000000               0.999999997               0.000086805               0.000000000               0.999999997               0.000095107               0.000000000               0.999999997               0.000002886               0.000030844               0.999999997               0.000015027               0.000027759               0.999999997               0.000021084               0.000027041               0.999999997               0.000024877               0.000027770               0.999999997               0.000027994               0.000029419               0.999999997               0.000031154               0.000031624               0.999999997               0.000034646               0.000034206               0.999999997               0.000038558               0.000037087               0.999999997               0.000042932               0.000040185               0.999999997               0.000047781               0.000043505               0.999999997               0.000053131               0.000047021               0.999999997               0.000058959               0.000050667               0.999999997               0.000065254               0.000054404               0.999999997               0.000072012               0.000058331               0.999999997               0.000079305               0.000062306               0.999999997               0.000087167               0.000066346               0.999999997               0.000095588               0.000070294               0.999999997               0.000002977               0.000061408               0.999999997               0.000013791               0.000055116               0.999999997               0.000019084               0.000053850               0.999999997               0.000022534               0.000055431               0.999999997               0.000025628               0.000058737               0.999999997               0.000028917               0.000063196               0.999999997               0.000032580               0.000068413               0.999999997               0.000036750               0.000074183               0.999999997               0.000041498               0.000080443               0.999999997               0.000046796               0.000087060               0.999999997               0.000052642               0.000094169               0.999999997               0.000058937               0.000101405               0.999999997               0.000065664               0.000108872               0.999999997               0.000072867               0.000116704               0.999999997               0.000080585               0.000124863               0.999999997               0.000088885               0.000133166               0.999999997               0.000097758               0.000141552               0.999999997               0.000003063               0.000091332               0.999999997               0.000011697               0.000081823               0.999999997               0.000015953               0.000080197               0.999999997               0.000019054               0.000082807               0.999999997               0.000022136               0.000087941               0.999999997               0.000025672               0.000094706               0.999999997               0.000029795               0.000102649               0.999999997               0.000034582               0.000111463               0.999999997               0.000040026               0.000120949               0.999999997               0.000046025               0.000130986               0.999999997               0.000052547               0.000141539               0.999999997               0.000059600               0.000152447               0.999999997               0.000067169               0.000163639               0.999999997               0.000075226               0.000175386               0.999999997               0.000083792               0.000187680               0.999999997               0.000092873               0.000200432               0.999999997               0.000102451               0.000213386               0.999999997               0.000003226               0.000120256               0.999999997               0.000008919               0.000107656               0.999999997               0.000011993               0.000105978               0.999999997               0.000014844               0.000109859               0.999999997               0.000018174               0.000116979               0.999999997               0.000022237               0.000126217               0.999999997               0.000027146               0.000136917               0.999999997               0.000032843               0.000148777               0.999999997               0.000039205               0.000161440               0.999999997               0.000046207               0.000174801               0.999999997               0.000053791               0.000188809               0.999999997               0.000061931               0.000203359               0.999999997               0.000070621               0.000218252               0.999999997               0.000079830               0.000233824               0.999999997               0.000089516               0.000250229               0.999999997               0.000099654               0.000267179               0.999999997               0.000110161               0.000284536               0.999999997               0.000003326               0.000147984               0.999999997               0.000005595               0.000132524               0.999999997               0.000007627               0.000131088               0.999999997               0.000010468               0.000136381               0.999999997               0.000014362               0.000145553               0.999999997               0.000019294               0.000157257               0.999999997               0.000025220               0.000170834               0.999999997               0.000031991               0.000185700               0.999999997               0.000039550               0.000201580               0.999999997               0.000047806               0.000218271               0.999999997               0.000056673               0.000235629               0.999999997               0.000066130               0.000253733               0.999999997               0.000076104               0.000272413               0.999999997               0.000086582               0.000291796               0.999999997               0.000097482               0.000312126               0.999999997               0.000108708               0.000333155               0.999999997               0.000120187               0.000354563               0.999999997               0.000003364               0.000174232               0.999999997               0.000001957               0.000156349               0.999999997               0.000003234               0.000155367               0.999999997               0.000006450               0.000162092               0.999999997               0.000011190               0.000173395               0.999999997               0.000017221               0.000187664               0.999999997               0.000024372               0.000204045               0.999999997               0.000032496               0.000221904               0.999999997               0.000041454               0.000240928               0.999999997               0.000051091               0.000260936               0.999999997               0.000061278               0.000281722               0.999999997               0.000071923               0.000303498               0.999999997               0.000083085               0.000326068               0.999999997               0.000094739               0.000349408               0.999999997               0.000106808               0.000373674               0.999999997               0.000119135               0.000398635               0.999999997               0.000131645               0.000423901               0.999999997               0.000003372               0.000198669               0.999999997              -0.000001723               0.000179019               0.999999997              -0.000000823               0.000178632               0.999999997               0.000003106               0.000186881               0.999999997               0.000008952               0.000200299               0.999999997               0.000016269               0.000217105               0.999999997               0.000024823               0.000236308               0.999999997               0.000034416               0.000257082               0.999999997               0.000044729               0.000279339               0.999999997               0.000055628               0.000302762               0.999999997               0.000066980               0.000327281               0.999999997               0.000078894               0.000352861               0.999999997               0.000091278               0.000379441               0.999999997               0.000104127               0.000406883               0.999999997               0.000117265               0.000435150               0.999999997               0.000130543               0.000463855               0.999999997               0.000143876               0.000492810               0.999999997               0.000003400               0.000220903               0.999999997              -0.000005316               0.000200553               0.999999997              -0.000004200               0.000200749               0.999999997               0.000000651               0.000210509               0.999999997               0.000007652               0.000226088               0.999999997               0.000016433               0.000245437               0.999999997               0.000026434               0.000267447               0.999999997               0.000037382               0.000291339               0.999999997               0.000048937               0.000316943               0.999999997               0.000060977               0.000343999               0.999999997               0.000073579               0.000372407               0.999999997               0.000086610               0.000402122               0.999999997               0.000100023               0.000432916               0.999999997               0.000113769               0.000464536               0.999999997               0.000127675               0.000496683               0.999999997               0.000141523               0.000529143               0.999999997               0.000155384               0.000561738               0.999999997               0.000003714               0.000241677               0.999999997              -0.000007621               0.000222867               0.999999997              -0.000007814               0.000220868               0.999999997              -0.000003901               0.000228099               0.999999997               0.000002220               0.000240995               0.999999997               0.000010017               0.000257853               0.999999997               0.000018926               0.000277515               0.999999997               0.000028693               0.000299193               0.999999997               0.000039053               0.000322484               0.999999997               0.000049851               0.000347216               0.999999997               0.000060984               0.000373334               0.999999997               0.000072386               0.000400781               0.999999997               0.000084038               0.000429410               0.999999997               0.000095937               0.000458967               0.999999997               0.000108049               0.000489264               0.999999997               0.000120136               0.000519957               0.999999997               0.000132213               0.000551042               0.999999997               0.000003755               0.000260462               0.999999997              -0.000008950               0.000244204               0.999999997              -0.000010490               0.000241218               0.999999997              -0.000007642               0.000246410               0.999999997              -0.000002541               0.000257011               0.999999997               0.000004087               0.000271542               0.999999997               0.000011803               0.000288982               0.999999997               0.000020310               0.000308548               0.999999997               0.000029491               0.000329785               0.999999997               0.000039140               0.000352350               0.999999997               0.000048852               0.000376266               0.999999997               0.000058643               0.000401524               0.999999997               0.000068528               0.000427997               0.999999997               0.000078588               0.000455422               0.999999997               0.000088753               0.000483611               0.999999997               0.000098872               0.000512441               0.999999997               0.000109009               0.000541785               0.999999997               0.000003597               0.000276859               0.999999997              -0.000009322               0.000264016               0.999999997              -0.000011942               0.000260996               0.999999997              -0.000010160               0.000264864               0.999999997              -0.000006278               0.000273670               0.999999997              -0.000000842               0.000286242               0.999999997               0.000005520               0.000301749               0.999999997               0.000012737               0.000319423               0.999999997               0.000020642               0.000338782               0.999999997               0.000028972               0.000359595               0.999999997               0.000037287               0.000381633               0.999999997               0.000045413               0.000404916               0.999999997               0.000053580               0.000429370               0.999999997               0.000061715               0.000454804               0.999999997               0.000069887               0.000481014               0.999999997               0.000077780               0.000507816               0.999999997               0.000085443               0.000535276               0.999999997               0.000003212               0.000290591               0.999999997              -0.000008758               0.000281574               0.999999997              -0.000011982               0.000279249               0.999999997              -0.000011186               0.000282546               0.999999997              -0.000008420               0.000290097               0.999999997              -0.000004344               0.000301157               0.999999997               0.000000678               0.000315032               0.999999997               0.000006458               0.000331118               0.999999997               0.000012945               0.000348977               0.999999997               0.000019866               0.000368307               0.999999997               0.000026759               0.000388878               0.999999997               0.000033320               0.000410669               0.999999997               0.000039669               0.000433570               0.999999997               0.000046059               0.000457390               0.999999997               0.000052182               0.000481986               0.999999997               0.000057664               0.000507204               0.999999997               0.000062408               0.000533017               0.999999997               0.000002618               0.000301453               0.999999997              -0.000007372               0.000296146               0.999999997              -0.000010586               0.000294996               0.999999997              -0.000010497               0.000298179               0.999999997              -0.000008714               0.000305078               0.999999997              -0.000005938               0.000315053               0.999999997              -0.000002258               0.000327764               0.999999997               0.000002033               0.000342612               0.999999997               0.000006980               0.000359151               0.999999997               0.000012395               0.000377282               0.999999997               0.000017804               0.000396775               0.999999997               0.000022831               0.000417500               0.999999997               0.000027539               0.000439252               0.999999997               0.000032063               0.000461986               0.999999997               0.000036226               0.000485508               0.999999997               0.000039620               0.000509709               0.999999997               0.000041954               0.000534445               0.999999997               0.000001866               0.000309338               0.999999997              -0.000005290               0.000307013               0.999999997              -0.000007885               0.000307149               0.999999997              -0.000008154               0.000310602               0.999999997              -0.000007147               0.000317199               0.999999997              -0.000005433               0.000326567               0.999999997              -0.000003079               0.000338405               0.999999997              -0.000000181               0.000352295               0.999999997               0.000003146               0.000367964               0.999999997               0.000006745               0.000385276               0.999999997               0.000010466               0.000404097               0.999999997               0.000014033               0.000424158               0.999999997               0.000017090               0.000445324               0.999999997               0.000019731               0.000467522               0.999999997               0.000022218               0.000490477               0.999999997               0.000024143               0.000514008               0.999999997               0.000024910               0.000538057               0.999999997               0.000000975               0.000314135               0.999999997              -0.000002747               0.000313784               0.999999997              -0.000004210               0.000314799               0.999999997              -0.000004431               0.000318537               0.999999997              -0.000003977               0.000325084               0.999999997              -0.000003164               0.000334135               0.999999997              -0.000002032               0.000345489               0.999999997              -0.000000590               0.000358886               0.999999997               0.000001078               0.000374167               0.999999997               0.000002803               0.000391064               0.999999997               0.000004742               0.000409410               0.999999997               0.000006618               0.000429073               0.999999997               0.000007949               0.000449953               0.999999997               0.000009173               0.000471843               0.999999997               0.000010470               0.000494600               0.999999997               0.000011392               0.000518029               0.999999997               0.000011342               0.000541893               0.999999997               0.000000000               0.000315686               0.999999997               0.000000000               0.000316062               0.999999997              -0.000000000               0.000317434               0.999999997               0.000000000               0.000321281               0.999999997              -0.000000000               0.000327872               0.999999997              -0.000000000               0.000336813               0.999999997              -0.000000000               0.000347951               0.999999997               0.000000000               0.000361259               0.999999997              -0.000000000               0.000376514               0.999999997               0.000000000               0.000393250               0.999999997               0.000000000               0.000411382               0.999999997              -0.000000000               0.000430887               0.999999997              -0.000000000               0.000451588               0.999999997              -0.000000000               0.000473362               0.999999997               0.000000000               0.000496088               0.999999997               0.000000000               0.000519636               0.999999997               0.000000000               0.000543623               0.999999997 </DataArray>
<DataArray type="Float64"                                    Name="stress"                                                      NumberOfComponents="10" format="ascii">
              0.000486634               0.005797831              -0.000000000              -0.000542240               0.002113337               0.001571098               0.000000000               0.000000000               0.000000000               0.000000000               0.000542297               0.004825369              -0.000000000              -0.000399809               0.001741710               0.001341901               0.000000000               0.000000000               0.000000000               0.000000000               0.000760725               0.004034068              -0.000000000              -0.000218986               0.001417671               0.001198685               0.000000000               0.000000000               0.000000000               0.000000000               0.000790201               0.003598484               0.000000000              -0.000153485               0.001250644               0.001097160               0.000000000               0.000000000               0.000000000               0.000000000               0.000745140               0.003345246               0.000000000              -0.000138728               0.001161314               0.001022586               0.000000000               0.000000000               0.000000000               0.000000000               0.000679190               0.003191330               0.000000000              -0.000144219               0.001111839               0.000967620               0.000000000               0.000000000               0.000000000               0.000000000               0.000606276               0.003093976              -0.000000000              -0.000159393               0.001084446               0.000925053               0.000000000               0.000000000               0.000000000               0.000000000               0.000534469               0.003032866              -0.000000000              -0.000178682               0.001070506               0.000891824               0.000000000               0.000000000               0.000000000               0.000000000               0.000470283               0.002996707              -0.000000000              -0.000198232               0.001064970               0.000866738               0.000000000               0.000000000               0.000000000               0.000000000               0.000410302               0.002978299              -0.000000000              -0.000218424               0.001065564               0.000847141               0.000000000               0.000000000               0.000000000               0.000000000               0.000352562               0.002971860              -0.000000000              -0.000239271               0.001070367               0.000831096               0.000000000               0.000000000               0.000000000               0.000000000               0.000297438               0.002972212               0.000000000              -0.000259986               0.001077389               0.000817403               0.000000000               0.000000000               0.000000000               0.000000000               0.000242601               0.002976424              -0.000000000              -0.000281077               0.001085824               0.000804747               0.000000000               0.000000000               0.000000000               0.000000000               0.000185064               0.002984608              -0.000000000              -0.000303676               0.001096085               0.000792408               0.000000000               0.000000000               0.000000000               0.000000000               0.000124887               0.002992453              -0.000000000              -0.000327223               0.001106549               0.000779325               0.000000000               0.000000000               0.000000000               0.000000000               0.000062948               0.002998416              -0.000000000              -0.000351196               0.001116527               0.000765332               0.000000000               0.000000000               0.000000000               0.000000000               0.000032755               0.003003346              -0.000000000              -0.000363134               0.001122150               0.000759016               0.000000000               0.000000000               0.000000000               0.000000000               0.000522371               0.005705530              -0.000443161              -0.000517301               0.002074258               0.001556957               0.000000000               0.000000000               0.000000000               0.000000000               0.000556785               0.004755583              -0.000290758              -0.000385653               0.001713730               0.001328077               0.000000000               0.000000000               0.000000000               0.000000000               0.000751338               0.003995927              -0.000130059              -0.000217738               0.001404542               0.001186803               0.000000000               0.000000000               0.000000000               0.000000000               0.000769580               0.003577275              -0.000051995              -0.000158566               0.001245269               0.001086702               0.000000000               0.000000000               0.000000000               0.000000000               0.000720814               0.003330692              -0.000013620              -0.000146031               0.001158896               0.001012866               0.000000000               0.000000000               0.000000000               0.000000000               0.000651978               0.003180613               0.000004534              -0.000153084               0.001111222               0.000958137               0.000000000               0.000000000               0.000000000               0.000000000               0.000580088               0.003086721               0.000013179              -0.000168307               0.001084999               0.000916692               0.000000000               0.000000000               0.000000000               0.000000000               0.000510792               0.003027813               0.000017380              -0.000186929               0.001071571               0.000884642               0.000000000               0.000000000               0.000000000               0.000000000               0.000447286               0.002993286               0.000018650              -0.000206428               0.001066561               0.000860133               0.000000000               0.000000000               0.000000000               0.000000000               0.000387644               0.002975009               0.000019009              -0.000226509               0.001067163               0.000840654               0.000000000               0.000000000               0.000000000               0.000000000               0.000332818               0.002970315               0.000017124              -0.000246482               0.001072256               0.000825774               0.000000000               0.000000000               0.000000000               0.000000000               0.000281403               0.002970657               0.000014044              -0.000265806               0.001078811               0.000813005               0.000000000               0.000000000               0.000000000               0.000000000               0.000230900               0.002975409               0.000013841              -0.000285338               0.001086906               0.000801568               0.000000000               0.000000000               0.000000000               0.000000000               0.000177567               0.002985091               0.000014036              -0.000306548               0.001097203               0.000790655               0.000000000               0.000000000               0.000000000               0.000000000               0.000119589               0.002997307               0.000012079              -0.000329817               0.001109031               0.000779215               0.000000000               0.000000000               0.000000000               0.000000000               0.000059767               0.003009292               0.000007272              -0.000353748               0.001121003               0.000767255               0.000000000               0.000000000               0.000000000               0.000000000               0.000032496               0.003020748               0.000002932              -0.000365407               0.001128708               0.000763302               0.000000000               0.000000000               0.000000000               0.000000000               0.000612534               0.005433511              -0.000840473              -0.000449488               0.001960982               0.001511494               0.000000000               0.000000000               0.000000000               0.000000000               0.000588353               0.004557521              -0.000550686              -0.000349057               0.001635511               0.001286454               0.000000000               0.000000000               0.000000000               0.000000000               0.000721610               0.003886567              -0.000249645              -0.000215217               0.001367248               0.001152032               0.000000000               0.000000000               0.000000000               0.000000000               0.000711537               0.003514869              -0.000107400              -0.000172532               0.001229122               0.001056590               0.000000000               0.000000000               0.000000000               0.000000000               0.000652045               0.003291959              -0.000037004              -0.000166978               0.001152968               0.000985990               0.000000000               0.000000000               0.000000000               0.000000000               0.000583374               0.003155489              -0.000001999              -0.000175670               0.001110376               0.000934706               0.000000000               0.000000000               0.000000000               0.000000000               0.000516158               0.003072331               0.000014264              -0.000190482               0.001087594               0.000897112               0.000000000               0.000000000               0.000000000               0.000000000               0.000450105               0.003021298               0.000021029              -0.000208872               0.001076713               0.000867841               0.000000000               0.000000000               0.000000000               0.000000000               0.000389495               0.002991737               0.000022332              -0.000227906               0.001073204               0.000845298               0.000000000               0.000000000               0.000000000               0.000000000               0.000334118               0.002976168               0.000023683              -0.000246726               0.001074288               0.000827562               0.000000000               0.000000000               0.000000000               0.000000000               0.000284814               0.002970885               0.000021755              -0.000264555               0.001078470               0.000813915               0.000000000               0.000000000               0.000000000               0.000000000               0.000241547               0.002972335               0.000015979              -0.000280961               0.001084422               0.000803461               0.000000000               0.000000000               0.000000000               0.000000000               0.000198356               0.002977892               0.000015397              -0.000297852               0.001091905               0.000794053               0.000000000               0.000000000               0.000000000               0.000000000               0.000152285               0.002989031               0.000017470              -0.000316521               0.001101841               0.000785320               0.000000000               0.000000000               0.000000000               0.000000000               0.000101885               0.003006404               0.000016148              -0.000337593               0.001114656               0.000777063               0.000000000               0.000000000               0.000000000               0.000000000               0.000049605               0.003028267               0.000010452              -0.000359931               0.001129389               0.000769458               0.000000000               0.000000000               0.000000000               0.000000000               0.000027708               0.003048377               0.000005129              -0.000370656               0.001139667               0.000769012               0.000000000               0.000000000               0.000000000               0.000000000               0.000740853               0.005010375              -0.001158628              -0.000348477               0.001786267               0.001437790               0.000000000               0.000000000               0.000000000               0.000000000               0.000628074               0.004260259              -0.000760246              -0.000297004               0.001519074               0.001222069               0.000000000               0.000000000               0.000000000               0.000000000               0.000669233               0.003725048              -0.000352122              -0.000214668               0.001313227               0.001098558               0.000000000               0.000000000               0.000000000               0.000000000               0.000627984               0.003425041              -0.000165878              -0.000192636               0.001205881               0.001013245               0.000000000               0.000000000               0.000000000               0.000000000               0.000561851               0.003242235              -0.000074554              -0.000194585               0.001145596               0.000951011               0.000000000               0.000000000               0.000000000               0.000000000               0.000492515               0.003127101              -0.000028567              -0.000206194               0.001111088               0.000904894               0.000000000               0.000000000               0.000000000               0.000000000               0.000428346               0.003055615              -0.000006893              -0.000221322               0.001092302               0.000870980               0.000000000               0.000000000               0.000000000               0.000000000               0.000369505               0.003012918               0.000001624              -0.000238050               0.001083646               0.000845596               0.000000000               0.000000000               0.000000000               0.000000000               0.000317864               0.002987000               0.000004404              -0.000254175               0.001080382               0.000826206               0.000000000               0.000000000               0.000000000               0.000000000               0.000273281               0.002973451               0.000005988              -0.000269200               0.001080874               0.000811674               0.000000000               0.000000000               0.000000000               0.000000000               0.000230746               0.002966327               0.000005009              -0.000284260               0.001083519               0.000799259               0.000000000               0.000000000               0.000000000               0.000000000               0.000190768               0.002967292              -0.000000701              -0.000299373               0.001088878               0.000789506               0.000000000               0.000000000               0.000000000               0.000000000               0.000152455               0.002972125              -0.000001317              -0.000314344               0.001095480               0.000781136               0.000000000               0.000000000               0.000000000               0.000000000               0.000114356               0.002982633               0.000004596              -0.000329945               0.001104183               0.000774238               0.000000000               0.000000000               0.000000000               0.000000000               0.000075069               0.003000457               0.000008694              -0.000346905               0.001115777               0.000768872               0.000000000               0.000000000               0.000000000               0.000000000               0.000035934               0.003023724               0.000007178              -0.000364489               0.001129394               0.000764905               0.000000000               0.000000000               0.000000000               0.000000000               0.000020855               0.003044452               0.000002835              -0.000372735               0.001139052               0.000766317               0.000000000               0.000000000               0.000000000               0.000000000               0.000881462               0.004490499              -0.001374436              -0.000230765               0.001573739               0.001342974               0.000000000               0.000000000               0.000000000               0.000000000               0.000668749               0.003903736              -0.000910139              -0.000237186               0.001380294               0.001143108               0.000000000               0.000000000               0.000000000               0.000000000               0.000605148               0.003536177              -0.000438624              -0.000215091               0.001250411               0.001035320               0.000000000               0.000000000               0.000000000               0.000000000               0.000531205               0.003315523              -0.000229232              -0.000215238               0.001176909               0.000961671               0.000000000               0.000000000               0.000000000               0.000000000               0.000461802               0.003174395              -0.000127442              -0.000223623               0.001132662               0.000909039               0.000000000               0.000000000               0.000000000               0.000000000               0.000396158               0.003082699              -0.000075712              -0.000236777               0.001106482               0.000869704               0.000000000               0.000000000               0.000000000               0.000000000               0.000337642               0.003024817              -0.000049216              -0.000251486               0.001092091               0.000840605               0.000000000               0.000000000               0.000000000               0.000000000               0.000288474               0.002987769              -0.000036278              -0.000265293               0.001084344               0.000819051               0.000000000               0.000000000               0.000000000               0.000000000               0.000246507               0.002964643              -0.000030977              -0.000278140               0.001080918               0.000802778               0.000000000               0.000000000               0.000000000               0.000000000               0.000209375               0.002950777              -0.000028052              -0.000290331               0.001080360               0.000790029               0.000000000               0.000000000               0.000000000               0.000000000               0.000174466               0.002942706              -0.000026427              -0.000302413               0.001081696               0.000779284               0.000000000               0.000000000               0.000000000               0.000000000               0.000140615               0.002942582              -0.000029186              -0.000315091               0.001085881               0.000770790               0.000000000               0.000000000               0.000000000               0.000000000               0.000107815               0.002948459              -0.000027874              -0.000328126               0.001092185               0.000764059               0.000000000               0.000000000               0.000000000               0.000000000               0.000076746               0.002958110              -0.000015817              -0.000340983               0.001099688               0.000758705               0.000000000               0.000000000               0.000000000               0.000000000               0.000047610               0.002973151              -0.000004436              -0.000353789               0.001108970               0.000755181               0.000000000               0.000000000               0.000000000               0.000000000               0.000021157               0.002991414               0.000000269              -0.000365992               0.001119125               0.000753133               0.000000000               0.000000000               0.000000000               0.000000000               0.000012387               0.003006842              -0.000000411              -0.000371209               0.001126007               0.000754798               0.000000000               0.000000000               0.000000000               0.000000000               0.000997876               0.003920787              -0.001483546              -0.000115896               0.001345548               0.001229651               0.000000000               0.000000000               0.000000000               0.000000000               0.000694753               0.003520420              -0.001001264              -0.000179521               0.001233302               0.001053781               0.000000000               0.000000000               0.000000000               0.000000000               0.000534044               0.003329966              -0.000512610              -0.000215979               0.001181971               0.000965992               0.000000000               0.000000000               0.000000000               0.000000000               0.000435950               0.003184487              -0.000298027              -0.000234579               0.001139678               0.000905099               0.000000000               0.000000000               0.000000000               0.000000000               0.000366229               0.003084378              -0.000191291              -0.000248211               0.001110853               0.000862642               0.000000000               0.000000000               0.000000000               0.000000000               0.000309710               0.003017846              -0.000133436              -0.000261089               0.001092968               0.000831879               0.000000000               0.000000000               0.000000000               0.000000000               0.000262293               0.002974282              -0.000101317              -0.000273425               0.001082559               0.000809134               0.000000000               0.000000000               0.000000000               0.000000000               0.000222206               0.002943426              -0.000084019              -0.000284600               0.001075999               0.000791399               0.000000000               0.000000000               0.000000000               0.000000000               0.000188052               0.002924227              -0.000074674              -0.000295008               0.001073069               0.000778060               0.000000000               0.000000000               0.000000000               0.000000000               0.000158636               0.002913336              -0.000069177              -0.000304678               0.001072662               0.000767984               0.000000000               0.000000000               0.000000000               0.000000000               0.000129866               0.002907367              -0.000061831              -0.000314720               0.001074019               0.000759299               0.000000000               0.000000000               0.000000000               0.000000000               0.000101280               0.002910566              -0.000055173              -0.000325840               0.001078792               0.000752952               0.000000000               0.000000000               0.000000000               0.000000000               0.000073542               0.002921592              -0.000048257              -0.000337620               0.001086394               0.000748774               0.000000000               0.000000000               0.000000000               0.000000000               0.000047608               0.002934133              -0.000031921              -0.000348913               0.001094339               0.000745426               0.000000000               0.000000000               0.000000000               0.000000000               0.000027376               0.002947553              -0.000013917              -0.000358177               0.001101900               0.000743723               0.000000000               0.000000000               0.000000000               0.000000000               0.000012086               0.002961489              -0.000004476              -0.000365653               0.001109037               0.000743384               0.000000000               0.000000000               0.000000000               0.000000000               0.000007542               0.002970725              -0.000003288              -0.000368511               0.001113069               0.000744558               0.000000000               0.000000000               0.000000000               0.000000000               0.001071649               0.003334374              -0.001496347              -0.000014930               0.001116423               0.001101493               0.000000000               0.000000000               0.000000000               0.000000000               0.000702182               0.003131430              -0.001041920              -0.000128111               0.001086503               0.000958392               0.000000000               0.000000000               0.000000000               0.000000000               0.000462349               0.003114544              -0.000576911              -0.000215937               0.001110150               0.000894213               0.000000000               0.000000000               0.000000000               0.000000000               0.000355723               0.003044372              -0.000368798              -0.000247150               0.001097164               0.000850014               0.000000000               0.000000000               0.000000000               0.000000000               0.000293987               0.002986447              -0.000258045              -0.000263060               0.001083159               0.000820099               0.000000000               0.000000000               0.000000000               0.000000000               0.000247796               0.002944428              -0.000194436              -0.000275129               0.001073176               0.000798047               0.000000000               0.000000000               0.000000000               0.000000000               0.000208746               0.002912014              -0.000157121              -0.000285721               0.001065902               0.000780181               0.000000000               0.000000000               0.000000000               0.000000000               0.000176428               0.002887157              -0.000133934              -0.000294733               0.001060621               0.000765887               0.000000000               0.000000000               0.000000000               0.000000000               0.000149881               0.002874685              -0.000116598              -0.000303130               0.001059262               0.000756132               0.000000000               0.000000000               0.000000000               0.000000000               0.000128193               0.002872386              -0.000103341              -0.000310975               0.001061111               0.000750136               0.000000000               0.000000000               0.000000000               0.000000000               0.000108780               0.002879823              -0.000088135              -0.000319185               0.001066326               0.000747142               0.000000000               0.000000000               0.000000000               0.000000000               0.000086930               0.002892686              -0.000072206              -0.000328986               0.001073881               0.000744895               0.000000000               0.000000000               0.000000000               0.000000000               0.000062002               0.002909601              -0.000059115              -0.000340448               0.001083340               0.000742892               0.000000000               0.000000000               0.000000000               0.000000000               0.000039110               0.002927064              -0.000041301              -0.000351216               0.001092750               0.000741534               0.000000000               0.000000000               0.000000000               0.000000000               0.000022808               0.002940334              -0.000021771              -0.000358988               0.001099764               0.000740776               0.000000000               0.000000000               0.000000000               0.000000000               0.000011333               0.002947010              -0.000009791              -0.000364125               0.001103702               0.000739577               0.000000000               0.000000000               0.000000000               0.000000000               0.000006905               0.002949816              -0.000006754              -0.000366137               0.001105308               0.000739171               0.000000000               0.000000000               0.000000000               0.000000000               0.001096519               0.002767316              -0.001425407               0.000065278               0.000900670               0.000965947               0.000000000               0.000000000               0.000000000               0.000000000               0.000690756               0.002761181              -0.001041144              -0.000086115               0.000949089               0.000862974               0.000000000               0.000000000               0.000000000               0.000000000               0.000403541               0.002903179              -0.000633410              -0.000211570               0.001038240               0.000826670               0.000000000               0.000000000               0.000000000               0.000000000               0.000300375               0.002904389              -0.000435578              -0.000250408               0.001051589               0.000801181               0.000000000               0.000000000               0.000000000               0.000000000               0.000246281               0.002885637              -0.000320662              -0.000268349               0.001051319               0.000782970               0.000000000               0.000000000               0.000000000               0.000000000               0.000209636               0.002865730              -0.000251027              -0.000279602               0.001048434               0.000768832               0.000000000               0.000000000               0.000000000               0.000000000               0.000177483               0.002846831              -0.000207725              -0.000289297               0.001045367               0.000756069               0.000000000               0.000000000               0.000000000               0.000000000               0.000153050               0.002835623              -0.000175423              -0.000297058               0.001044218               0.000747159               0.000000000               0.000000000               0.000000000               0.000000000               0.000135620               0.002837592              -0.000146832              -0.000303841               0.001047135               0.000743294               0.000000000               0.000000000               0.000000000               0.000000000               0.000120133               0.002849499              -0.000123092              -0.000311137               0.001053536               0.000742399               0.000000000               0.000000000               0.000000000               0.000000000               0.000104380               0.002871105              -0.000101570              -0.000319745               0.001063607               0.000743862               0.000000000               0.000000000               0.000000000               0.000000000               0.000085037               0.002895370              -0.000081120              -0.000330032               0.001075124               0.000745093               0.000000000               0.000000000               0.000000000               0.000000000               0.000062651               0.002918996              -0.000062928              -0.000341380               0.001086782               0.000745403               0.000000000               0.000000000               0.000000000               0.000000000               0.000041429               0.002938011              -0.000043884              -0.000351715               0.001096565               0.000744851               0.000000000               0.000000000               0.000000000               0.000000000               0.000026827               0.002947202              -0.000025458              -0.000358339               0.001101837               0.000743498               0.000000000               0.000000000               0.000000000               0.000000000               0.000014105               0.002946469              -0.000011859              -0.000363018               0.001103153               0.000740134               0.000000000               0.000000000               0.000000000               0.000000000               0.000006133               0.002943242              -0.000005585              -0.000365604               0.001102939               0.000737335               0.000000000               0.000000000               0.000000000               0.000000000               0.001090424               0.002266437              -0.001299062               0.000125602               0.000713603               0.000839205               0.000000000               0.000000000               0.000000000               0.000000000               0.000683996               0.002428094              -0.001021043              -0.000047015               0.000825028               0.000778013               0.000000000               0.000000000               0.000000000               0.000000000               0.000376692               0.002711384              -0.000697554              -0.000197664               0.000969673               0.000772010               0.000000000               0.000000000               0.000000000               0.000000000               0.000280708               0.002783929              -0.000507235              -0.000242725               0.001008875               0.000766150               0.000000000               0.000000000               0.000000000               0.000000000               0.000230300               0.002803884              -0.000387924              -0.000264122               0.001022660               0.000758537               0.000000000               0.000000000               0.000000000               0.000000000               0.000197525               0.002808705              -0.000311529              -0.000277016               0.001028564               0.000751549               0.000000000               0.000000000               0.000000000               0.000000000               0.000172040               0.002807534              -0.000257995              -0.000286426               0.001031311               0.000744884               0.000000000               0.000000000               0.000000000               0.000000000               0.000153619               0.002812726              -0.000215520              -0.000293983               0.001035560               0.000741577               0.000000000               0.000000000               0.000000000               0.000000000               0.000142381               0.002826288              -0.000176958              -0.000299892               0.001042051               0.000742158               0.000000000               0.000000000               0.000000000               0.000000000               0.000130544               0.002847527              -0.000144629              -0.000306986               0.001051495               0.000744509               0.000000000               0.000000000               0.000000000               0.000000000               0.000117985               0.002879232              -0.000116021              -0.000315659               0.001064954               0.000749295               0.000000000               0.000000000               0.000000000               0.000000000               0.000102378               0.002914312              -0.000089630              -0.000325896               0.001080060               0.000754163               0.000000000               0.000000000               0.000000000               0.000000000               0.000081514               0.002942806              -0.000067051              -0.000337282               0.001093353               0.000756071               0.000000000               0.000000000               0.000000000               0.000000000               0.000058711               0.002960139              -0.000046969              -0.000348000               0.001102703               0.000754703               0.000000000               0.000000000               0.000000000               0.000000000               0.000040224               0.002965102              -0.000027789              -0.000355553               0.001106875               0.000751322               0.000000000               0.000000000               0.000000000               0.000000000               0.000021728               0.002960826              -0.000011156              -0.000361954               0.001107584               0.000745629               0.000000000               0.000000000               0.000000000               0.000000000               0.000008245               0.002955097              -0.000002793              -0.000366294               0.001107121               0.000740826               0.000000000               0.000000000               0.000000000               0.000000000               0.001046271               0.001777954              -0.001147981               0.000170105               0.000535943               0.000706048               0.000000000               0.000000000               0.000000000               0.000000000               0.000692063               0.002041727              -0.000993206               0.000004306               0.000679133               0.000683439               0.000000000               0.000000000               0.000000000               0.000000000               0.000392086               0.002432454              -0.000775057              -0.000157025               0.000863151               0.000706127               0.000000000               0.000000000               0.000000000               0.000000000               0.000296677               0.002585974              -0.000599702              -0.000211993               0.000932647               0.000720654               0.000000000               0.000000000               0.000000000               0.000000000               0.000250421               0.002659998              -0.000476633              -0.000238592               0.000966188               0.000727596               0.000000000               0.000000000               0.000000000               0.000000000               0.000217179               0.002705306              -0.000389128              -0.000256721               0.000987333               0.000730613               0.000000000               0.000000000               0.000000000               0.000000000               0.000190821               0.002732348              -0.000324057              -0.000269985               0.001000769               0.000730784               0.000000000               0.000000000               0.000000000               0.000000000               0.000169994               0.002752958              -0.000273558              -0.000280371               0.001011101               0.000730729               0.000000000               0.000000000               0.000000000               0.000000000               0.000158852               0.002776238              -0.000230756              -0.000287460               0.001021223               0.000733764               0.000000000               0.000000000               0.000000000               0.000000000               0.000152922               0.002807620              -0.000191631              -0.000293606               0.001033733               0.000740127               0.000000000               0.000000000               0.000000000               0.000000000               0.000142722               0.002849807              -0.000153481              -0.000302704               0.001050828               0.000748123               0.000000000               0.000000000               0.000000000               0.000000000               0.000127340               0.002895219              -0.000118382              -0.000314149               0.001069780               0.000755631               0.000000000               0.000000000               0.000000000               0.000000000               0.000105669               0.002931503              -0.000088273              -0.000326811               0.001086095               0.000759284               0.000000000               0.000000000               0.000000000               0.000000000               0.000079698               0.002954546              -0.000062430              -0.000339431               0.001097982               0.000758552               0.000000000               0.000000000               0.000000000               0.000000000               0.000051325               0.002962589              -0.000036894              -0.000351076               0.001104545               0.000753469               0.000000000               0.000000000               0.000000000               0.000000000               0.000024126               0.002964558              -0.000013590              -0.000361522               0.001108683               0.000747162               0.000000000               0.000000000               0.000000000               0.000000000               0.000006403               0.002962728              -0.000001286              -0.000367939               0.001110213               0.000742274               0.000000000               0.000000000               0.000000000               0.000000000               0.000946701               0.001317570              -0.000971678               0.000190314               0.000375747               0.000566061               0.000000000               0.000000000               0.000000000               0.000000000               0.000697594               0.001655477              -0.000938583               0.000054661               0.000533599               0.000588261               0.000000000               0.000000000               0.000000000               0.000000000               0.000440929               0.002119586              -0.000834304              -0.000099601               0.000739722               0.000640121               0.000000000               0.000000000               0.000000000               0.000000000               0.000347622               0.002349420              -0.000690335              -0.000163320               0.000837572               0.000674252               0.000000000               0.000000000               0.000000000               0.000000000               0.000297117               0.002483846              -0.000569087              -0.000199062               0.000894294               0.000695232               0.000000000               0.000000000               0.000000000               0.000000000               0.000260992               0.002576123              -0.000474576              -0.000224143               0.000933414               0.000709270               0.000000000               0.000000000               0.000000000               0.000000000               0.000230076               0.002638694              -0.000401250              -0.000243558               0.000960742               0.000717184               0.000000000               0.000000000               0.000000000               0.000000000               0.000205651               0.002683111              -0.000345791              -0.000258269               0.000980451               0.000722182               0.000000000               0.000000000               0.000000000               0.000000000               0.000190453               0.002721046              -0.000301318              -0.000268710               0.000996576               0.000727866               0.000000000               0.000000000               0.000000000               0.000000000               0.000182691               0.002764006              -0.000256613              -0.000276991               0.001013657               0.000736665               0.000000000               0.000000000               0.000000000               0.000000000               0.000173819               0.002816989              -0.000208882              -0.000286941               0.001034634               0.000747693               0.000000000               0.000000000               0.000000000               0.000000000               0.000157772               0.002871610              -0.000164751              -0.000299786               0.001057122               0.000757336               0.000000000               0.000000000               0.000000000               0.000000000               0.000134877               0.002914584              -0.000126831              -0.000313744               0.001076100               0.000762356               0.000000000               0.000000000               0.000000000               0.000000000               0.000104467               0.002940989              -0.000093154              -0.000328448               0.001089803               0.000761355               0.000000000               0.000000000               0.000000000               0.000000000               0.000069318               0.002954536              -0.000058608              -0.000343322               0.001099276               0.000755954               0.000000000               0.000000000               0.000000000               0.000000000               0.000031135               0.002962807              -0.000025214              -0.000358674               0.001107151               0.000748476               0.000000000               0.000000000               0.000000000               0.000000000               0.000002263               0.002959199              -0.000005980              -0.000369050               0.001109406               0.000740356               0.000000000               0.000000000               0.000000000               0.000000000               0.000796176               0.000909305              -0.000771654               0.000184901               0.000241465               0.000426365               0.000000000               0.000000000               0.000000000               0.000000000               0.000680687               0.001281695              -0.000840667               0.000095044               0.000395546               0.000490590               0.000000000               0.000000000               0.000000000               0.000000000               0.000504251               0.001771230              -0.000839998              -0.000032311               0.000601174               0.000568863               0.000000000               0.000000000               0.000000000               0.000000000               0.000424800               0.002061687              -0.000738696              -0.000098411               0.000720026               0.000621614               0.000000000               0.000000000               0.000000000               0.000000000               0.000373577               0.002253275              -0.000631184              -0.000141568               0.000798274               0.000656705               0.000000000               0.000000000               0.000000000               0.000000000               0.000332920               0.002395678              -0.000538975              -0.000174615               0.000856756               0.000682141               0.000000000               0.000000000               0.000000000               0.000000000               0.000297109               0.002499222              -0.000464087              -0.000200987               0.000900061               0.000699074               0.000000000               0.000000000               0.000000000               0.000000000               0.000265215               0.002573810              -0.000407934              -0.000222270               0.000932018               0.000709748               0.000000000               0.000000000               0.000000000               0.000000000               0.000242029               0.002637689              -0.000361799              -0.000238950               0.000958871               0.000719921               0.000000000               0.000000000               0.000000000               0.000000000               0.000226661               0.002698777              -0.000314363              -0.000252349               0.000983700               0.000731351               0.000000000               0.000000000               0.000000000               0.000000000               0.000215148               0.002762889              -0.000261750              -0.000264680               0.001009180               0.000744500               0.000000000               0.000000000               0.000000000               0.000000000               0.000198671               0.002828935              -0.000212839              -0.000279115               0.001036007               0.000756892               0.000000000               0.000000000               0.000000000               0.000000000               0.000174616               0.002883433              -0.000170962              -0.000294947               0.001059451               0.000764503               0.000000000               0.000000000               0.000000000               0.000000000               0.000144566               0.002921062              -0.000132694              -0.000310920               0.001077318               0.000766398               0.000000000               0.000000000               0.000000000               0.000000000               0.000104725               0.002941524              -0.000090323              -0.000328418               0.001089971               0.000761553               0.000000000               0.000000000               0.000000000               0.000000000               0.000054042               0.002955126              -0.000043208              -0.000349124               0.001101407               0.000752283               0.000000000               0.000000000               0.000000000               0.000000000               0.000011315               0.002952521              -0.000014499              -0.000364821               0.001105771               0.000740950               0.000000000               0.000000000               0.000000000               0.000000000               0.000610064               0.000579485              -0.000567718               0.000156336               0.000141047               0.000297384               0.000000000               0.000000000               0.000000000               0.000000000               0.000642697               0.000940792              -0.000705624               0.000123410               0.000272457               0.000395867               0.000000000               0.000000000               0.000000000               0.000000000               0.000574539               0.001414514              -0.000782592               0.000038637               0.000458621               0.000497257               0.000000000               0.000000000               0.000000000               0.000000000               0.000521639               0.001740763              -0.000725551              -0.000021982               0.000587576               0.000565594               0.000000000               0.000000000               0.000000000               0.000000000               0.000477649               0.001978908              -0.000640539              -0.000068246               0.000682378               0.000614132               0.000000000               0.000000000               0.000000000               0.000000000               0.000431987               0.002165590              -0.000558900              -0.000108704               0.000758090               0.000649387               0.000000000               0.000000000               0.000000000               0.000000000               0.000391850               0.002311517              -0.000490629              -0.000141996               0.000817830               0.000675834               0.000000000               0.000000000               0.000000000               0.000000000               0.000351111               0.002421853              -0.000437074              -0.000171065               0.000864298               0.000693233               0.000000000               0.000000000               0.000000000               0.000000000               0.000316913               0.002514095              -0.000392569              -0.000195419               0.000903163               0.000707744               0.000000000               0.000000000               0.000000000               0.000000000               0.000293015               0.002597710              -0.000346336              -0.000214833               0.000937506               0.000722673               0.000000000               0.000000000               0.000000000               0.000000000               0.000277598               0.002681286              -0.000294158              -0.000231061               0.000970773               0.000739712               0.000000000               0.000000000               0.000000000               0.000000000               0.000262032               0.002763591              -0.000243922              -0.000247186               0.001003583               0.000756397               0.000000000               0.000000000               0.000000000               0.000000000               0.000238210               0.002831783              -0.000202990              -0.000264643               0.001032133               0.000767489               0.000000000               0.000000000               0.000000000               0.000000000               0.000208662               0.002884458              -0.000164394              -0.000282309               0.001055579               0.000773271               0.000000000               0.000000000               0.000000000               0.000000000               0.000170139               0.002921077              -0.000115615              -0.000301332               0.001074127               0.000772795               0.000000000               0.000000000               0.000000000               0.000000000               0.000121189               0.002947907              -0.000058163              -0.000323042               0.001090307               0.000767265               0.000000000               0.000000000               0.000000000               0.000000000               0.000078051               0.002950482              -0.000023356              -0.000339540               0.001096664               0.000757124               0.000000000               0.000000000               0.000000000               0.000000000               0.000417243               0.000338257              -0.000381401               0.000114183               0.000074690               0.000188873               0.000000000               0.000000000               0.000000000               0.000000000               0.000592903               0.000655392              -0.000542929               0.000140413               0.000171657               0.000312070               0.000000000               0.000000000               0.000000000               0.000000000               0.000641912               0.001080591              -0.000659612               0.000105641               0.000324979               0.000430621               0.000000000               0.000000000               0.000000000               0.000000000               0.000626530               0.001421249              -0.000639512               0.000057292               0.000454648               0.000511939               0.000000000               0.000000000               0.000000000               0.000000000               0.000593997               0.001691376              -0.000579887               0.000011326               0.000560011               0.000571337               0.000000000               0.000000000               0.000000000               0.000000000               0.000552209               0.001915062              -0.000516629              -0.000032305               0.000649116               0.000616811               0.000000000               0.000000000               0.000000000               0.000000000               0.000507810               0.002097833              -0.000460668              -0.000071801               0.000723204               0.000651404               0.000000000               0.000000000               0.000000000               0.000000000               0.000460095               0.002237515              -0.000414195              -0.000107154               0.000781549               0.000674395               0.000000000               0.000000000               0.000000000               0.000000000               0.000413829               0.002358372              -0.000375737              -0.000139611               0.000832653               0.000693043               0.000000000               0.000000000               0.000000000               0.000000000               0.000376077               0.002472686              -0.000335796              -0.000168057               0.000880239               0.000712183               0.000000000               0.000000000               0.000000000               0.000000000               0.000351366               0.002580728              -0.000290203              -0.000190828               0.000923843               0.000733015               0.000000000               0.000000000               0.000000000               0.000000000               0.000334095               0.002678902              -0.000243982              -0.000209577               0.000962817               0.000753241               0.000000000               0.000000000               0.000000000               0.000000000               0.000311790               0.002765008              -0.000204610              -0.000228704               0.000997895               0.000769191               0.000000000               0.000000000               0.000000000               0.000000000               0.000281749               0.002836532              -0.000168626              -0.000248910               0.001028471               0.000779561               0.000000000               0.000000000               0.000000000               0.000000000               0.000252483               0.002892186              -0.000124208              -0.000266842               0.001053000               0.000786158               0.000000000               0.000000000               0.000000000               0.000000000               0.000223890               0.002936109              -0.000066597              -0.000283054               0.001073045               0.000789990               0.000000000               0.000000000               0.000000000               0.000000000               0.000197936               0.002948717              -0.000031860              -0.000294363               0.001081017               0.000786654               0.000000000               0.000000000               0.000000000               0.000000000               0.000244195               0.000175224              -0.000227708               0.000069669               0.000035184               0.000104853               0.000000000               0.000000000               0.000000000               0.000000000               0.000541869               0.000441064              -0.000365937               0.000148066               0.000097664               0.000245731               0.000000000               0.000000000               0.000000000               0.000000000               0.000698070               0.000809273              -0.000475878               0.000160615               0.000216216               0.000376832               0.000000000               0.000000000               0.000000000               0.000000000               0.000724277               0.001147483              -0.000478388               0.000128167               0.000339768               0.000467935               0.000000000               0.000000000               0.000000000               0.000000000               0.000705574               0.001434907              -0.000443454               0.000085226               0.000449889               0.000535115               0.000000000               0.000000000               0.000000000               0.000000000               0.000669122               0.001681213              -0.000401051               0.000040769               0.000546809               0.000587578               0.000000000               0.000000000               0.000000000               0.000000000               0.000620707               0.001887712              -0.000361939              -0.000003199               0.000630297               0.000627098               0.000000000               0.000000000               0.000000000               0.000000000               0.000568258               0.002059426              -0.000328633              -0.000044332               0.000701246               0.000656914               0.000000000               0.000000000               0.000000000               0.000000000               0.000514069               0.002212781              -0.000299834              -0.000083822               0.000765527               0.000681705               0.000000000               0.000000000               0.000000000               0.000000000               0.000462467               0.002354239              -0.000271365              -0.000120855               0.000825024               0.000704169               0.000000000               0.000000000               0.000000000               0.000000000               0.000424957               0.002482663              -0.000240304              -0.000150974               0.000877871               0.000726897               0.000000000               0.000000000               0.000000000               0.000000000               0.000399900               0.002597617              -0.000202424              -0.000174739               0.000924110               0.000749371               0.000000000               0.000000000               0.000000000               0.000000000               0.000376963               0.002702838              -0.000165928              -0.000196493               0.000966435               0.000769942               0.000000000               0.000000000               0.000000000               0.000000000               0.000356898               0.002791654              -0.000139764              -0.000215120               0.001002248               0.000787129               0.000000000               0.000000000               0.000000000               0.000000000               0.000344212               0.002860639              -0.000111490              -0.000228500               0.001029703               0.000801204               0.000000000               0.000000000               0.000000000               0.000000000               0.000338742               0.002916972              -0.000064609              -0.000237593               0.001051512               0.000813919               0.000000000               0.000000000               0.000000000               0.000000000               0.000333024               0.002939876              -0.000034485              -0.000242600               0.001060815               0.000818216               0.000000000               0.000000000               0.000000000               0.000000000               0.000120154               0.000083285              -0.000103419               0.000034646               0.000016213               0.000050859               0.000000000               0.000000000               0.000000000               0.000000000               0.000499086               0.000306366              -0.000183427               0.000148860               0.000052501               0.000201361               0.000000000               0.000000000               0.000000000               0.000000000               0.000732732               0.000628798              -0.000249304               0.000196173               0.000144206               0.000340379               0.000000000               0.000000000               0.000000000               0.000000000               0.000791831               0.000961568              -0.000256340               0.000176739               0.000261607               0.000438345               0.000000000               0.000000000               0.000000000               0.000000000               0.000782579               0.001255403              -0.000241410               0.000136540               0.000372950               0.000509491               0.000000000               0.000000000               0.000000000               0.000000000               0.000747773               0.001510522              -0.000219599               0.000091599               0.000472969               0.000564568               0.000000000               0.000000000               0.000000000               0.000000000               0.000700139               0.001736372              -0.000199435               0.000045505               0.000563617               0.000609122               0.000000000               0.000000000               0.000000000               0.000000000               0.000645567               0.001937253              -0.000183607              -0.000000069               0.000645767               0.000645698               0.000000000               0.000000000               0.000000000               0.000000000               0.000587627               0.002112074              -0.000168675              -0.000043649               0.000718567               0.000674918               0.000000000               0.000000000               0.000000000               0.000000000               0.000530686               0.002263648              -0.000154596              -0.000083949               0.000782525               0.000698576               0.000000000               0.000000000               0.000000000               0.000000000               0.000481515               0.002402015              -0.000139136              -0.000119683               0.000840558               0.000720875               0.000000000               0.000000000               0.000000000               0.000000000               0.000447008               0.002531682              -0.000114003              -0.000148832               0.000893496               0.000744664               0.000000000               0.000000000               0.000000000               0.000000000               0.000430262               0.002651459              -0.000090838              -0.000170084               0.000940505               0.000770422               0.000000000               0.000000000               0.000000000               0.000000000               0.000424587               0.002756382              -0.000080444              -0.000185327               0.000980560               0.000795233               0.000000000               0.000000000               0.000000000               0.000000000               0.000423840               0.002843871              -0.000068404              -0.000196543               0.001013462               0.000816919               0.000000000               0.000000000               0.000000000               0.000000000               0.000432859               0.002911377              -0.000040294              -0.000201600               0.001037649               0.000836050               0.000000000               0.000000000               0.000000000               0.000000000               0.000445427               0.002940709              -0.000021451              -0.000200553               0.001047078               0.000846524               0.000000000               0.000000000               0.000000000               0.000000000               0.000075237               0.000055821               0.000000000               0.000021236               0.000011528               0.000032764               0.000000000               0.000000000               0.000000000               0.000000000               0.000482272               0.000261773               0.000000000               0.000148129               0.000037880               0.000186009               0.000000000               0.000000000               0.000000000               0.000000000               0.000744309               0.000566002              -0.000000000               0.000208363               0.000119211               0.000327575               0.000000000               0.000000000               0.000000000               0.000000000               0.000814318               0.000896321               0.000000000               0.000193327               0.000234328               0.000427655               0.000000000               0.000000000               0.000000000               0.000000000               0.000807283               0.001190619               0.000000000               0.000153902               0.000345568               0.000499470               0.000000000               0.000000000               0.000000000               0.000000000               0.000772091               0.001445224               0.000000000               0.000108880               0.000445443               0.000554323               0.000000000               0.000000000               0.000000000               0.000000000               0.000726817               0.001681014              -0.000000000               0.000062429               0.000539523               0.000601952               0.000000000               0.000000000               0.000000000               0.000000000               0.000674192               0.001897114              -0.000000000               0.000015683               0.000627138               0.000642820               0.000000000               0.000000000               0.000000000               0.000000000               0.000614742               0.002076152              -0.000000000              -0.000028991               0.000701707               0.000672717               0.000000000               0.000000000               0.000000000               0.000000000               0.000556400               0.002226230               0.000000000              -0.000069629               0.000765279               0.000695650               0.000000000               0.000000000               0.000000000               0.000000000               0.000501824               0.002367714              -0.000000000              -0.000107780               0.000825157               0.000717377               0.000000000               0.000000000               0.000000000               0.000000000               0.000464035               0.002502705              -0.000000000              -0.000138825               0.000880501               0.000741677               0.000000000               0.000000000               0.000000000               0.000000000               0.000454593               0.002629703              -0.000000000              -0.000158240               0.000929306               0.000771066               0.000000000               0.000000000               0.000000000               0.000000000               0.000454341               0.002743783               0.000000000              -0.000172595               0.000972117               0.000799522               0.000000000               0.000000000               0.000000000               0.000000000               0.000454492               0.002841963              -0.000000000              -0.000184810               0.001008915               0.000824104               0.000000000               0.000000000               0.000000000               0.000000000               0.000468102               0.002916509              -0.000000000              -0.000189025               0.001035168               0.000846143               0.000000000               0.000000000               0.000000000               0.000000000               0.000490255               0.002949013              -0.000000000              -0.000184781               0.001044588               0.000859808               0.000000000               0.000000000               0.000000000               0.000000000               0.000000000               0.000000000               0.000000000               0.000000000               0.000000000               0.000000000               0.000000000               0.000000000               0.000000000               0.000000000               0.000000000               0.000000000               0.000000000               0.000000000               0.000000000               0.000000000               0.000000000               0.000000000               0.000000000               0.000000000               0.000000000               0.000000000               0.000000000               0.000000000               0.000000000               0.000000000               0.000000000               0.000000000               0.000000000               0.000000000               0.000000000               0.000000000               0.000000000               0.000000000               0.000000000               0.000000000               0.000000000               0.000000000               0.000000000               0.000000000               0.000000000               0.000000000               0.000000000               0.000000000               0.000000000               0.000000000               0.000000000               0.000000000               0.000000000               0.000000000               0.000000000               0.000000000               0.000000000               0.000000000               0.000000000               0.000000000               0.000000000               0.000000000               0.000000000               0.000000000               0.000000000               0.000000000               0.000000000               0.000000000               0.000000000               0.000000000               0.000000000               0.000000000               0.000000000               0.000000000               0.000000000               0.000000000               0.000000000               0.000000000               0.000000000               0.000000000               0.000000000               0.000000000               0.000000000               0.000000000               0.000000000               0.000000000               0.000000000               0.000000000               0.000000000               0.000000000               0.000000000               0.000000000               0.000000000               0.000000000               0.000000000               0.000000000               0.000000000               0.000000000               0.000000000               0.000000000               0.000000000               0.000000000               0.000000000               0.000000000               0.000000000               0.000000000               0.000000000               0.000000000               0.000000000               0.000000000               0.000000000               0.000000000               0.000000000               0.000000000               0.000000000               0.000000000               0.000000000               0.000000000               0.000000000               0.000000000               0.000000000               0.000000000               0.000000000               0.000000000               0.000000000               0.000000000               0.000000000               0.000000000               0.000000000               0.000000000               0.000000000               0.000000000               0.000000000               0.000000000               0.000000000               0.000000000               0.000000000               0.000000000               0.000000000               0.000000000               0.000000000               0.000000000               0.000000000               0.000000000               0.000000000               0.000000000               0.000000000               0.000000000               0.000000000               0.000000000               0.000000000               0.000000000               0.000000000               0.000000000               0.000000000               0.000000000               0.000000000               0.000000000               0.000000000               0.000000000               0.000000000               0.000000000               0.000000000               0.000000000               0.000000000               0.000000000               0.000000000               0.000000000               0.000000000               0.000000000               0.000000000               0.000000000               0.000000000               0.000000000               0.000522371               0.005705530               0.000443161              -0.000517301               0.002074258               0.001556957               0.000000000               0.000000000               0.000000000               0.000000000               0.000556785               0.004755583               0.000290758              -0.000385653               0.001713730               0.001328077               0.000000000               0.000000000               0.000000000               0.000000000               0.000751338               0.003995927               0.000130059              -0.000217738               0.001404542               0.001186803               0.000000000               0.000000000               0.000000000               0.000000000               0.000769580               0.003577275               0.000051995              -0.000158566               0.001245269               0.001086702               0.000000000               0.000000000               0.000000000               0.000000000               0.000720814               0.003330692               0.000013620              -0.000146031               0.001158896               0.001012866               0.000000000               0.000000000               0.000000000               0.000000000               0.000651978               0.003180613              -0.000004534              -0.000153084               0.001111222               0.000958137               0.000000000               0.000000000               0.000000000               0.000000000               0.000580088               0.003086721              -0.000013179              -0.000168307               0.001084999               0.000916692               0.000000000               0.000000000               0.000000000               0.000000000               0.000510792               0.003027813              -0.000017380              -0.000186929               0.001071571               0.000884642               0.000000000               0.000000000               0.000000000               0.000000000               0.000447286               0.002993286              -0.000018650              -0.000206428               0.001066561               0.000860133               0.000000000               0.000000000               0.000000000               0.000000000               0.000387644               0.002975009              -0.000019009              -0.000226509               0.001067163               0.000840654               0.000000000               0.000000000               0.000000000               0.000000000               0.000332818               0.002970315              -0.000017124              -0.000246482               0.001072256               0.000825774               0.000000000               0.000000000               0.000000000               0.000000000               0.000281403               0.002970657              -0.000014044              -0.000265806               0.001078811               0.000813005               0.000000000               0.000000000               0.000000000               0.000000000               0.000230900               0.002975409              -0.000013841              -0.000285338               0.001086906               0.000801568               0.000000000               0.000000000               0.000000000               0.000000000               0.000177567               0.002985091              -0.000014036              -0.000306548               0.001097203               0.000790655               0.000000000               0.000000000               0.000000000               0.000000000               0.000119589               0.002997307              -0.000012079              -0.000329817               0.001109031               0.000779215               0.000000000               0.000000000               0.000000000               0.000000000               0.000059767               0.003009292              -0.000007272              -0.000353748               0.001121003               0.000767255               0.000000000               0.000000000               0.000000000               0.000000000               0.000032496               0.003020748              -0.000002932              -0.000365407               0.001128708               0.000763302               0.000000000               0.000000000               0.000000000               0.000000000               0.000612534               0.005433511               0.000840473              -0.000449488               0.001960982               0.001511494               0.000000000               0.000000000               0.000000000               0.000000000               0.000588353               0.004557521               0.000550686              -0.000349057               0.001635511               0.001286454               0.000000000               0.000000000               0.000000000               0.000000000               0.000721610               0.003886567               0.000249645              -0.000215217               0.001367248               0.001152032               0.000000000               0.000000000               0.000000000               0.000000000               0.000711537               0.003514869               0.000107400              -0.000172532               0.001229122               0.001056590               0.000000000               0.000000000               0.000000000               0.000000000               0.000652045               0.003291959               0.000037004              -0.000166978               0.001152968               0.000985990               0.000000000               0.000000000               0.000000000               0.000000000               0.000583374               0.003155489               0.000001999              -0.000175670               0.001110376               0.000934706               0.000000000               0.000000000               0.000000000               0.000000000               0.000516158               0.003072331              -0.000014264              -0.000190482               0.001087594               0.000897112               0.000000000               0.000000000               0.000000000               0.000000000               0.000450105               0.003021298              -0.000021029              -0.000208872               0.001076713               0.000867841               0.000000000               0.000000000               0.000000000               0.000000000               0.000389495               0.002991737              -0.000022332              -0.000227906               0.001073204               0.000845298               0.000000000               0.000000000               0.000000000               0.000000000               0.000334118               0.002976168              -0.000023683              -0.000246726               0.001074288               0.000827562               0.000000000               0.000000000               0.000000000               0.000000000               0.000284814               0.002970885              -0.000021755              -0.000264555               0.001078470               0.000813915               0.000000000               0.000000000               0.000000000               0.000000000               0.000241547               0.002972335              -0.000015979              -0.000280961               0.001084422               0.000803461               0.000000000               0.000000000               0.000000000               0.000000000               0.000198356               0.002977892              -0.000015397              -0.000297852               0.001091905               0.000794053               0.000000000               0.000000000               0.000000000               0.000000000               0.000152285               0.002989031              -0.000017470              -0.000316521               0.001101841               0.000785320               0.000000000               0.000000000               0.000000000               0.000000000               0.000101885               0.003006404              -0.000016148              -0.000337593               0.001114656               0.000777063               0.000000000               0.000000000               0.000000000               0.000000000               0.000049605               0.003028267              -0.000010452              -0.000359931               0.001129389               0.000769458               0.000000000               0.000000000               0.000000000               0.000000000               0.000027708               0.003048377              -0.000005129              -0.000370656               0.001139667               0.000769012               0.000000000               0.000000000               0.000000000               0.000000000               0.000740853               0.005010375               0.001158628              -0.000348477               0.001786267               0.001437790               0.000000000               0.000000000               0.000000000               0.000000000               0.000628074               0.004260259               0.000760246              -0.000297004               0.001519074               0.001222069               0.000000000               0.000000000               0.000000000               0.000000000               0.000669233               0.003725048               0.000352122              -0.000214668               0.001313227               0.001098558               0.000000000               0.000000000               0.000000000               0.000000000               0.000627984               0.003425041               0.000165878              -0.000192636               0.001205881               0.001013245               0.000000000               0.000000000               0.000000000               0.000000000               0.000561851               0.003242235               0.000074554              -0.000194585               0.001145596               0.000951011               0.000000000               0.000000000               0.000000000               0.000000000               0.000492515               0.003127101               0.000028567              -0.000206194               0.001111088               0.000904894               0.000000000               0.000000000               0.000000000               0.000000000               0.000428346               0.003055615               0.000006893              -0.000221322               0.001092302               0.000870980               0.000000000               0.000000000               0.000000000               0.000000000               0.000369505               0.003012918              -0.000001624              -0.000238050               0.001083646               0.000845596               0.000000000               0.000000000               0.000000000               0.000000000               0.000317864               0.002987000              -0.000004404              -0.000254175               0.001080382               0.000826206               0.000000000               0.000000000               0.000000000               0.000000000               0.000273281               0.002973451              -0.000005988              -0.000269200               0.001080874               0.000811674               0.000000000               0.000000000               0.000000000               0.000000000               0.000230746               0.002966327              -0.000005009              -0.000284260               0.001083519               0.000799259               0.000000000               0.000000000               0.000000000               0.000000000               0.000190768               0.002967292               0.000000701              -0.000299373               0.001088878               0.000789506               0.000000000               0.000000000               0.000000000               0.000000000               0.000152455               0.002972125               0.000001317              -0.000314344               0.001095480               0.000781136               0.000000000               0.000000000               0.000000000               0.000000000               0.000114356               0.002982633              -0.000004596              -0.000329945               0.001104183               0.000774238               0.000000000               0.000000000               0.000000000               0.000000000               0.000075069               0.003000457              -0.000008694              -0.000346905               0.001115777               0.000768872               0.000000000               0.000000000               0.000000000               0.000000000               0.000035934               0.003023724              -0.000007178              -0.000364489               0.001129394               0.000764905               0.000000000               0.000000000               0.000000000               0.000000000               0.000020855               0.003044452              -0.000002835              -0.000372735               0.001139052               0.000766317               0.000000000               0.000000000               0.000000000               0.000000000               0.000881462               0.004490499               0.001374436              -0.000230765               0.001573739               0.001342974               0.000000000               0.000000000               0.000000000               0.000000000               0.000668749               0.003903736               0.000910139              -0.000237186               0.001380294               0.001143108               0.000000000               0.000000000               0.000000000               0.000000000               0.000605148               0.003536177               0.000438624              -0.000215091               0.001250411               0.001035320               0.000000000               0.000000000               0.000000000               0.000000000               0.000531205               0.003315523               0.000229232              -0.000215238               0.001176909               0.000961671               0.000000000               0.000000000               0.000000000               0.000000000               0.000461802               0.003174395               0.000127442              -0.000223623               0.001132662               0.000909039               0.000000000               0.000000000               0.000000000               0.000000000               0.000396158               0.003082699               0.000075712              -0.000236777               0.001106482               0.000869704               0.000000000               0.000000000               0.000000000               0.000000000               0.000337642               0.003024817               0.000049216              -0.000251486               0.001092091               0.000840605               0.000000000               0.000000000               0.000000000               0.000000000               0.000288474               0.002987769               0.000036278              -0.000265293               0.001084344               0.000819051               0.000000000               0.000000000               0.000000000               0.000000000               0.000246507               0.002964643               0.000030977              -0.000278140               0.001080918               0.000802778               0.000000000               0.000000000               0.000000000               0.000000000               0.000209375               0.002950777               0.000028052              -0.000290331               0.001080360               0.000790029               0.000000000               0.000000000               0.000000000               0.000000000               0.000174466               0.002942706               0.000026427              -0.000302413               0.001081696               0.000779284               0.000000000               0.000000000               0.000000000               0.000000000               0.000140615               0.002942582               0.000029186              -0.000315091               0.001085881               0.000770790               0.000000000               0.000000000               0.000000000               0.000000000               0.000107815               0.002948459               0.000027874              -0.000328126               0.001092185               0.000764059               0.000000000               0.000000000               0.000000000               0.000000000               0.000076746               0.002958110               0.000015817              -0.000340983               0.001099688               0.000758705               0.000000000               0.000000000               0.000000000               0.000000000               0.000047610               0.002973151               0.000004436              -0.000353789               0.001108970               0.000755181               0.000000000               0.000000000               0.000000000               0.000000000               0.000021157               0.002991414              -0.000000269              -0.000365992               0.001119125               0.000753133               0.000000000               0.000000000               0.000000000               0.000000000               0.000012387               0.003006842               0.000000411              -0.000371209               0.001126007               0.000754798               0.000000000               0.000000000               0.000000000               0.000000000               0.000997876               0.003920787               0.001483546              -0.000115896               0.001345548               0.001229651               0.000000000               0.000000000               0.000000000               0.000000000               0.000694753               0.003520420               0.001001264              -0.000179521               0.001233302               0.001053781               0.000000000               0.000000000               0.000000000               0.000000000               0.000534044               0.003329966               0.000512610              -0.000215979               0.001181971               0.000965992               0.000000000               0.000000000               0.000000000               0.000000000               0.000435950               0.003184487               0.000298027              -0.000234579               0.001139678               0.000905099               0.000000000               0.000000000               0.000000000               0.000000000               0.000366229               0.003084378               0.000191291              -0.000248211               0.001110853               0.000862642               0.000000000               0.000000000               0.000000000               0.000000000               0.000309710               0.003017846               0.000133436              -0.000261089               0.001092968               0.000831879               0.000000000               0.000000000               0.000000000               0.000000000               0.000262293               0.002974282               0.000101317              -0.000273425               0.001082559               0.000809134               0.000000000               0.000000000               0.000000000               0.000000000               0.000222206               0.002943426               0.000084019              -0.000284600               0.001075999               0.000791399               0.000000000               0.000000000               0.000000000               0.000000000               0.000188052               0.002924227               0.000074674              -0.000295008               0.001073069               0.000778060               0.000000000               0.000000000               0.000000000               0.000000000               0.000158636               0.002913336               0.000069177              -0.000304678               0.001072662               0.000767984               0.000000000               0.000000000               0.000000000               0.000000000               0.000129866               0.002907367               0.000061831              -0.000314720               0.001074019               0.000759299               0.000000000               0.000000000               0.000000000               0.000000000               0.000101280               0.002910566               0.000055173              -0.000325840               0.001078792               0.000752952               0.000000000               0.000000000               0.000000000               0.000000000               0.000073542               0.002921592               0.000048257              -0.000337620               0.001086394               0.000748774               0.000000000               0.000000000               0.000000000               0.000000000               0.000047608               0.002934133               0.000031921              -0.000348913               0.001094339               0.000745426               0.000000000               0.000000000               0.000000000               0.000000000               0.000027376               0.002947553               0.000013917              -0.000358177               0.001101900               0.000743723               0.000000000               0.000000000               0.000000000               0.000000000               0.000012086               0.002961489               0.000004476              -0.000365653               0.001109037               0.000743384               0.000000000               0.000000000               0.000000000               0.000000000               0.000007542               0.002970725               0.000003288              -0.000368511               0.001113069               0.000744558               0.000000000               0.000000000               0.000000000               0.000000000               0.001071649               0.003334374               0.001496347              -0.000014930               0.001116423               0.001101493               0.000000000               0.000000000               0.000000000               0.000000000               0.000702182               0.003131430               0.001041920              -0.000128111               0.001086503               0.000958392               0.000000000               0.000000000               0.000000000               0.000000000               0.000462349               0.003114544               0.000576911              -0.000215937               0.001110150               0.000894213               0.000000000               0.000000000               0.000000000               0.000000000               0.000355723               0.003044372               0.000368798              -0.000247150               0.001097164               0.000850014               0.000000000               0.000000000               0.000000000               0.000000000               0.000293987               0.002986447               0.000258045              -0.000263060               0.001083159               0.000820099               0.000000000               0.000000000               0.000000000               0.000000000               0.000247796               0.002944428               0.000194436              -0.000275129               0.001073176               0.000798047               0.000000000               0.000000000               0.000000000               0.000000000               0.000208746               0.002912014               0.000157121              -0.000285721               0.001065902               0.000780181               0.000000000               0.000000000               0.000000000               0.000000000               0.000176428               0.002887157               0.000133934              -0.000294733               0.001060621               0.000765887               0.000000000               0.000000000               0.000000000               0.000000000               0.000149881               0.002874685               0.000116598              -0.000303130               0.001059262               0.000756132               0.000000000               0.000000000               0.000000000               0.000000000               0.000128193               0.002872386               0.000103341              -0.000310975               0.001061111               0.000750136               0.000000000               0.000000000               0.000000000               0.000000000               0.000108780               0.002879823               0.000088135              -0.000319185               0.001066326               0.000747142               0.000000000               0.000000000               0.000000000               0.000000000               0.000086930               0.002892686               0.000072206              -0.000328986               0.001073881               0.000744895               0.000000000               0.000000000               0.000000000               0.000000000               0.000062002               0.002909601               0.000059115              -0.000340448               0.001083340               0.000742892               0.000000000               0.000000000               0.000000000               0.000000000               0.000039110               0.002927064               0.000041301              -0.000351216               0.001092750               0.000741534               0.000000000               0.000000000               0.000000000               0.000000000               0.000022808               0.002940334               0.000021771              -0.000358988               0.001099764               0.000740776               0.000000000               0.000000000               0.000000000               0.000000000               0.000011333               0.002947010               0.000009791              -0.000364125               0.001103702               0.000739577               0.000000000               0.000000000               0.000000000               0.000000000               0.000006905               0.002949816               0.000006754              -0.000366137               0.001105308               0.000739171               0.000000000               0.000000000               0.000000000               0.000000000               0.001096519               0.002767316               0.001425407               0.000065278               0.000900670               0.000965947               0.000000000               0.000000000               0.000000000               0.000000000               0.000690756               0.002761181               0.001041144              -0.000086115               0.000949089               0.000862974               0.000000000               0.000000000               0.000000000               0.000000000               0.000403541               0.002903179               0.000633410              -0.000211570               0.001038240               0.000826670               0.000000000               0.000000000               0.000000000               0.000000000               0.000300375               0.002904389               0.000435578              -0.000250408               0.001051589               0.000801181               0.000000000               0.000000000               0.000000000               0.000000000               0.000246281               0.002885637               0.000320662              -0.000268349               0.001051319               0.000782970               0.000000000               0.000000000               0.000000000               0.000000000               0.000209636               0.002865730               0.000251027              -0.000279602               0.001048434               0.000768832               0.000000000               0.000000000               0.000000000               0.000000000               0.000177483               0.002846831               0.000207725              -0.000289297               0.001045367               0.000756069               0.000000000               0.000000000               0.000000000               0.000000000               0.000153050               0.002835623               0.000175423              -0.000297058               0.001044218               0.000747159               0.000000000               0.000000000               0.000000000               0.000000000               0.000135620               0.002837592               0.000146832              -0.000303841               0.001047135               0.000743294               0.000000000               0.000000000               0.000000000               0.000000000               0.000120133               0.002849499               0.000123092              -0.000311137               0.001053536               0.000742399               0.000000000               0.000000000               0.000000000               0.000000000               0.000104380               0.002871105               0.000101570              -0.000319745               0.001063607               0.000743862               0.000000000               0.000000000               0.000000000               0.000000000               0.000085037               0.002895370               0.000081120              -0.000330032               0.001075124               0.000745093               0.000000000               0.000000000               0.000000000               0.000000000               0.000062651               0.002918996               0.000062928              -0.000341380               0.001086782               0.000745403               0.000000000               0.000000000               0.000000000               0.000000000               0.000041429               0.002938011               0.000043884              -0.000351715               0.001096565               0.000744851               0.000000000               0.000000000               0.000000000               0.000000000               0.000026827               0.002947202               0.000025458              -0.000358339               0.001101837               0.000743498               0.000000000               0.000000000               0.000000000               0.000000000               0.000014105               0.002946469               0.000011859              -0.000363018               0.001103153               0.000740134               0.000000000               0.000000000               0.000000000               0.000000000               0.000006133               0.002943242               0.000005585              -0.000365604               0.001102939               0.000737335               0.000000000               0.000000000               0.000000000               0.000000000               0.001090424               0.002266437               0.001299062               0.000125602               0.000713603               0.000839205               0.000000000               0.000000000               0.000000000               0.000000000               0.000683996               0.002428094               0.001021043              -0.000047015               0.000825028               0.000778013               0.000000000               0.000000000               0.000000000               0.000000000               0.000376692               0.002711384               0.000697554              -0.000197664               0.000969673               0.000772010               0.000000000               0.000000000               0.000000000               0.000000000               0.000280708               0.002783929               0.000507235              -0.000242725               0.001008875               0.000766150               0.000000000               0.000000000               0.000000000               0.000000000               0.000230300               0.002803884               0.000387924              -0.000264122               0.001022660               0.000758537               0.000000000               0.000000000               0.000000000               0.000000000               0.000197525               0.002808705               0.000311529              -0.000277016               0.001028564               0.000751549               0.000000000               0.000000000               0.000000000               0.000000000               0.000172040               0.002807534               0.000257995              -0.000286426               0.001031311               0.000744884               0.000000000               0.000000000               0.000000000               0.000000000               0.000153619               0.002812726               0.000215520              -0.000293983               0.001035560               0.000741577               0.000000000               0.000000000               0.000000000               0.000000000               0.000142381               0.002826288               0.000176958              -0.000299892               0.001042051               0.000742158               0.000000000               0.000000000               0.000000000               0.000000000               0.000130544               0.002847527               0.000144629              -0.000306986               0.001051495               0.000744509               0.000000000               0.000000000               0.000000000               0.000000000               0.000117985               0.002879232               0.000116021              -0.000315659               0.001064954               0.000749295               0.000000000               0.000000000               0.000000000               0.000000000               0.000102378               0.002914312               0.000089630              -0.000325896               0.001080060               0.000754163               0.000000000               0.000000000               0.000000000               0.000000000               0.000081514               0.002942806               0.000067051              -0.000337282               0.001093353               0.000756071               0.000000000               0.000000000               0.000000000               0.000000000               0.000058711               0.002960139               0.000046969              -0.000348000               0.001102703               0.000754703               0.000000000               0.000000000               0.000000000               0.000000000               0.000040224               0.002965102               0.000027789              -0.000355553               0.001106875               0.000751322               0.000000000               0.000000000               0.000000000               0.000000000               0.000021728               0.002960826               0.000011156              -0.000361954               0.001107584               0.000745629               0.000000000               0.000000000               0.000000000               0.000000000               0.000008245               0.002955097               0.000002793              -0.000366294               0.001107121               0.000740826               0.000000000               0.000000000               0.000000000               0.000000000               0.001046271               0.001777954               0.001147981               0.000170105               0.000535943               0.000706048               0.000000000               0.000000000               0.000000000               0.000000000               0.000692063               0.002041727               0.000993206               0.000004306               0.000679133               0.000683439               0.000000000               0.000000000               0.000000000               0.000000000               0.000392086               0.002432454               0.000775057              -0.000157025               0.000863151               0.000706127               0.000000000               0.000000000               0.000000000               0.000000000               0.000296677               0.002585974               0.000599702              -0.000211993               0.000932647               0.000720654               0.000000000               0.000000000               0.000000000               0.000000000               0.000250421               0.002659998               0.000476633              -0.000238592               0.000966188               0.000727596               0.000000000               0.000000000               0.000000000               0.000000000               0.000217179               0.002705306               0.000389128              -0.000256721               0.000987333               0.000730613               0.000000000               0.000000000               0.000000000               0.000000000               0.000190821               0.002732348               0.000324057              -0.000269985               0.001000769               0.000730784               0.000000000               0.000000000               0.000000000               0.000000000               0.000169994               0.002752958               0.000273558              -0.000280371               0.001011101               0.000730729               0.000000000               0.000000000               0.000000000               0.000000000               0.000158852               0.002776238               0.000230756              -0.000287460               0.001021223               0.000733764               0.000000000               0.000000000               0.000000000               0.000000000               0.000152922               0.002807620               0.000191631              -0.000293606               0.001033733               0.000740127               0.000000000               0.000000000               0.000000000               0.000000000               0.000142722               0.002849807               0.000153481              -0.000302704               0.001050828               0.000748123               0.000000000               0.000000000               0.000000000               0.000000000               0.000127340               0.002895219               0.000118382              -0.000314149               0.001069780               0.000755631               0.000000000               0.000000000               0.000000000               0.000000000               0.000105669               0.002931503               0.000088273              -0.000326811               0.001086095               0.000759284               0.000000000               0.000000000               0.000000000               0.000000000               0.000079698               0.002954546               0.000062430              -0.000339431               0.001097982               0.000758552               0.000000000               0.000000000               0.000000000               0.000000000               0.000051325               0.002962589               0.000036894              -0.000351076               0.001104545               0.000753469               0.000000000               0.000000000               0.000000000               0.000000000               0.000024126               0.002964558               0.000013590              -0.000361522               0.001108683               0.000747162               0.000000000               0.000000000               0.000000000               0.000000000               0.000006403               0.002962728               0.000001286              -0.000367939               0.001110213               0.000742274               0.000000000               0.000000000               0.000000000               0.000000000               0.000946701               0.001317570               0.000971678               0.000190314               0.000375747               0.000566061               0.000000000               0.000000000               0.000000000               0.000000000               0.000697594               0.001655477               0.000938583               0.000054661               0.000533599               0.000588261               0.000000000               0.000000000               0.000000000               0.000000000               0.000440929               0.002119586               0.000834304              -0.000099601               0.000739722               0.000640121               0.000000000               0.000000000               0.000000000               0.000000000               0.000347622               0.002349420               0.000690335              -0.000163320               0.000837572               0.000674252               0.000000000               0.000000000               0.000000000               0.000000000               0.000297117               0.002483846               0.000569087              -0.000199062               0.000894294               0.000695232               0.000000000               0.000000000               0.000000000               0.000000000               0.000260992               0.002576123               0.000474576              -0.000224143               0.000933414               0.000709270               0.000000000               0.000000000               0.000000000               0.000000000               0.000230076               0.002638694               0.000401250              -0.000243558               0.000960742               0.000717184               0.000000000               0.000000000               0.000000000               0.000000000               0.000205651               0.002683111               0.000345791              -0.000258269               0.000980451               0.000722182               0.000000000               0.000000000               0.000000000               0.000000000               0.000190453               0.002721046               0.000301318              -0.000268710               0.000996576               0.000727866               0.000000000               0.000000000               0.000000000               0.000000000               0.000182691               0.002764006               0.000256613              -0.000276991               0.001013657               0.000736665               0.000000000               0.000000000               0.000000000               0.000000000               0.000173819               0.002816989               0.000208882              -0.000286941               0.001034634               0.000747693               0.000000000               0.000000000               0.000000000               0.000000000               0.000157772               0.002871610               0.000164751              -0.000299786               0.001057122               0.000757336               0.000000000               0.000000000               0.000000000               0.000000000               0.000134877               0.002914584               0.000126831              -0.000313744               0.001076100               0.000762356               0.000000000               0.000000000               0.000000000               0.000000000               0.000104467               0.002940989               0.000093154              -0.000328448               0.001089803               0.000761355               0.000000000               0.000000000               0.000000000               0.000000000               0.000069318               0.002954536               0.000058608              -0.000343322               0.001099276               0.000755954               0.000000000               0.000000000               0.000000000               0.000000000               0.000031135               0.002962807               0.000025214              -0.000358674               0.001107151               0.000748476               0.000000000               0.000000000               0.000000000               0.000000000               0.000002263               0.002959199               0.000005980              -0.000369050               0.001109406               0.000740356               0.000000000               0.000000000               0.000000000               0.000000000               0.000796176               0.000909305               0.000771654               0.000184901               0.000241465               0.000426365               0.000000000               0.000000000               0.000000000               0.000000000               0.000680687               0.001281695               0.000840667               0.000095044               0.000395546               0.000490590               0.000000000               0.000000000               0.000000000               0.000000000               0.000504251               0.001771230               0.000839998              -0.000032311               0.000601174               0.000568863               0.000000000               0.000000000               0.000000000               0.000000000               0.000424800               0.002061687               0.000738696              -0.000098411               0.000720026               0.000621614               0.000000000               0.000000000               0.000000000               0.000000000               0.000373577               0.002253275               0.000631184              -0.000141568               0.000798274               0.000656705               0.000000000               0.000000000               0.000000000               0.000000000               0.000332920               0.002395678               0.000538975              -0.000174615               0.000856756               0.000682141               0.000000000               0.000000000               0.000000000               0.000000000               0.000297109               0.002499222               0.000464087              -0.000200987               0.000900061               0.000699074               0.000000000               0.000000000               0.000000000               0.000000000               0.000265215               0.002573810               0.000407934              -0.000222270               0.000932018               0.000709748               0.000000000               0.000000000               0.000000000               0.000000000               0.000242029               0.002637689               0.000361799              -0.000238950               0.000958871               0.000719921               0.000000000               0.000000000               0.000000000               0.000000000               0.000226661               0.002698777               0.000314363              -0.000252349               0.000983700               0.000731351               0.000000000               0.000000000               0.000000000               0.000000000               0.000215148               0.002762889               0.000261750              -0.000264680               0.001009180               0.000744500               0.000000000               0.000000000               0.000000000               0.000000000               0.000198671               0.002828935               0.000212839              -0.000279115               0.001036007               0.000756892               0.000000000               0.000000000               0.000000000               0.000000000               0.000174616               0.002883433               0.000170962              -0.000294947               0.001059451               0.000764503               0.000000000               0.000000000               0.000000000               0.000000000               0.000144566               0.002921062               0.000132694              -0.000310920               0.001077318               0.000766398               0.000000000               0.000000000               0.000000000               0.000000000               0.000104725               0.002941524               0.000090323              -0.000328418               0.001089971               0.000761553               0.000000000               0.000000000               0.000000000               0.000000000               0.000054042               0.002955126               0.000043208              -0.000349124               0.001101407               0.000752283               0.000000000               0.000000000               0.000000000               0.000000000               0.000011315               0.002952521               0.000014499              -0.000364821               0.001105771               0.000740950               0.000000000               0.000000000               0.000000000               0.000000000               0.000610064               0.000579485               0.000567718               0.000156336               0.000141047               0.000297384               0.000000000               0.000000000               0.000000000               0.000000000               0.000642697               0.000940792               0.000705624               0.000123410               0.000272457               0.000395867               0.000000000               0.000000000               0.000000000               0.000000000               0.000574539               0.001414514               0.000782592               0.000038637               0.000458621               0.000497257               0.000000000               0.000000000               0.000000000               0.000000000               0.000521639               0.001740763               0.000725551              -0.000021982               0.000587576               0.000565594               0.000000000               0.000000000               0.000000000               0.000000000               0.000477649               0.001978908               0.000640539              -0.000068246               0.000682378               0.000614132               0.000000000               0.000000000               0.000000000               0.000000000               0.000431987               0.002165590               0.000558900              -0.000108704               0.000758090               0.000649387               0.000000000               0.000000000               0.000000000               0.000000000               0.000391850               0.002311517               0.000490629              -0.000141996               0.000817830               0.000675834               0.000000000               0.000000000               0.000000000               0.000000000               0.000351111               0.002421853               0.000437074              -0.000171065               0.000864298               0.000693233               0.000000000               0.000000000               0.000000000               0.000000000               0.000316913               0.002514095               0.000392569              -0.000195419               0.000903163               0.000707744               0.000000000               0.000000000               0.000000000               0.000000000               0.000293015               0.002597710               0.000346336              -0.000214833               0.000937506               0.000722673               0.000000000               0.000000000               0.000000000               0.000000000               0.000277598               0.002681286               0.000294158              -0.000231061               0.000970773               0.000739712               0.000000000               0.000000000               0.000000000               0.000000000               0.000262032               0.002763591               0.000243922              -0.000247186               0.001003583               0.000756397               0.000000000               0.000000000               0.000000000               0.000000000               0.000238210               0.002831783               0.000202990              -0.000264643               0.001032133               0.000767489               0.000000000               0.000000000               0.000000000               0.000000000               0.000208662               0.002884458               0.000164394              -0.000282309               0.001055579               0.000773271               0.000000000               0.000000000               0.000000000               0.000000000               0.000170139               0.002921077               0.000115615              -0.000301332               0.001074127               0.000772795               0.000000000               0.000000000               0.000000000               0.000000000               0.000121189               0.002947907               0.000058163              -0.000323042               0.001090307               0.000767265               0.000000000               0.000000000               0.000000000               0.000000000               0.000078051               0.002950482               0.000023356              -0.000339540               0.001096664               0.000757124               0.000000000               0.000000000               0.000000000               0.000000000               0.000417243               0.000338257               0.000381401               0.000114183               0.000074690               0.000188873               0.000000000               0.000000000               0.000000000               0.000000000               0.000592903               0.000655392               0.000542929               0.000140413               0.000171657               0.000312070               0.000000000               0.000000000               0.000000000               0.000000000               0.000641912               0.001080591               0.000659612               0.000105641               0.000324979               0.000430621               0.000000000               0.000000000               0.000000000               0.000000000               0.000626530               0.001421249               0.000639512               0.000057292               0.000454648               0.000511939               0.000000000               0.000000000               0.000000000               0.000000000               0.000593997               0.001691376               0.000579887               0.000011326               0.000560011               0.000571337               0.000000000               0.000000000               0.000000000               0.000000000               0.000552209               0.001915062               0.000516629              -0.000032305               0.000649116               0.000616811               0.000000000               0.000000000               0.000000000               0.000000000               0.000507810               0.002097833               0.000460668              -0.000071801               0.000723204               0.000651404               0.000000000               0.000000000               0.000000000               0.000000000               0.000460095               0.002237515               0.000414195              -0.000107154               0.000781549               0.000674395               0.000000000               0.000000000               0.000000000               0.000000000               0.000413829               0.002358372               0.000375737              -0.000139611               0.000832653               0.000693043               0.000000000               0.000000000               0.000000000               0.000000000               0.000376077               0.002472686               0.000335796              -0.000168057               0.000880239               0.000712183               0.000000000               0.000000000               0.000000000               0.000000000               0.000351366               0.002580728               0.000290203              -0.000190828               0.000923843               0.000733015               0.000000000               0.000000000               0.000000000               0.000000000               0.000334095               0.002678902               0.000243982              -0.000209577               0.000962817               0.000753241               0.000000000               0.000000000               0.000000000               0.000000000               0.000311790               0.002765008               0.000204610              -0.000228704               0.000997895               0.000769191               0.000000000               0.000000000               0.000000000               0.000000000               0.000281749               0.002836532               0.000168626              -0.000248910               0.001028471               0.000779561               0.000000000               0.000000000               0.000000000               0.000000000               0.000252483               0.002892186               0.000124208              -0.000266842               0.001053000               0.000786158               0.000000000               0.000000000               0.000000000               0.000000000               0.000223890               0.002936109               0.000066597              -0.000283054               0.001073045               0.000789990               0.000000000               0.000000000               0.000000000               0.000000000               0.000197936               0.002948717               0.000031860              -0.000294363               0.001081017               0.000786654               0.000000000               0.000000000               0.000000000               0.000000000               0.000244195               0.000175224               0.000227708               0.000069669               0.000035184               0.000104853               0.000000000               0.000000000               0.000000000               0.000000000               0.000541869               0.000441064               0.000365937               0.000148066               0.000097664               0.000245731               0.000000000               0.000000000               0.000000000               0.000000000               0.000698070               0.000809273               0.000475878               0.000160615               0.000216216               0.000376832               0.000000000               0.000000000               0.000000000               0.000000000               0.000724277               0.001147483               0.000478388               0.000128167               0.000339768               0.000467935               0.000000000               0.000000000               0.000000000               0.000000000               0.000705574               0.001434907               0.000443454               0.000085226               0.000449889               0.000535115               0.000000000               0.000000000               0.000000000               0.000000000               0.000669122               0.001681213               0.000401051               0.000040769               0.000546809               0.000587578               0.000000000               0.000000000               0.000000000               0.000000000               0.000620707               0.001887712               0.000361939              -0.000003199               0.000630297               0.000627098               0.000000000               0.000000000               0.000000000               0.000000000               0.000568258               0.002059426               0.000328633              -0.000044332               0.000701246               0.000656914               0.000000000               0.000000000               0.000000000               0.000000000               0.000514069               0.002212781               0.000299834              -0.000083822               0.000765527               0.000681705               0.000000000               0.000000000               0.000000000               0.000000000               0.000462467               0.002354239               0.000271365              -0.000120855               0.000825024               0.000704169               0.000000000               0.000000000               0.000000000               0.000000000               0.000424957               0.002482663               0.000240304              -0.000150974               0.000877871               0.000726897               0.000000000               0.000000000               0.000000000               0.000000000               0.000399900               0.002597617               0.000202424              -0.000174739               0.000924110               0.000749371               0.000000000               0.000000000               0.000000000               0.000000000               0.000376963               0.002702838               0.000165928              -0.000196493               0.000966435               0.000769942               0.000000000               0.000000000               0.000000000               0.000000000               0.000356898               0.002791654               0.000139764              -0.000215120               0.001002248               0.000787129               0.000000000               0.000000000               0.000000000               0.000000000               0.000344212               0.002860639               0.000111490              -0.000228500               0.001029703               0.000801204               0.000000000               0.000000000               0.000000000               0.000000000               0.000338742               0.002916972               0.000064609              -0.000237593               0.001051512               0.000813919               0.000000000               0.000000000               0.000000000               0.000000000               0.000333024               0.002939876               0.000034485              -0.000242600               0.001060815               0.000818216               0.000000000               0.000000000               0.000000000               0.000000000               0.000120154               0.000083285               0.000103419               0.000034646               0.000016213               0.000050859               0.000000000               0.000000000               0.000000000               0.000000000               0.000499086               0.000306366               0.000183427               0.000148860               0.000052501               0.000201361               0.000000000               0.000000000               0.000000000               0.000000000               0.000732732               0.000628798               0.000249304               0.000196173               0.000144206               0.000340379               0.000000000               0.000000000               0.000000000               0.000000000               0.000791831               0.000961568               0.000256340               0.000176739               0.000261607               0.000438345               0.000000000               0.000000000               0.000000000               0.000000000               0.000782579               0.001255403               0.000241410               0.000136540               0.000372950               0.000509491               0.000000000               0.000000000               0.000000000               0.000000000               0.000747773               0.001510522               0.000219599               0.000091599               0.000472969               0.000564568               0.000000000               0.000000000               0.000000000               0.000000000               0.000700139               0.001736372               0.000199435               0.000045505               0.000563617               0.000609122               0.000000000               0.000000000               0.000000000               0.000000000               0.000645567               0.001937253               0.000183607              -0.000000069               0.000645767               0.000645698               0.000000000               0.000000000               0.000000000               0.000000000               0.000587627               0.002112074               0.000168675              -0.000043649               0.000718567               0.000674918               0.000000000               0.000000000               0.000000000               0.000000000               0.000530686               0.002263648               0.000154596              -0.000083949               0.000782525               0.000698576               0.000000000               0.000000000               0.000000000               0.000000000               0.000481515               0.002402015               0.000139136              -0.000119683               0.000840558               0.000720875               0.000000000               0.000000000               0.000000000               0.000000000               0.000447008               0.002531682               0.000114003              -0.000148832               0.000893496               0.000744664               0.000000000               0.000000000               0.000000000               0.000000000               0.000430262               0.002651459               0.000090838              -0.000170084               0.000940505               0.000770422               0.000000000               0.000000000               0.000000000               0.000000000               0.000424587               0.002756382               0.000080444              -0.000185327               0.000980560               0.000795233               0.000000000               0.000000000               0.000000000               0.000000000               0.000423840               0.002843871               0.000068404              -0.000196543               0.001013462               0.000816919               0.000000000               0.000000000               0.000000000               0.000000000               0.000432859               0.002911377               0.000040294              -0.000201600               0.001037649               0.000836050               0.000000000               0.000000000               0.000000000               0.000000000               0.000445427               0.002940709               0.000021451              -0.000200553               0.001047078               0.000846524               0.000000000               0.000000000               0.000000000               0.000000000               0.000075237               0.000055821               0.000000000               0.000021236               0.000011528               0.000032764               0.000000000               0.000000000               0.000000000               0.000000000               0.000482272               0.000261773               0.000000000               0.000148129               0.000037880               0.000186009               0.000000000               0.000000000               0.000000000               0.000000000               0.000744309               0.000566002              -0.000000000               0.000208363               0.000119211               0.000327575               0.000000000               0.000000000               0.000000000               0.000000000               0.000814318               0.000896321               0.000000000               0.000193327               0.000234328               0.000427655               0.000000000               0.000000000               0.000000000               0.000000000               0.000807283               0.001190619               0.000000000               0.000153902               0.000345568               0.000499470               0.000000000               0.000000000               0.000000000               0.000000000               0.000772091               0.001445224              -0.000000000               0.000108880               0.000445443               0.000554323               0.000000000               0.000000000               0.000000000               0.000000000               0.000726817               0.001681014               0.000000000               0.000062429               0.000539523               0.000601952               0.000000000               0.000000000               0.000000000               0.000000000               0.000674192               0.001897114               0.000000000               0.000015683               0.000627138               0.000642820               0.000000000               0.000000000               0.000000000               0.000000000               0.000614742               0.002076152               0.000000000              -0.000028991               0.000701707               0.000672717               0.000000000               0.000000000               0.000000000               0.000000000               0.000556400               0.002226230               0.000000000              -0.000069629               0.000765279               0.000695650               0.000000000               0.000000000               0.000000000               0.000000000               0.000501824               0.002367714               0.000000000              -0.000107780               0.000825157               0.000717377               0.000000000               0.000000000               0.000000000               0.000000000               0.000464035               0.002502705              -0.000000000              -0.000138825               0.000880501               0.000741677               0.000000000               0.000000000               0.000000000               0.000000000               0.000454593               0.002629703              -0.000000000              -0.000158240               0.000929306               0.000771066               0.000000000               0.000000000               0.000000000               0.000000000               0.000454341               0.002743783               0.000000000              -0.000172595               0.000972117               0.000799522               0.000000000               0.000000000               0.000000000               0.000000000               0.000454492               0.002841963               0.000000000              -0.000184810               0.001008915               0.000824104               0.000000000               0.000000000               0.000000000               0.000000000               0.000468102               0.002916509              -0.000000000              -0.000189025               0.001035168               0.000846143               0.000000000               0.000000000               0.000000000               0.000000000               0.000490255               0.002949013              -0.000000000              -0.000184781               0.001044588               0.000859808               0.000000000               0.000000000               0.000000000               0.000000000               0.000486634               0.005797831               0.000000000              -0.000542240               0.002113337               0.001571098               0.000000000               0.000000000               0.000000000               0.000000000               0.000542297               0.004825369              -0.000000000              -0.000399809               0.001741710               0.001341901               0.000000000               0.000000000               0.000000000               0.000000000               0.000760725               0.004034068              -0.000000000              -0.000218986               0.001417671               0.001198685               0.000000000               0.000000000               0.000000000               0.000000000               0.000790201               0.003598484              -0.000000000              -0.000153485               0.001250644               0.001097160               0.000000000               0.000000000               0.000000000               0.000000000               0.000745140               0.003345246               0.000000000              -0.000138728               0.001161314               0.001022586               0.000000000               0.000000000               0.000000000               0.000000000               0.000679190               0.003191330              -0.000000000              -0.000144219               0.001111839               0.000967620               0.000000000               0.000000000               0.000000000               0.000000000               0.000606276               0.003093976              -0.000000000              -0.000159393               0.001084446               0.000925053               0.000000000               0.000000000               0.000000000               0.000000000               0.000534469               0.003032866              -0.000000000              -0.000178682               0.001070506               0.000891824               0.000000000               0.000000000               0.000000000               0.000000000               0.000470283               0.002996707               0.000000000              -0.000198232               0.001064970               0.000866738               0.000000000               0.000000000               0.000000000               0.000000000               0.000410302               0.002978299               0.000000000              -0.000218424               0.001065564               0.000847141               0.000000000               0.000000000               0.000000000               0.000000000               0.000352562               0.002971860              -0.000000000              -0.000239271               0.001070367               0.000831096               0.000000000               0.000000000               0.000000000               0.000000000               0.000297438               0.002972212              -0.000000000              -0.000259986               0.001077389               0.000817403               0.000000000               0.000000000               0.000000000               0.000000000               0.000242601               0.002976424              -0.000000000              -0.000281077               0.001085824               0.000804747               0.000000000               0.000000000               0.000000000               0.000000000               0.000185064               0.002984608              -0.000000000              -0.000303676               0.001096085               0.000792408               0.000000000               0.000000000               0.000000000               0.000000000               0.000124887               0.002992453              -0.000000000              -0.000327223               0.001106549               0.000779325               0.000000000               0.000000000               0.000000000               0.000000000               0.000062948               0.002998416               0.000000000              -0.000351196               0.001116527               0.000765332               0.000000000               0.000000000               0.000000000               0.000000000               0.000032755               0.003003346               0.000000000              -0.000363134               0.001122150               0.000759016               0.000000000               0.000000000               0.000000000               0.000000000               0.000522371               0.005705530              -0.000443161              -0.000517301               0.002074258               0.001556957               0.000000000               0.000000000               0.000000000               0.000000000               0.000556785               0.004755583              -0.000290758              -0.000385653               0.001713730               0.001328077               0.000000000               0.000000000               0.000000000               0.000000000               0.000751338               0.003995927              -0.000130059              -0.000217738               0.001404542               0.001186803               0.000000000               0.000000000               0.000000000               0.000000000               0.000769580               0.003577275              -0.000051995              -0.000158566               0.001245269               0.001086702               0.000000000               0.000000000               0.000000000               0.000000000               0.000720814               0.003330692              -0.000013620              -0.000146031               0.001158896               0.001012866               0.000000000               0.000000000               0.000000000               0.000000000               0.000651978               0.003180613               0.000004534              -0.000153084               0.001111222               0.000958137               0.000000000               0.000000000               0.000000000               0.000000000               0.000580088               0.003086721               0.000013179              -0.000168307               0.001084999               0.000916692               0.000000000               0.000000000               0.000000000               0.000000000               0.000510792               0.003027813               0.000017380              -0.000186929               0.001071571               0.000884642               0.000000000               0.000000000               0.000000000               0.000000000               0.000447286               0.002993286               0.000018650              -0.000206428               0.001066561               0.000860133               0.000000000               0.000000000               0.000000000               0.000000000               0.000387644               0.002975009               0.000019009              -0.000226509               0.001067163               0.000840654               0.000000000               0.000000000               0.000000000               0.000000000               0.000332818               0.002970315               0.000017124              -0.000246482               0.001072256               0.000825774               0.000000000               0.000000000               0.000000000               0.000000000               0.000281403               0.002970657               0.000014044              -0.000265806               0.001078811               0.000813005               0.000000000               0.000000000               0.000000000               0.000000000               0.000230900               0.002975409               0.000013841              -0.000285338               0.001086906               0.000801568               0.000000000               0.000000000               0.000000000               0.000000000               0.000177567               0.002985091               0.000014036              -0.000306548               0.001097203               0.000790655               0.000000000               0.000000000               0.000000000               0.000000000               0.000119589               0.002997307               0.000012079              -0.000329817               0.001109031               0.000779215               0.000000000               0.000000000               0.000000000               0.000000000               0.000059767               0.003009292               0.000007272              -0.000353748               0.001121003               0.000767255               0.000000000               0.000000000               0.000000000               0.000000000               0.000032496               0.003020748               0.000002932              -0.000365407               0.001128708               0.000763302               0.000000000               0.000000000               0.000000000               0.000000000               0.000612534               0.005433511              -0.000840473              -0.000449488               0.001960982               0.001511494               0.000000000               0.000000000               0.000000000               0.000000000               0.000588353               0.004557521              -0.000550686              -0.000349057               0.001635511               0.001286454               0.000000000               0.000000000               0.000000000               0.000000000               0.000721610               0.003886567              -0.000249645              -0.000215217               0.001367248               0.001152032               0.000000000               0.000000000               0.000000000               0.000000000               0.000711537               0.003514869              -0.000107400              -0.000172532               0.001229122               0.001056590               0.000000000               0.000000000               0.000000000               0.000000000               0.000652045               0.003291959              -0.000037004              -0.000166978               0.001152968               0.000985990               0.000000000               0.000000000               0.000000000               0.000000000               0.000583374               0.003155489              -0.000001999              -0.000175670               0.001110376               0.000934706               0.000000000               0.000000000               0.000000000               0.000000000               0.000516158               0.003072331               0.000014264              -0.000190482               0.001087594               0.000897112               0.000000000               0.000000000               0.000000000               0.000000000               0.000450105               0.003021298               0.000021029              -0.000208872               0.001076713               0.000867841               0.000000000               0.000000000               0.000000000               0.000000000               0.000389495               0.002991737               0.000022332              -0.000227906               0.001073204               0.000845298               0.000000000               0.000000000               0.000000000               0.000000000               0.000334118               0.002976168               0.000023683              -0.000246726               0.001074288               0.000827562               0.000000000               0.000000000               0.000000000               0.000000000               0.000284814               0.002970885               0.000021755              -0.000264555               0.001078470               0.000813915               0.000000000               0.000000000               0.000000000               0.000000000               0.000241547               0.002972335               0.000015979              -0.000280961               0.001084422               0.000803461               0.000000000               0.000000000               0.000000000               0.000000000               0.000198356               0.002977892               0.000015397              -0.000297852               0.001091905               0.000794053               0.000000000               0.000000000               0.000000000               0.000000000               0.000152285               0.002989031               0.000017470              -0.000316521               0.001101841               0.000785320               0.000000000               0.000000000               0.000000000               0.000000000               0.000101885               0.003006404               0.000016148              -0.000337593               0.001114656               0.000777063               0.000000000               0.000000000               0.000000000               0.000000000               0.000049605               0.003028267               0.000010452              -0.000359931               0.001129389               0.000769458               0.000000000               0.000000000               0.000000000               0.000000000               0.000027708               0.003048377               0.000005129              -0.000370656               0.001139667               0.000769012               0.000000000               0.000000000               0.000000000               0.000000000               0.000740853               0.005010375              -0.001158628              -0.000348477               0.001786267               0.001437790               0.000000000               0.000000000               0.000000000               0.000000000               0.000628074               0.004260259              -0.000760246              -0.000297004               0.001519074               0.001222069               0.000000000               0.000000000               0.000000000               0.000000000               0.000669233               0.003725048              -0.000352122              -0.000214668               0.001313227               0.001098558               0.000000000               0.000000000               0.000000000               0.000000000               0.000627984               0.003425041              -0.000165878              -0.000192636               0.001205881               0.001013245               0.000000000               0.000000000               0.000000000               0.000000000               0.000561851               0.003242235              -0.000074554              -0.000194585               0.001145596               0.000951011               0.000000000               0.000000000               0.000000000               0.000000000               0.000492515               0.003127101              -0.000028567              -0.000206194               0.001111088               0.000904894               0.000000000               0.000000000               0.000000000               0.000000000               0.000428346               0.003055615              -0.000006893              -0.000221322               0.001092302               0.000870980               0.000000000               0.000000000               0.000000000               0.000000000               0.000369505               0.003012918               0.000001624              -0.000238050               0.001083646               0.000845596               0.000000000               0.000000000               0.000000000               0.000000000               0.000317864               0.002987000               0.000004404              -0.000254175               0.001080382               0.000826206               0.000000000               0.000000000               0.000000000               0.000000000               0.000273281               0.002973451               0.000005988              -0.000269200               0.001080874               0.000811674               0.000000000               0.000000000               0.000000000               0.000000000               0.000230746               0.002966327               0.000005009              -0.000284260               0.001083519               0.000799259               0.000000000               0.000000000               0.000000000               0.000000000               0.000190768               0.002967292              -0.000000701              -0.000299373               0.001088878               0.000789506               0.000000000               0.000000000               0.000000000               0.000000000               0.000152455               0.002972125              -0.000001317              -0.000314344               0.001095480               0.000781136               0.000000000               0.000000000               0.000000000               0.000000000               0.000114356               0.002982633               0.000004596              -0.000329945               0.001104183               0.000774238               0.000000000               0.000000000               0.000000000               0.000000000               0.000075069               0.003000457               0.000008694              -0.000346905               0.001115777               0.000768872               0.000000000               0.000000000               0.000000000               0.000000000               0.000035934               0.003023724               0.000007178              -0.000364489               0.001129394               0.000764905               0.000000000               0.000000000               0.000000000               0.000000000               0.000020855               0.003044452               0.000002835              -0.000372735               0.001139052               0.000766317               0.000000000               0.000000000               0.000000000               0.000000000               0.000881462               0.004490499              -0.001374436              -0.000230765               0.001573739               0.001342974               0.000000000               0.000000000               0.000000000               0.000000000               0.000668749               0.003903736              -0.000910139              -0.000237186               0.001380294               0.001143108               0.000000000               0.000000000               0.000000000               0.000000000               0.000605148               0.003536177              -0.000438624              -0.000215091               0.001250411               0.001035320               0.000000000               0.000000000               0.000000000               0.000000000               0.000531205               0.003315523              -0.000229232              -0.000215238               0.001176909               0.000961671               0.000000000               0.000000000               0.000000000               0.000000000               0.000461802               0.003174395              -0.000127442              -0.000223623               0.001132662               0.000909039               0.000000000               0.000000000               0.000000000               0.000000000               0.000396158               0.003082699              -0.000075712              -0.000236777               0.001106482               0.000869704               0.000000000               0.000000000               0.000000000               0.000000000               0.000337642               0.003024817              -0.000049216              -0.000251486               0.001092091               0.000840605               0.000000000               0.000000000               0.000000000               0.000000000               0.000288474               0.002987769              -0.000036278              -0.000265293               0.001084344               0.000819051               0.000000000               0.000000000               0.000000000               0.000000000               0.000246507               0.002964643              -0.000030977              -0.000278140               0.001080918               0.000802778               0.000000000               0.000000000               0.000000000               0.000000000               0.000209375               0.002950777              -0.000028052              -0.000290331               0.001080360               0.000790029               0.000000000               0.000000000               0.000000000               0.000000000               0.000174466               0.002942706              -0.000026427              -0.000302413               0.001081696               0.000779284               0.000000000               0.000000000               0.000000000               0.000000000               0.000140615               0.002942582              -0.000029186              -0.000315091               0.001085881               0.000770790               0.000000000               0.000000000               0.000000000               0.000000000               0.000107815               0.002948459              -0.000027874              -0.000328126               0.001092185               0.000764059               0.000000000               0.000000000               0.000000000               0.000000000               0.000076746               0.002958110              -0.000015817              -0.000340983               0.001099688               0.000758705               0.000000000               0.000000000               0.000000000               0.000000000               0.000047610               0.002973151              -0.000004436              -0.000353789               0.001108970               0.000755181               0.000000000               0.000000000               0.000000000               0.000000000               0.000021157               0.002991414               0.000000269              -0.000365992               0.001119125               0.000753133               0.000000000               0.000000000               0.000000000               0.000000000               0.000012387               0.003006842              -0.000000411              -0.000371209               0.001126007               0.000754798               0.000000000               0.000000000               0.000000000               0.000000000               0.000997876               0.003920787              -0.001483546              -0.000115896               0.001345548               0.001229651               0.000000000               0.000000000               0.000000000               0.000000000               0.000694753               0.003520420              -0.001001264              -0.000179521               0.001233302               0.001053781               0.000000000               0.000000000               0.000000000               0.000000000               0.000534044               0.003329966              -0.000512610              -0.000215979               0.001181971               0.000965992               0.000000000               0.000000000               0.000000000               0.000000000               0.000435950               0.003184487              -0.000298027              -0.000234579               0.001139678               0.000905099               0.000000000               0.000000000               0.000000000               0.000000000               0.000366229               0.003084378              -0.000191291              -0.000248211               0.001110853               0.000862642               0.000000000               0.000000000               0.000000000               0.000000000               0.000309710               0.003017846              -0.000133436              -0.000261089               0.001092968               0.000831879               0.000000000               0.000000000               0.000000000               0.000000000               0.000262293               0.002974282              -0.000101317              -0.000273425               0.001082559               0.000809134               0.000000000               0.000000000               0.000000000               0.000000000               0.000222206               0.002943426              -0.000084019              -0.000284600               0.001075999               0.000791399               0.000000000               0.000000000               0.000000000               0.000000000               0.000188052               0.002924227              -0.000074674              -0.000295008               0.001073069               0.000778060               0.000000000               0.000000000               0.000000000               0.000000000               0.000158636               0.002913336              -0.000069177              -0.000304678               0.001072662               0.000767984               0.000000000               0.000000000               0.000000000               0.000000000               0.000129866               0.002907367              -0.000061831              -0.000314720               0.001074019               0.000759299               0.000000000               0.000000000               0.000000000               0.000000000               0.000101280               0.002910566              -0.000055173              -0.000325840               0.001078792               0.000752952               0.000000000               0.000000000               0.000000000               0.000000000               0.000073542               0.002921592              -0.000048257              -0.000337620               0.001086394               0.000748774               0.000000000               0.000000000               0.000000000               0.000000000               0.000047608               0.002934133              -0.000031921              -0.000348913               0.001094339               0.000745426               0.000000000               0.000000000               0.000000000               0.000000000               0.000027376               0.002947553              -0.000013917              -0.000358177               0.001101900               0.000743723               0.000000000               0.000000000               0.000000000               0.000000000               0.000012086               0.002961489              -0.000004476              -0.000365653               0.001109037               0.000743384               0.000000000               0.000000000               0.000000000               0.000000000               0.000007542               0.002970725              -0.000003288              -0.000368511               0.001113069               0.000744558               0.000000000               0.000000000               0.000000000               0.000000000               0.001071649               0.003334374              -0.001496347              -0.000014930               0.001116423               0.001101493               0.000000000               0.000000000               0.000000000               0.000000000               0.000702182               0.003131430              -0.001041920              -0.000128111               0.001086503               0.000958392               0.000000000               0.000000000               0.000000000               0.000000000               0.000462349               0.003114544              -0.000576911              -0.000215937               0.001110150               0.000894213               0.000000000               0.000000000               0.000000000               0.000000000               0.000355723               0.003044372              -0.000368798              -0.000247150               0.001097164               0.000850014               0.000000000               0.000000000               0.000000000               0.000000000               0.000293987               0.002986447              -0.000258045              -0.000263060               0.001083159               0.000820099               0.000000000               0.000000000               0.000000000               0.000000000               0.000247796               0.002944428              -0.000194436              -0.000275129               0.001073176               0.000798047               0.000000000               0.000000000               0.000000000               0.000000000               0.000208746               0.002912014              -0.000157121              -0.000285721               0.001065902               0.000780181               0.000000000               0.000000000               0.000000000               0.000000000               0.000176428               0.002887157              -0.000133934              -0.000294733               0.001060621               0.000765887               0.000000000               0.000000000               0.000000000               0.000000000               0.000149881               0.002874685              -0.000116598              -0.000303130               0.001059262               0.000756132               0.000000000               0.000000000               0.000000000               0.000000000               0.000128193               0.002872386              -0.000103341              -0.000310975               0.001061111               0.000750136               0.000000000               0.000000000               0.000000000               0.000000000               0.000108780               0.002879823              -0.000088135              -0.000319185               0.001066326               0.000747142               0.000000000               0.000000000               0.000000000               0.000000000               0.000086930               0.002892686              -0.000072206              -0.000328986               0.001073881               0.000744895               0.000000000               0.000000000               0.000000000               0.000000000               0.000062002               0.002909601              -0.000059115              -0.000340448               0.001083340               0.000742892               0.000000000               0.000000000               0.000000000               0.000000000               0.000039110               0.002927064              -0.000041301              -0.000351216               0.001092750               0.000741534               0.000000000               0.000000000               0.000000000               0.000000000               0.000022808               0.002940334              -0.000021771              -0.000358988               0.001099764               0.000740776               0.000000000               0.000000000               0.000000000               0.000000000               0.000011333               0.002947010              -0.000009791              -0.000364125               0.001103702               0.000739577               0.000000000               0.000000000               0.000000000               0.000000000               0.000006905               0.002949816              -0.000006754              -0.000366137               0.001105308               0.000739171               0.000000000               0.000000000               0.000000000               0.000000000               0.001096519               0.002767316              -0.001425407               0.000065278               0.000900670               0.000965947               0.000000000               0.000000000               0.000000000               0.000000000               0.000690756               0.002761181              -0.001041144              -0.000086115               0.000949089               0.000862974               0.000000000               0.000000000               0.000000000               0.000000000               0.000403541               0.002903179              -0.000633410              -0.000211570               0.001038240               0.000826670               0.000000000               0.000000000               0.000000000               0.000000000               0.000300375               0.002904389              -0.000435578              -0.000250408               0.001051589               0.000801181               0.000000000               0.000000000               0.000000000               0.000000000               0.000246281               0.002885637              -0.000320662              -0.000268349               0.001051319               0.000782970               0.000000000               0.000000000               0.000000000               0.000000000               0.000209636               0.002865730              -0.000251027              -0.000279602               0.001048434               0.000768832               0.000000000               0.000000000               0.000000000               0.000000000               0.000177483               0.002846831              -0.000207725              -0.000289297               0.001045367               0.000756069               0.000000000               0.000000000               0.000000000               0.000000000               0.000153050               0.002835623              -0.000175423              -0.000297058               0.001044218               0.000747159               0.000000000               0.000000000               0.000000000               0.000000000               0.000135620               0.002837592              -0.000146832              -0.000303841               0.001047135               0.000743294               0.000000000               0.000000000               0.000000000               0.000000000               0.000120133               0.002849499              -0.000123092              -0.000311137               0.001053536               0.000742399               0.000000000               0.000000000               0.000000000               0.000000000               0.000104380               0.002871105              -0.000101570              -0.000319745               0.001063607               0.000743862               0.000000000               0.000000000               0.000000000               0.000000000               0.000085037               0.002895370              -0.000081120              -0.000330032               0.001075124               0.000745093               0.000000000               0.000000000               0.000000000               0.000000000               0.000062651               0.002918996              -0.000062928              -0.000341380               0.001086782               0.000745403               0.000000000               0.000000000               0.000000000               0.000000000               0.000041429               0.002938011              -0.000043884              -0.000351715               0.001096565               0.000744851               0.000000000               0.000000000               0.000000000               0.000000000               0.000026827               0.002947202              -0.000025458              -0.000358339               0.001101837               0.000743498               0.000000000               0.000000000               0.000000000               0.000000000               0.000014105               0.002946469              -0.000011859              -0.000363018               0.001103153               0.000740134               0.000000000               0.000000000               0.000000000               0.000000000               0.000006133               0.002943242              -0.000005585              -0.000365604               0.001102939               0.000737335               0.000000000               0.000000000               0.000000000               0.000000000               0.001090424               0.002266437              -0.001299062               0.000125602               0.000713603               0.000839205               0.000000000               0.000000000               0.000000000               0.000000000               0.000683996               0.002428094              -0.001021043              -0.000047015               0.000825028               0.000778013               0.000000000               0.000000000               0.000000000               0.000000000               0.000376692               0.002711384              -0.000697554              -0.000197664               0.000969673               0.000772010               0.000000000               0.000000000               0.000000000               0.000000000               0.000280708               0.002783929              -0.000507235              -0.000242725               0.001008875               0.000766150               0.000000000               0.000000000               0.000000000               0.000000000               0.000230300               0.002803884              -0.000387924              -0.000264122               0.001022660               0.000758537               0.000000000               0.000000000               0.000000000               0.000000000               0.000197525               0.002808705              -0.000311529              -0.000277016               0.001028564               0.000751549               0.000000000               0.000000000               0.000000000               0.000000000               0.000172040               0.002807534              -0.000257995              -0.000286426               0.001031311               0.000744884               0.000000000               0.000000000               0.000000000               0.000000000               0.000153619               0.002812726              -0.000215520              -0.000293983               0.001035560               0.000741577               0.000000000               0.000000000               0.000000000               0.000000000               0.000142381               0.002826288              -0.000176958              -0.000299892               0.001042051               0.000742158               0.000000000               0.000000000               0.000000000               0.000000000               0.000130544               0.002847527              -0.000144629              -0.000306986               0.001051495               0.000744509               0.000000000               0.000000000               0.000000000               0.000000000               0.000117985               0.002879232              -0.000116021              -0.000315659               0.001064954               0.000749295               0.000000000               0.000000000               0.000000000               0.000000000               0.000102378               0.002914312              -0.000089630              -0.000325896               0.001080060               0.000754163               0.000000000               0.000000000               0.000000000               0.000000000               0.000081514               0.002942806              -0.000067051              -0.000337282               0.001093353               0.000756071               0.000000000               0.000000000               0.000000000               0.000000000               0.000058711               0.002960139              -0.000046969              -0.000348000               0.001102703               0.000754703               0.000000000               0.000000000               0.000000000               0.000000000               0.000040224               0.002965102              -0.000027789              -0.000355553               0.001106875               0.000751322               0.000000000               0.000000000               0.000000000               0.000000000               0.000021728               0.002960826              -0.000011156              -0.000361954               0.001107584               0.000745629               0.000000000               0.000000000               0.000000000               0.000000000               0.000008245               0.002955097              -0.000002793              -0.000366294               0.001107121               0.000740826               0.000000000               0.000000000               0.000000000               0.000000000               0.001046271               0.001777954              -0.001147981               0.000170105               0.000535943               0.000706048               0.000000000               0.000000000               0.000000000               0.000000000               0.000692063               0.002041727              -0.000993206               0.000004306               0.000679133               0.000683439               0.000000000               0.000000000               0.000000000               0.000000000               0.000392086               0.002432454              -0.000775057              -0.000157025               0.000863151               0.000706127               0.000000000               0.000000000               0.000000000               0.000000000               0.000296677               0.002585974              -0.000599702              -0.000211993               0.000932647               0.000720654               0.000000000               0.000000000               0.000000000               0.000000000               0.000250421               0.002659998              -0.000476633              -0.000238592               0.000966188               0.000727596               0.000000000               0.000000000               0.000000000               0.000000000               0.000217179               0.002705306              -0.000389128              -0.000256721               0.000987333               0.000730613               0.000000000               0.000000000               0.000000000               0.000000000               0.000190821               0.002732348              -0.000324057              -0.000269985               0.001000769               0.000730784               0.000000000               0.000000000               0.000000000               0.000000000               0.000169994               0.002752958              -0.000273558              -0.000280371               0.001011101               0.000730729               0.000000000               0.000000000               0.000000000               0.000000000               0.000158852               0.002776238              -0.000230756              -0.000287460               0.001021223               0.000733764               0.000000000               0.000000000               0.000000000               0.000000000               0.000152922               0.002807620              -0.000191631              -0.000293606               0.001033733               0.000740127               0.000000000               0.000000000               0.000000000               0.000000000               0.000142722               0.002849807              -0.000153481              -0.000302704               0.001050828               0.000748123               0.000000000               0.000000000               0.000000000               0.000000000               0.000127340               0.002895219              -0.000118382              -0.000314149               0.001069780               0.000755631               0.000000000               0.000000000               0.000000000               0.000000000               0.000105669               0.002931503              -0.000088273              -0.000326811               0.001086095               0.000759284               0.000000000               0.000000000               0.000000000               0.000000000               0.000079698               0.002954546              -0.000062430              -0.000339431               0.001097982               0.000758552               0.000000000               0.000000000               0.000000000               0.000000000               0.000051325               0.002962589              -0.000036894              -0.000351076               0.001104545               0.000753469               0.000000000               0.000000000               0.000000000               0.000000000               0.000024126               0.002964558              -0.000013590              -0.000361522               0.001108683               0.000747162               0.000000000               0.000000000               0.000000000               0.000000000               0.000006403               0.002962728              -0.000001286              -0.000367939               0.001110213               0.000742274               0.000000000               0.000000000               0.000000000               0.000000000               0.000946701               0.001317570              -0.000971678               0.000190314               0.000375747               0.000566061               0.000000000               0.000000000               0.000000000               0.000000000               0.000697594               0.001655477              -0.000938583               0.000054661               0.000533599               0.000588261               0.000000000               0.000000000               0.000000000               0.000000000               0.000440929               0.002119586              -0.000834304              -0.000099601               0.000739722               0.000640121               0.000000000               0.000000000               0.000000000               0.000000000               0.000347622               0.002349420              -0.000690335              -0.000163320               0.000837572               0.000674252               0.000000000               0.000000000               0.000000000               0.000000000               0.000297117               0.002483846              -0.000569087              -0.000199062               0.000894294               0.000695232               0.000000000               0.000000000               0.000000000               0.000000000               0.000260992               0.002576123              -0.000474576              -0.000224143               0.000933414               0.000709270               0.000000000               0.000000000               0.000000000               0.000000000               0.000230076               0.002638694              -0.000401250              -0.000243558               0.000960742               0.000717184               0.000000000               0.000000000               0.000000000               0.000000000               0.000205651               0.002683111              -0.000345791              -0.000258269               0.000980451               0.000722182               0.000000000               0.000000000               0.000000000               0.000000000               0.000190453               0.002721046              -0.000301318              -0.000268710               0.000996576               0.000727866               0.000000000               0.000000000               0.000000000               0.000000000               0.000182691               0.002764006              -0.000256613              -0.000276991               0.001013657               0.000736665               0.000000000               0.000000000               0.000000000               0.000000000               0.000173819               0.002816989              -0.000208882              -0.000286941               0.001034634               0.000747693               0.000000000               0.000000000               0.000000000               0.000000000               0.000157772               0.002871610              -0.000164751              -0.000299786               0.001057122               0.000757336               0.000000000               0.000000000               0.000000000               0.000000000               0.000134877               0.002914584              -0.000126831              -0.000313744               0.001076100               0.000762356               0.000000000               0.000000000               0.000000000               0.000000000               0.000104467               0.002940989              -0.000093154              -0.000328448               0.001089803               0.000761355               0.000000000               0.000000000               0.000000000               0.000000000               0.000069318               0.002954536              -0.000058608              -0.000343322               0.001099276               0.000755954               0.000000000               0.000000000               0.000000000               0.000000000               0.000031135               0.002962807              -0.000025214              -0.000358674               0.001107151               0.000748476               0.000000000               0.000000000               0.000000000               0.000000000               0.000002263               0.002959199              -0.000005980              -0.000369050               0.001109406               0.000740356               0.000000000               0.000000000               0.000000000               0.000000000               0.000796176               0.000909305              -0.000771654               0.000184901               0.000241465               0.000426365               0.000000000               0.000000000               0.000000000               0.000000000               0.000680687               0.001281695              -0.000840667               0.000095044               0.000395546               0.000490590               0.000000000               0.000000000               0.000000000               0.000000000               0.000504251               0.001771230              -0.000839998              -0.000032311               0.000601174               0.000568863               0.000000000               0.000000000               0.000000000               0.000000000               0.000424800               0.002061687              -0.000738696              -0.000098411               0.000720026               0.000621614               0.000000000               0.000000000               0.000000000               0.000000000               0.000373577               0.002253275              -0.000631184              -0.000141568               0.000798274               0.000656705               0.000000000               0.000000000               0.000000000               0.000000000               0.000332920               0.002395678              -0.000538975              -0.000174615               0.000856756               0.000682141               0.000000000               0.000000000               0.000000000               0.000000000               0.000297109               0.002499222              -0.000464087              -0.000200987               0.000900061               0.000699074               0.000000000               0.000000000               0.000000000               0.000000000               0.000265215               0.002573810              -0.000407934              -0.000222270               0.000932018               0.000709748               0.000000000               0.000000000               0.000000000               0.000000000               0.000242029               0.002637689              -0.000361799              -0.000238950               0.000958871               0.000719921               0.000000000               0.000000000               0.000000000               0.000000000               0.000226661               0.002698777              -0.000314363              -0.000252349               0.000983700               0.000731351               0.000000000               0.000000000               0.000000000               0.000000000               0.000215148               0.002762889              -0.000261750              -0.000264680               0.001009180               0.000744500               0.000000000               0.000000000               0.000000000               0.000000000               0.000198671               0.002828935              -0.000212839              -0.000279115               0.001036007               0.000756892               0.000000000               0.000000000               0.000000000               0.000000000               0.000174616               0.002883433              -0.000170962              -0.000294947               0.001059451               0.000764503               0.000000000               0.000000000               0.000000000               0.000000000               0.000144566               0.002921062              -0.000132694              -0.000310920               0.001077318               0.000766398               0.000000000               0.000000000               0.000000000               0.000000000               0.000104725               0.002941524              -0.000090323              -0.000328418               0.001089971               0.000761553               0.000000000               0.000000000               0.000000000               0.000000000               0.000054042               0.002955126              -0.000043208              -0.000349124               0.001101407               0.000752283               0.000000000               0.000000000               0.000000000               0.000000000               0.000011315               0.002952521              -0.000014499              -0.000364821               0.001105771               0.000740950               0.000000000               0.000000000               0.000000000               0.000000000               0.000610064               0.000579485              -0.000567718               0.000156336               0.000141047               0.000297384               0.000000000               0.000000000               0.000000000               0.000000000               0.000642697               0.000940792              -0.000705624               0.000123410               0.000272457               0.000395867               0.000000000               0.000000000               0.000000000               0.000000000               0.000574539               0.001414514              -0.000782592               0.000038637               0.000458621               0.000497257               0.000000000               0.000000000               0.000000000               0.000000000               0.000521639               0.001740763              -0.000725551              -0.000021982               0.000587576               0.000565594               0.000000000               0.000000000               0.000000000               0.000000000               0.000477649               0.001978908              -0.000640539              -0.000068246               0.000682378               0.000614132               0.000000000               0.000000000               0.000000000               0.000000000               0.000431987               0.002165590              -0.000558900              -0.000108704               0.000758090               0.000649387               0.000000000               0.000000000               0.000000000               0.000000000               0.000391850               0.002311517              -0.000490629              -0.000141996               0.000817830               0.000675834               0.000000000               0.000000000               0.000000000               0.000000000               0.000351111               0.002421853              -0.000437074              -0.000171065               0.000864298               0.000693233               0.000000000               0.000000000               0.000000000               0.000000000               0.000316913               0.002514095              -0.000392569              -0.000195419               0.000903163               0.000707744               0.000000000               0.000000000               0.000000000               0.000000000               0.000293015               0.002597710              -0.000346336              -0.000214833               0.000937506               0.000722673               0.000000000               0.000000000               0.000000000               0.000000000               0.000277598               0.002681286              -0.000294158              -0.000231061               0.000970773               0.000739712               0.000000000               0.000000000               0.000000000               0.000000000               0.000262032               0.002763591              -0.000243922              -0.000247186               0.001003583               0.000756397               0.000000000               0.000000000               0.000000000               0.000000000               0.000238210               0.002831783              -0.000202990              -0.000264643               0.001032133               0.000767489               0.000000000               0.000000000               0.000000000               0.000000000               0.000208662               0.002884458              -0.000164394              -0.000282309               0.001055579               0.000773271               0.000000000               0.000000000               0.000000000               0.000000000               0.000170139               0.002921077              -0.000115615              -0.000301332               0.001074127               0.000772795               0.000000000               0.000000000               0.000000000               0.000000000               0.000121189               0.002947907              -0.000058163              -0.000323042               0.001090307               0.000767265               0.000000000               0.000000000               0.000000000               0.000000000               0.000078051               0.002950482              -0.000023356              -0.000339540               0.001096664               0.000757124               0.000000000               0.000000000               0.000000000               0.000000000               0.000417243               0.000338257              -0.000381401               0.000114183               0.000074690               0.000188873               0.000000000               0.000000000               0.000000000               0.000000000               0.000592903               0.000655392              -0.000542929               0.000140413               0.000171657               0.000312070               0.000000000               0.000000000               0.000000000               0.000000000               0.000641912               0.001080591              -0.000659612               0.000105641               0.000324979               0.000430621               0.000000000               0.000000000               0.000000000               0.000000000               0.000626530               0.001421249              -0.000639512               0.000057292               0.000454648               0.000511939               0.000000000               0.000000000               0.000000000               0.000000000               0.000593997               0.001691376              -0.000579887               0.000011326               0.000560011               0.000571337               0.000000000               0.000000000               0.000000000               0.000000000               0.000552209               0.001915062              -0.000516629              -0.000032305               0.000649116               0.000616811               0.000000000               0.000000000               0.000000000               0.000000000               0.000507810               0.002097833              -0.000460668              -0.000071801               0.000723204               0.000651404               0.000000000               0.000000000               0.000000000               0.000000000               0.000460095               0.002237515              -0.000414195              -0.000107154               0.000781549               0.000674395               0.000000000               0.000000000               0.000000000               0.000000000               0.000413829               0.002358372              -0.000375737              -0.000139611               0.000832653               0.000693043               0.000000000               0.000000000               0.000000000               0.000000000               0.000376077               0.002472686              -0.000335796              -0.000168057               0.000880239               0.000712183               0.000000000               0.000000000               0.000000000               0.000000000               0.000351366               0.002580728              -0.000290203              -0.000190828               0.000923843               0.000733015               0.000000000               0.000000000               0.000000000               0.000000000               0.000334095               0.002678902              -0.000243982              -0.000209577               0.000962817               0.000753241               0.000000000               0.000000000               0.000000000               0.000000000               0.000311790               0.002765008              -0.000204610              -0.000228704               0.000997895               0.000769191               0.000000000               0.000000000               0.000000000               0.000000000               0.000281749               0.002836532              -0.000168626              -0.000248910               0.001028471               0.000779561               0.000000000               0.000000000               0.000000000               0.000000000               0.000252483               0.002892186              -0.000124208              -0.000266842               0.001053000               0.000786158               0.000000000               0.000000000               0.000000000               0.000000000               0.000223890               0.002936109              -0.000066597              -0.000283054               0.001073045               0.000789990               0.000000000               0.000000000               0.000000000               0.000000000               0.000197936               0.002948717              -0.000031860              -0.000294363               0.001081017               0.000786654               0.000000000               0.000000000               0.000000000               0.000000000               0.000244195               0.000175224              -0.000227708               0.000069669               0.000035184               0.000104853               0.000000000               0.000000000               0.000000000               0.000000000               0.000541869               0.000441064              -0.000365937               0.000148066               0.000097664               0.000245731               0.000000000               0.000000000               0.000000000               0.000000000               0.000698070               0.000809273              -0.000475878               0.000160615               0.000216216               0.000376832               0.000000000               0.000000000               0.000000000               0.000000000               0.000724277               0.001147483              -0.000478388               0.000128167               0.000339768               0.000467935               0.000000000               0.000000000               0.000000000               0.000000000               0.000705574               0.001434907              -0.000443454               0.000085226               0.000449889               0.000535115               0.000000000               0.000000000               0.000000000               0.000000000               0.000669122               0.001681213              -0.000401051               0.000040769               0.000546809               0.000587578               0.000000000               0.000000000               0.000000000               0.000000000               0.000620707               0.001887712              -0.000361939              -0.000003199               0.000630297               0.000627098               0.000000000               0.000000000               0.000000000               0.000000000               0.000568258               0.002059426              -0.000328633              -0.000044332               0.000701246               0.000656914               0.000000000               0.000000000               0.000000000               0.000000000               0.000514069               0.002212781              -0.000299834              -0.000083822               0.000765527               0.000681705               0.000000000               0.000000000               0.000000000               0.000000000               0.000462467               0.002354239              -0.000271365              -0.000120855               0.000825024               0.000704169               0.000000000               0.000000000               0.000000000               0.000000000               0.000424957               0.002482663              -0.000240304              -0.000150974               0.000877871               0.000726897               0.000000000               0.000000000               0.000000000               0.000000000               0.000399900               0.002597617              -0.000202424              -0.000174739               0.000924110               0.000749371               0.000000000               0.000000000               0.000000000               0.000000000               0.000376963               0.002702838              -0.000165928              -0.000196493               0.000966435               0.000769942               0.000000000               0.000000000               0.000000000               0.000000000               0.000356898               0.002791654              -0.000139764              -0.000215120               0.001002248               0.000787129               0.000000000               0.000000000               0.000000000               0.000000000               0.000344212               0.002860639              -0.000111490              -0.000228500               0.001029703               0.000801204               0.000000000               0.000000000               0.000000000               0.000000000               0.000338742               0.002916972              -0.000064609              -0.000237593               0.001051512               0.000813919               0.000000000               0.000000000               0.000000000               0.000000000               0.000333024               0.002939876              -0.000034485              -0.000242600               0.001060815               0.000818216               0.000000000               0.000000000               0.000000000               0.000000000               0.000120154               0.000083285              -0.000103419               0.000034646               0.000016213               0.000050859               0.000000000               0.000000000               0.000000000               0.000000000               0.000499086               0.000306366              -0.000183427               0.000148860               0.000052501               0.000201361               0.000000000               0.000000000               0.000000000               0.000000000               0.000732732               0.000628798              -0.000249304               0.000196173               0.000144206               0.000340379               0.000000000               0.000000000               0.000000000               0.000000000               0.000791831               0.000961568              -0.000256340               0.000176739               0.000261607               0.000438345               0.000000000               0.000000000               0.000000000               0.000000000               0.000782579               0.001255403              -0.000241410               0.000136540               0.000372950               0.000509491               0.000000000               0.000000000               0.000000000               0.000000000               0.000747773               0.001510522              -0.000219599               0.000091599               0.000472969               0.000564568               0.000000000               0.000000000               0.000000000               0.000000000               0.000700139               0.001736372              -0.000199435               0.000045505               0.000563617               0.000609122               0.000000000               0.000000000               0.000000000               0.000000000               0.000645567               0.001937253              -0.000183607              -0.000000069               0.000645767               0.000645698               0.000000000               0.000000000               0.000000000               0.000000000               0.000587627               0.002112074              -0.000168675              -0.000043649               0.000718567               0.000674918               0.000000000               0.000000000               0.000000000               0.000000000               0.000530686               0.002263648              -0.000154596              -0.000083949               0.000782525               0.000698576               0.000000000               0.000000000               0.000000000               0.000000000               0.000481515               0.002402015              -0.000139136              -0.000119683               0.000840558               0.000720875               0.000000000               0.000000000               0.000000000               0.000000000               0.000447008               0.002531682              -0.000114003              -0.000148832               0.000893496               0.000744664               0.000000000               0.000000000               0.000000000               0.000000000               0.000430262               0.002651459              -0.000090838              -0.000170084               0.000940505               0.000770422               0.000000000               0.000000000               0.000000000               0.000000000               0.000424587               0.002756382              -0.000080444              -0.000185327               0.000980560               0.000795233               0.000000000               0.000000000               0.000000000               0.000000000               0.000423840               0.002843871              -0.000068404              -0.000196543               0.001013462               0.000816919               0.000000000               0.000000000               0.000000000               0.000000000               0.000432859               0.002911377              -0.000040294              -0.000201600               0.001037649               0.000836050               0.000000000               0.000000000               0.000000000               0.000000000               0.000445427               0.002940709              -0.000021451              -0.000200553               0.001047078               0.000846524               0.000000000               0.000000000               0.000000000               0.000000000               0.000000000               0.000000000               0.000000000               0.000000000               0.000000000               0.000000000               0.000000000               0.000000000               0.000000000               0.000000000               0.000000000               0.000000000               0.000000000               0.000000000               0.000000000               0.000000000               0.000000000               0.000000000               0.000000000               0.000000000               0.000000000               0.000000000               0.000000000               0.000000000               0.000000000               0.000000000               0.000000000               0.000000000               0.000000000               0.000000000               0.000000000               0.000000000               0.000000000               0.000000000               0.000000000               0.000000000               0.000000000               0.000000000               0.000000000               0.000000000               0.000000000               0.000000000               0.000000000               0.000000000               0.000000000               0.000000000               0.000000000               0.000000000               0.000000000               0.000000000               0.000000000               0.000000000               0.000000000               0.000000000               0.000000000               0.000000000               0.000000000               0.000000000               0.000000000               0.000000000               0.000000000               0.000000000               0.000000000               0.000000000               0.000000000               0.000000000               0.000000000               0.000000000               0.000000000               0.000000000               0.000000000               0.000000000               0.000000000               0.000000000               0.000000000               0.000000000               0.000000000               0.000000000               0.000000000               0.000000000               0.000000000               0.000000000               0.000000000               0.000000000               0.000000000               0.000000000               0.000000000               0.000000000               0.000000000               0.000000000               0.000000000               0.000000000               0.000000000               0.000000000               0.000000000               0.000000000               0.000000000               0.000000000               0.000000000               0.000000000               0.000000000               0.000000000               0.000000000               0.000000000               0.000000000               0.000000000               0.000000000               0.000000000               0.000000000               0.000000000               0.000000000               0.000000000               0.000000000               0.000000000               0.000000000               0.000000000               0.000000000               0.000000000               0.000000000               0.000000000               0.000000000               0.000000000               0.000000000               0.000000000               0.000000000               0.000000000               0.000000000               0.000000000               0.000000000               0.000000000               0.000000000               0.000000000               0.000000000               0.000000000               0.000000000               0.000000000               0.000000000               0.000000000               0.000000000               0.000000000               0.000000000               0.000000000               0.000000000               0.000000000               0.000000000               0.000000000               0.000000000               0.000000000               0.000000000               0.000000000               0.000000000               0.000000000               0.000000000               0.000000000               0.000000000               0.000000000               0.000000000               0.000000000               0.000000000               0.000000000               0.000000000               0.000000000               0.000000000               0.000000000               0.000000000               0.000000000               0.000000000               0.000000000               0.000000000               0.000000000               0.000000000               0.000000000               0.000000000               0.000000000               0.000000000               0.000000000               0.000000000               0.000000000               0.000000000               0.000000000               0.000000000               0.000000000               0.000000000               0.000000000               0.000000000               0.000000000               0.000000000               0.000000000               0.000000000               0.000000000               0.000000000               0.000000000               0.000000000               0.000000000               0.000000000               0.000000000               0.000000000               0.000000000               0.000000000               0.000000000               0.000000000               0.000000000               0.000000000               0.000000000               0.000000000               0.000000000               0.000000000               0.000000000               0.000000000               0.000000000               0.000000000               0.000000000               0.000000000               0.000000000               0.000000000               0.000000000               0.000000000               0.000000000               0.000000000               0.000000000               0.000000000               0.000000000               0.000000000               0.000000000               0.000000000               0.000000000               0.000000000               0.000000000               0.000000000               0.000000000               0.000000000               0.000000000               0.000000000               0.000000000               0.000000000               0.000000000               0.000000000               0.000000000               0.000000000               0.000000000               0.000000000               0.000000000               0.000000000               0.000000000               0.000000000               0.000000000               0.000000000               0.000000000               0.000000000               0.000000000               0.000000000               0.000000000               0.000000000               0.000000000               0.000000000               0.000000000               0.000000000               0.000000000               0.000000000               0.000000000               0.000000000               0.000000000               0.000000000               0.000000000               0.000000000               0.000000000               0.000000000               0.000000000               0.000000000               0.000000000               0.000000000               0.000000000               0.000000000               0.000000000               0.000000000               0.000000000               0.000000000               0.000000000               0.000000000               0.000000000               0.000000000               0.000000000               0.000000000               0.000000000               0.000000000               0.000000000               0.000000000               0.000000000               0.000000000               0.000000000               0.000000000               0.000000000               0.000000000               0.000000000               0.000000000               0.000000000               0.000000000               0.000000000               0.000000000               0.000000000               0.000000000               0.000000000               0.000000000               0.000000000               0.000000000               0.000000000               0.000000000               0.000000000               0.000000000               0.000000000               0.000000000               0.000000000               0.000000000               0.000000000               0.000000000               0.000000000               0.000000000               0.000000000               0.000000000               0.000000000               0.000000000               0.000000000               0.000000000               0.000000000               0.000000000               0.000000000               0.000000000               0.000000000               0.000000000               0.000000000               0.000000000               0.000000000               0.000000000               0.000000000               0.000000000               0.000000000               0.000000000               0.000000000               0.000000000               0.000000000               0.000522371               0.005705530               0.000443161              -0.000517301               0.002074258               0.001556957               0.000000000               0.000000000               0.000000000               0.000000000               0.000556785               0.004755583               0.000290758              -0.000385653               0.001713730               0.001328077               0.000000000               0.000000000               0.000000000               0.000000000               0.000751338               0.003995927               0.000130059              -0.000217738               0.001404542               0.001186803               0.000000000               0.000000000               0.000000000               0.000000000               0.000769580               0.003577275               0.000051995              -0.000158566               0.001245269               0.001086702               0.000000000               0.000000000               0.000000000               0.000000000               0.000720814               0.003330692               0.000013620              -0.000146031               0.001158896               0.001012866               0.000000000               0.000000000               0.000000000               0.000000000               0.000651978               0.003180613              -0.000004534              -0.000153084               0.001111222               0.000958137               0.000000000               0.000000000               0.000000000               0.000000000               0.000580088               0.003086721              -0.000013179              -0.000168307               0.001084999               0.000916692               0.000000000               0.000000000               0.000000000               0.000000000               0.000510792               0.003027813              -0.000017380              -0.000186929               0.001071571               0.000884642               0.000000000               0.000000000               0.000000000               0.000000000               0.000447286               0.002993286              -0.000018650              -0.000206428               0.001066561               0.000860133               0.000000000               0.000000000               0.000000000               0.000000000               0.000387644               0.002975009              -0.000019009              -0.000226509               0.001067163               0.000840654               0.000000000               0.000000000               0.000000000               0.000000000               0.000332818               0.002970315              -0.000017124              -0.000246482               0.001072256               0.000825774               0.000000000               0.000000000               0.000000000               0.000000000               0.000281403               0.002970657              -0.000014044              -0.000265806               0.001078811               0.000813005               0.000000000               0.000000000               0.000000000               0.000000000               0.000230900               0.002975409              -0.000013841              -0.000285338               0.001086906               0.000801568               0.000000000               0.000000000               0.000000000               0.000000000               0.000177567               0.002985091              -0.000014036              -0.000306548               0.001097203               0.000790655               0.000000000               0.000000000               0.000000000               0.000000000               0.000119589               0.002997307              -0.000012079              -0.000329817               0.001109031               0.000779215               0.000000000               0.000000000               0.000000000               0.000000000               0.000059767               0.003009292              -0.000007272              -0.000353748               0.001121003               0.000767255               0.000000000               0.000000000               0.000000000               0.000000000               0.000032496               0.003020748              -0.000002932              -0.000365407               0.001128708               0.000763302               0.000000000               0.000000000               0.000000000               0.000000000               0.000612534               0.005433511               0.000840473              -0.000449488               0.001960982               0.001511494               0.000000000               0.000000000               0.000000000               0.000000000               0.000588353               0.004557521               0.000550686              -0.000349057               0.001635511               0.001286454               0.000000000               0.000000000               0.000000000               0.000000000               0.000721610               0.003886567               0.000249645              -0.000215217               0.001367248               0.001152032               0.000000000               0.000000000               0.000000000               0.000000000               0.000711537               0.003514869               0.000107400              -0.000172532               0.001229122               0.001056590               0.000000000               0.000000000               0.000000000               0.000000000               0.000652045               0.003291959               0.000037004              -0.000166978               0.001152968               0.000985990               0.000000000               0.000000000               0.000000000               0.000000000               0.000583374               0.003155489               0.000001999              -0.000175670               0.001110376               0.000934706               0.000000000               0.000000000               0.000000000               0.000000000               0.000516158               0.003072331              -0.000014264              -0.000190482               0.001087594               0.000897112               0.000000000               0.000000000               0.000000000               0.000000000               0.000450105               0.003021298              -0.000021029              -0.000208872               0.001076713               0.000867841               0.000000000               0.000000000               0.000000000               0.000000000               0.000389495               0.002991737              -0.000022332              -0.000227906               0.001073204               0.000845298               0.000000000               0.000000000               0.000000000               0.000000000               0.000334118               0.002976168              -0.000023683              -0.000246726               0.001074288               0.000827562               0.000000000               0.000000000               0.000000000               0.000000000               0.000284814               0.002970885              -0.000021755              -0.000264555               0.001078470               0.000813915               0.000000000               0.000000000               0.000000000               0.000000000               0.000241547               0.002972335              -0.000015979              -0.000280961               0.001084422               0.000803461               0.000000000               0.000000000               0.000000000               0.000000000               0.000198356               0.002977892              -0.000015397              -0.000297852               0.001091905               0.000794053               0.000000000               0.000000000               0.000000000               0.000000000               0.000152285               0.002989031              -0.000017470              -0.000316521               0.001101841               0.000785320               0.000000000               0.000000000               0.000000000               0.000000000               0.000101885               0.003006404              -0.000016148              -0.000337593               0.001114656               0.000777063               0.000000000               0.000000000               0.000000000               0.000000000               0.000049605               0.003028267              -0.000010452              -0.000359931               0.001129389               0.000769458               0.000000000               0.000000000               0.000000000               0.000000000               0.000027708               0.003048377              -0.000005129              -0.000370656               0.001139667               0.000769012               0.000000000               0.000000000               0.000000000               0.000000000               0.000740853               0.005010375               0.001158628              -0.000348477               0.001786267               0.001437790               0.000000000               0.000000000               0.000000000               0.000000000               0.000628074               0.004260259               0.000760246              -0.000297004               0.001519074               0.001222069               0.000000000               0.000000000               0.000000000               0.000000000               0.000669233               0.003725048               0.000352122              -0.000214668               0.001313227               0.001098558               0.000000000               0.000000000               0.000000000               0.000000000               0.000627984               0.003425041               0.000165878              -0.000192636               0.001205881               0.001013245               0.000000000               0.000000000               0.000000000               0.000000000               0.000561851               0.003242235               0.000074554              -0.000194585               0.001145596               0.000951011               0.000000000               0.000000000               0.000000000               0.000000000               0.000492515               0.003127101               0.000028567              -0.000206194               0.001111088               0.000904894               0.000000000               0.000000000               0.000000000               0.000000000               0.000428346               0.003055615               0.000006893              -0.000221322               0.001092302               0.000870980               0.000000000               0.000000000               0.000000000               0.000000000               0.000369505               0.003012918              -0.000001624              -0.000238050               0.001083646               0.000845596               0.000000000               0.000000000               0.000000000               0.000000000               0.000317864               0.002987000              -0.000004404              -0.000254175               0.001080382               0.000826206               0.000000000               0.000000000               0.000000000               0.000000000               0.000273281               0.002973451              -0.000005988              -0.000269200               0.001080874               0.000811674               0.000000000               0.000000000               0.000000000               0.000000000               0.000230746               0.002966327              -0.000005009              -0.000284260               0.001083519               0.000799259               0.000000000               0.000000000               0.000000000               0.000000000               0.000190768               0.002967292               0.000000701              -0.000299373               0.001088878               0.000789506               0.000000000               0.000000000               0.000000000               0.000000000               0.000152455               0.002972125               0.000001317              -0.000314344               0.001095480               0.000781136               0.000000000               0.000000000               0.000000000               0.000000000               0.000114356               0.002982633              -0.000004596              -0.000329945               0.001104183               0.000774238               0.000000000               0.000000000               0.000000000               0.000000000               0.000075069               0.003000457              -0.000008694              -0.000346905               0.001115777               0.000768872               0.000000000               0.000000000               0.000000000               0.000000000               0.000035934               0.003023724              -0.000007178              -0.000364489               0.001129394               0.000764905               0.000000000               0.000000000               0.000000000               0.000000000               0.000020855               0.003044452              -0.000002835              -0.000372735               0.001139052               0.000766317               0.000000000               0.000000000               0.000000000               0.000000000               0.000881462               0.004490499               0.001374436              -0.000230765               0.001573739               0.001342974               0.000000000               0.000000000               0.000000000               0.000000000               0.000668749               0.003903736               0.000910139              -0.000237186               0.001380294               0.001143108               0.000000000               0.000000000               0.000000000               0.000000000               0.000605148               0.003536177               0.000438624              -0.000215091               0.001250411               0.001035320               0.000000000               0.000000000               0.000000000               0.000000000               0.000531205               0.003315523               0.000229232              -0.000215238               0.001176909               0.000961671               0.000000000               0.000000000               0.000000000               0.000000000               0.000461802               0.003174395               0.000127442              -0.000223623               0.001132662               0.000909039               0.000000000               0.000000000               0.000000000               0.000000000               0.000396158               0.003082699               0.000075712              -0.000236777               0.001106482               0.000869704               0.000000000               0.000000000               0.000000000               0.000000000               0.000337642               0.003024817               0.000049216              -0.000251486               0.001092091               0.000840605               0.000000000               0.000000000               0.000000000               0.000000000               0.000288474               0.002987769               0.000036278              -0.000265293               0.001084344               0.000819051               0.000000000               0.000000000               0.000000000               0.000000000               0.000246507               0.002964643               0.000030977              -0.000278140               0.001080918               0.000802778               0.000000000               0.000000000               0.000000000               0.000000000               0.000209375               0.002950777               0.000028052              -0.000290331               0.001080360               0.000790029               0.000000000               0.000000000               0.000000000               0.000000000               0.000174466               0.002942706               0.000026427              -0.000302413               0.001081696               0.000779284               0.000000000               0.000000000               0.000000000               0.000000000               0.000140615               0.002942582               0.000029186              -0.000315091               0.001085881               0.000770790               0.000000000               0.000000000               0.000000000               0.000000000               0.000107815               0.002948459               0.000027874              -0.000328126               0.001092185               0.000764059               0.000000000               0.000000000               0.000000000               0.000000000               0.000076746               0.002958110               0.000015817              -0.000340983               0.001099688               0.000758705               0.000000000               0.000000000               0.000000000               0.000000000               0.000047610               0.002973151               0.000004436              -0.000353789               0.001108970               0.000755181               0.000000000               0.000000000               0.000000000               0.000000000               0.000021157               0.002991414              -0.000000269              -0.000365992               0.001119125               0.000753133               0.000000000               0.000000000               0.000000000               0.000000000               0.000012387               0.003006842               0.000000411              -0.000371209               0.001126007               0.000754798               0.000000000               0.000000000               0.000000000               0.000000000               0.000997876               0.003920787               0.001483546              -0.000115896               0.001345548               0.001229651               0.000000000               0.000000000               0.000000000               0.000000000               0.000694753               0.003520420               0.001001264              -0.000179521               0.001233302               0.001053781               0.000000000               0.000000000               0.000000000               0.000000000               0.000534044               0.003329966               0.000512610              -0.000215979               0.001181971               0.000965992               0.000000000               0.000000000               0.000000000               0.000000000               0.000435950               0.003184487               0.000298027              -0.000234579               0.001139678               0.000905099               0.000000000               0.000000000               0.000000000               0.000000000               0.000366229               0.003084378               0.000191291              -0.000248211               0.001110853               0.000862642               0.000000000               0.000000000               0.000000000               0.000000000               0.000309710               0.003017846               0.000133436              -0.000261089               0.001092968               0.000831879               0.000000000               0.000000000               0.000000000               0.000000000               0.000262293               0.002974282               0.000101317              -0.000273425               0.001082559               0.000809134               0.000000000               0.000000000               0.000000000               0.000000000               0.000222206               0.002943426               0.000084019              -0.000284600               0.001075999               0.000791399               0.000000000               0.000000000               0.000000000               0.000000000               0.000188052               0.002924227               0.000074674              -0.000295008               0.001073069               0.000778060               0.000000000               0.000000000               0.000000000               0.000000000               0.000158636               0.002913336               0.000069177              -0.000304678               0.001072662               0.000767984               0.000000000               0.000000000               0.000000000               0.000000000               0.000129866               0.002907367               0.000061831              -0.000314720               0.001074019               0.000759299               0.000000000               0.000000000               0.000000000               0.000000000               0.000101280               0.002910566               0.000055173              -0.000325840               0.001078792               0.000752952               0.000000000               0.000000000               0.000000000               0.000000000               0.000073542               0.002921592               0.000048257              -0.000337620               0.001086394               0.000748774               0.000000000               0.000000000               0.000000000               0.000000000               0.000047608               0.002934133               0.000031921              -0.000348913               0.001094339               0.000745426               0.000000000               0.000000000               0.000000000               0.000000000               0.000027376               0.002947553               0.000013917              -0.000358177               0.001101900               0.000743723               0.000000000               0.000000000               0.000000000               0.000000000               0.000012086               0.002961489               0.000004476              -0.000365653               0.001109037               0.000743384               0.000000000               0.000000000               0.000000000               0.000000000               0.000007542               0.002970725               0.000003288              -0.000368511               0.001113069               0.000744558               0.000000000               0.000000000               0.000000000               0.000000000               0.001071649               0.003334374               0.001496347              -0.000014930               0.001116423               0.001101493               0.000000000               0.000000000               0.000000000               0.000000000               0.000702182               0.003131430               0.001041920              -0.000128111               0.001086503               0.000958392               0.000000000               0.000000000               0.000000000               0.000000000               0.000462349               0.003114544               0.000576911              -0.000215937               0.001110150               0.000894213               0.000000000               0.000000000               0.000000000               0.000000000               0.000355723               0.003044372               0.000368798              -0.000247150               0.001097164               0.000850014               0.000000000               0.000000000               0.000000000               0.000000000               0.000293987               0.002986447               0.000258045              -0.000263060               0.001083159               0.000820099               0.000000000               0.000000000               0.000000000               0.000000000               0.000247796               0.002944428               0.000194436              -0.000275129               0.001073176               0.000798047               0.000000000               0.000000000               0.000000000               0.000000000               0.000208746               0.002912014               0.000157121              -0.000285721               0.001065902               0.000780181               0.000000000               0.000000000               0.000000000               0.000000000               0.000176428               0.002887157               0.000133934              -0.000294733               0.001060621               0.000765887               0.000000000               0.000000000               0.000000000               0.000000000               0.000149881               0.002874685               0.000116598              -0.000303130               0.001059262               0.000756132               0.000000000               0.000000000               0.000000000               0.000000000               0.000128193               0.002872386               0.000103341              -0.000310975               0.001061111               0.000750136               0.000000000               0.000000000               0.000000000               0.000000000               0.000108780               0.002879823               0.000088135              -0.000319185               0.001066326               0.000747142               0.000000000               0.000000000               0.000000000               0.000000000               0.000086930               0.002892686               0.000072206              -0.000328986               0.001073881               0.000744895               0.000000000               0.000000000               0.000000000               0.000000000               0.000062002               0.002909601               0.000059115              -0.000340448               0.001083340               0.000742892               0.000000000               0.000000000               0.000000000               0.000000000               0.000039110               0.002927064               0.000041301              -0.000351216               0.001092750               0.000741534               0.000000000               0.000000000               0.000000000               0.000000000               0.000022808               0.002940334               0.000021771              -0.000358988               0.001099764               0.000740776               0.000000000               0.000000000               0.000000000               0.000000000               0.000011333               0.002947010               0.000009791              -0.000364125               0.001103702               0.000739577               0.000000000               0.000000000               0.000000000               0.000000000               0.000006905               0.002949816               0.000006754              -0.000366137               0.001105308               0.000739171               0.000000000               0.000000000               0.000000000               0.000000000               0.001096519               0.002767316               0.001425407               0.000065278               0.000900670               0.000965947               0.000000000               0.000000000               0.000000000               0.000000000               0.000690756               0.002761181               0.001041144              -0.000086115               0.000949089               0.000862974               0.000000000               0.000000000               0.000000000               0.000000000               0.000403541               0.002903179               0.000633410              -0.000211570               0.001038240               0.000826670               0.000000000               0.000000000               0.000000000               0.000000000               0.000300375               0.002904389               0.000435578              -0.000250408               0.001051589               0.000801181               0.000000000               0.000000000               0.000000000               0.000000000               0.000246281               0.002885637               0.000320662              -0.000268349               0.001051319               0.000782970               0.000000000               0.000000000               0.000000000               0.000000000               0.000209636               0.002865730               0.000251027              -0.000279602               0.001048434               0.000768832               0.000000000               0.000000000               0.000000000               0.000000000               0.000177483               0.002846831               0.000207725              -0.000289297               0.001045367               0.000756069               0.000000000               0.000000000               0.000000000               0.000000000               0.000153050               0.002835623               0.000175423              -0.000297058               0.001044218               0.000747159               0.000000000               0.000000000               0.000000000               0.000000000               0.000135620               0.002837592               0.000146832              -0.000303841               0.001047135               0.000743294               0.000000000               0.000000000               0.000000000               0.000000000               0.000120133               0.002849499               0.000123092              -0.000311137               0.001053536               0.000742399               0.000000000               0.000000000               0.000000000               0.000000000               0.000104380               0.002871105               0.000101570              -0.000319745               0.001063607               0.000743862               0.000000000               0.000000000               0.000000000               0.000000000               0.000085037               0.002895370               0.000081120              -0.000330032               0.001075124               0.000745093               0.000000000               0.000000000               0.000000000               0.000000000               0.000062651               0.002918996               0.000062928              -0.000341380               0.001086782               0.000745403               0.000000000               0.000000000               0.000000000               0.000000000               0.000041429               0.002938011               0.000043884              -0.000351715               0.001096565               0.000744851               0.000000000               0.000000000               0.000000000               0.000000000               0.000026827               0.002947202               0.000025458              -0.000358339               0.001101837               0.000743498               0.000000000               0.000000000               0.000000000               0.000000000               0.000014105               0.002946469               0.000011859              -0.000363018               0.001103153               0.000740134               0.000000000               0.000000000               0.000000000               0.000000000               0.000006133               0.002943242               0.000005585              -0.000365604               0.001102939               0.000737335               0.000000000               0.000000000               0.000000000               0.000000000               0.001090424               0.002266437               0.001299062               0.000125602               0.000713603               0.000839205               0.000000000               0.000000000               0.000000000               0.000000000               0.000683996               0.002428094               0.001021043              -0.000047015               0.000825028               0.000778013               0.000000000               0.000000000               0.000000000               0.000000000               0.000376692               0.002711384               0.000697554              -0.000197664               0.000969673               0.000772010               0.000000000               0.000000000               0.000000000               0.000000000               0.000280708               0.002783929               0.000507235              -0.000242725               0.001008875               0.000766150               0.000000000               0.000000000               0.000000000               0.000000000               0.000230300               0.002803884               0.000387924              -0.000264122               0.001022660               0.000758537               0.000000000               0.000000000               0.000000000               0.000000000               0.000197525               0.002808705               0.000311529              -0.000277016               0.001028564               0.000751549               0.000000000               0.000000000               0.000000000               0.000000000               0.000172040               0.002807534               0.000257995              -0.000286426               0.001031311               0.000744884               0.000000000               0.000000000               0.000000000               0.000000000               0.000153619               0.002812726               0.000215520              -0.000293983               0.001035560               0.000741577               0.000000000               0.000000000               0.000000000               0.000000000               0.000142381               0.002826288               0.000176958              -0.000299892               0.001042051               0.000742158               0.000000000               0.000000000               0.000000000               0.000000000               0.000130544               0.002847527               0.000144629              -0.000306986               0.001051495               0.000744509               0.000000000               0.000000000               0.000000000               0.000000000               0.000117985               0.002879232               0.000116021              -0.000315659               0.001064954               0.000749295               0.000000000               0.000000000               0.000000000               0.000000000               0.000102378               0.002914312               0.000089630              -0.000325896               0.001080060               0.000754163               0.000000000               0.000000000               0.000000000               0.000000000               0.000081514               0.002942806               0.000067051              -0.000337282               0.001093353               0.000756071               0.000000000               0.000000000               0.000000000               0.000000000               0.000058711               0.002960139               0.000046969              -0.000348000               0.001102703               0.000754703               0.000000000               0.000000000               0.000000000               0.000000000               0.000040224               0.002965102               0.000027789              -0.000355553               0.001106875               0.000751322               0.000000000               0.000000000               0.000000000               0.000000000               0.000021728               0.002960826               0.000011156              -0.000361954               0.001107584               0.000745629               0.000000000               0.000000000               0.000000000               0.000000000               0.000008245               0.002955097               0.000002793              -0.000366294               0.001107121               0.000740826               0.000000000               0.000000000               0.000000000               0.000000000               0.001046271               0.001777954               0.001147981               0.000170105               0.000535943               0.000706048               0.000000000               0.000000000               0.000000000               0.000000000               0.000692063               0.002041727               0.000993206               0.000004306               0.000679133               0.000683439               0.000000000               0.000000000               0.000000000               0.000000000               0.000392086               0.002432454               0.000775057              -0.000157025               0.000863151               0.000706127               0.000000000               0.000000000               0.000000000               0.000000000               0.000296677               0.002585974               0.000599702              -0.000211993               0.000932647               0.000720654               0.000000000               0.000000000               0.000000000               0.000000000               0.000250421               0.002659998               0.000476633              -0.000238592               0.000966188               0.000727596               0.000000000               0.000000000               0.000000000               0.000000000               0.000217179               0.002705306               0.000389128              -0.000256721               0.000987333               0.000730613               0.000000000               0.000000000               0.000000000               0.000000000               0.000190821               0.002732348               0.000324057              -0.000269985               0.001000769               0.000730784               0.000000000               0.000000000               0.000000000               0.000000000               0.000169994               0.002752958               0.000273558              -0.000280371               0.001011101               0.000730729               0.000000000               0.000000000               0.000000000               0.000000000               0.000158852               0.002776238               0.000230756              -0.000287460               0.001021223               0.000733764               0.000000000               0.000000000               0.000000000               0.000000000               0.000152922               0.002807620               0.000191631              -0.000293606               0.001033733               0.000740127               0.000000000               0.000000000               0.000000000               0.000000000               0.000142722               0.002849807               0.000153481              -0.000302704               0.001050828               0.000748123               0.000000000               0.000000000               0.000000000               0.000000000               0.000127340               0.002895219               0.000118382              -0.000314149               0.001069780               0.000755631               0.000000000               0.000000000               0.000000000               0.000000000               0.000105669               0.002931503               0.000088273              -0.000326811               0.001086095               0.000759284               0.000000000               0.000000000               0.000000000               0.000000000               0.000079698               0.002954546               0.000062430              -0.000339431               0.001097982               0.000758552               0.000000000               0.000000000               0.000000000               0.000000000               0.000051325               0.002962589               0.000036894              -0.000351076               0.001104545               0.000753469               0.000000000               0.000000000               0.000000000               0.000000000               0.000024126               0.002964558               0.000013590              -0.000361522               0.001108683               0.000747162               0.000000000               0.000000000               0.000000000               0.000000000               0.000006403               0.002962728               0.000001286              -0.000367939               0.001110213               0.000742274               0.000000000               0.000000000               0.000000000               0.000000000               0.000946701               0.001317570               0.000971678               0.000190314               0.000375747               0.000566061               0.000000000               0.000000000               0.000000000               0.000000000               0.000697594               0.001655477               0.000938583               0.000054661               0.000533599               0.000588261               0.000000000               0.000000000               0.000000000               0.000000000               0.000440929               0.002119586               0.000834304              -0.000099601               0.000739722               0.000640121               0.000000000               0.000000000               0.000000000               0.000000000               0.000347622               0.002349420               0.000690335              -0.000163320               0.000837572               0.000674252               0.000000000               0.000000000               0.000000000               0.000000000               0.000297117               0.002483846               0.000569087              -0.000199062               0.000894294               0.000695232               0.000000000               0.000000000               0.000000000               0.000000000               0.000260992               0.002576123               0.000474576              -0.000224143               0.000933414               0.000709270               0.000000000               0.000000000               0.000000000               0.000000000               0.000230076               0.002638694               0.000401250              -0.000243558               0.000960742               0.000717184               0.000000000               0.000000000               0.000000000               0.000000000               0.000205651               0.002683111               0.000345791              -0.000258269               0.000980451               0.000722182               0.000000000               0.000000000               0.000000000               0.000000000               0.000190453               0.002721046               0.000301318              -0.000268710               0.000996576               0.000727866               0.000000000               0.000000000               0.000000000               0.000000000               0.000182691               0.002764006               0.000256613              -0.000276991               0.001013657               0.000736665               0.000000000               0.000000000               0.000000000               0.000000000               0.000173819               0.002816989               0.000208882              -0.000286941               0.001034634               0.000747693               0.000000000               0.000000000               0.000000000               0.000000000               0.000157772               0.002871610               0.000164751              -0.000299786               0.001057122               0.000757336               0.000000000               0.000000000               0.000000000               0.000000000               0.000134877               0.002914584               0.000126831              -0.000313744               0.001076100               0.000762356               0.000000000               0.000000000               0.000000000               0.000000000               0.000104467               0.002940989               0.000093154              -0.000328448               0.001089803               0.000761355               0.000000000               0.000000000               0.000000000               0.000000000               0.000069318               0.002954536               0.000058608              -0.000343322               0.001099276               0.000755954               0.000000000               0.000000000               0.000000000               0.000000000               0.000031135               0.002962807               0.000025214              -0.000358674               0.001107151               0.000748476               0.000000000               0.000000000               0.000000000               0.000000000               0.000002263               0.002959199               0.000005980              -0.000369050               0.001109406               0.000740356               0.000000000               0.000000000               0.000000000               0.000000000               0.000796176               0.000909305               0.000771654               0.000184901               0.000241465               0.000426365               0.000000000               0.000000000               0.000000000               0.000000000               0.000680687               0.001281695               0.000840667               0.000095044               0.000395546               0.000490590               0.000000000               0.000000000               0.000000000               0.000000000               0.000504251               0.001771230               0.000839998              -0.000032311               0.000601174               0.000568863               0.000000000               0.000000000               0.000000000               0.000000000               0.000424800               0.002061687               0.000738696              -0.000098411               0.000720026               0.000621614               0.000000000               0.000000000               0.000000000               0.000000000               0.000373577               0.002253275               0.000631184              -0.000141568               0.000798274               0.000656705               0.000000000               0.000000000               0.000000000               0.000000000               0.000332920               0.002395678               0.000538975              -0.000174615               0.000856756               0.000682141               0.000000000               0.000000000               0.000000000               0.000000000               0.000297109               0.002499222               0.000464087              -0.000200987               0.000900061               0.000699074               0.000000000               0.000000000               0.000000000               0.000000000               0.000265215               0.002573810               0.000407934              -0.000222270               0.000932018               0.000709748               0.000000000               0.000000000               0.000000000               0.000000000               0.000242029               0.002637689               0.000361799              -0.000238950               0.000958871               0.000719921               0.000000000               0.000000000               0.000000000               0.000000000               0.000226661               0.002698777               0.000314363              -0.000252349               0.000983700               0.000731351               0.000000000               0.000000000               0.000000000               0.000000000               0.000215148               0.002762889               0.000261750              -0.000264680               0.001009180               0.000744500               0.000000000               0.000000000               0.000000000               0.000000000               0.000198671               0.002828935               0.000212839              -0.000279115               0.001036007               0.000756892               0.000000000               0.000000000               0.000000000               0.000000000               0.000174616               0.002883433               0.000170962              -0.000294947               0.001059451               0.000764503               0.000000000               0.000000000               0.000000000               0.000000000               0.000144566               0.002921062               0.000132694              -0.000310920               0.001077318               0.000766398               0.000000000               0.000000000               0.000000000               0.000000000               0.000104725               0.002941524               0.000090323              -0.000328418               0.001089971               0.000761553               0.000000000               0.000000000               0.000000000               0.000000000               0.000054042               0.002955126               0.000043208              -0.000349124               0.001101407               0.000752283               0.000000000               0.000000000               0.000000000               0.000000000               0.000011315               0.002952521               0.000014499              -0.000364821               0.001105771               0.000740950               0.000000000               0.000000000               0.000000000               0.000000000               0.000610064               0.000579485               0.000567718               0.000156336               0.000141047               0.000297384               0.000000000               0.000000000               0.000000000               0.000000000               0.000642697               0.000940792               0.000705624               0.000123410               0.000272457               0.000395867               0.000000000               0.000000000               0.000000000               0.000000000               0.000574539               0.001414514               0.000782592               0.000038637               0.000458621               0.000497257               0.000000000               0.000000000               0.000000000               0.000000000               0.000521639               0.001740763               0.000725551              -0.000021982               0.000587576               0.000565594               0.000000000               0.000000000               0.000000000               0.000000000               0.000477649               0.001978908               0.000640539              -0.000068246               0.000682378               0.000614132               0.000000000               0.000000000               0.000000000               0.000000000               0.000431987               0.002165590               0.000558900              -0.000108704               0.000758090               0.000649387               0.000000000               0.000000000               0.000000000               0.000000000               0.000391850               0.002311517               0.000490629              -0.000141996               0.000817830               0.000675834               0.000000000               0.000000000               0.000000000               0.000000000               0.000351111               0.002421853               0.000437074              -0.000171065               0.000864298               0.000693233               0.000000000               0.000000000               0.000000000               0.000000000               0.000316913               0.002514095               0.000392569              -0.000195419               0.000903163               0.000707744               0.000000000               0.000000000               0.000000000               0.000000000               0.000293015               0.002597710               0.000346336              -0.000214833               0.000937506               0.000722673               0.000000000               0.000000000               0.000000000               0.000000000               0.000277598               0.002681286               0.000294158              -0.000231061               0.000970773               0.000739712               0.000000000               0.000000000               0.000000000               0.000000000               0.000262032               0.002763591               0.000243922              -0.000247186               0.001003583               0.000756397               0.000000000               0.000000000               0.000000000               0.000000000               0.000238210               0.002831783               0.000202990              -0.000264643               0.001032133               0.000767489               0.000000000               0.000000000               0.000000000               0.000000000               0.000208662               0.002884458               0.000164394              -0.000282309               0.001055579               0.000773271               0.000000000               0.000000000               0.000000000               0.000000000               0.000170139               0.002921077               0.000115615              -0.000301332               0.001074127               0.000772795               0.000000000               0.000000000               0.000000000               0.000000000               0.000121189               0.002947907               0.000058163              -0.000323042               0.001090307               0.000767265               0.000000000               0.000000000               0.000000000               0.000000000               0.000078051               0.002950482               0.000023356              -0.000339540               0.001096664               0.000757124               0.000000000               0.000000000               0.000000000               0.000000000               0.000417243               0.000338257               0.000381401               0.000114183               0.000074690               0.000188873               0.000000000               0.000000000               0.000000000               0.000000000               0.000592903               0.000655392               0.000542929               0.000140413               0.000171657               0.000312070               0.000000000               0.000000000               0.000000000               0.000000000               0.000641912               0.001080591               0.000659612               0.000105641               0.000324979               0.000430621               0.000000000               0.000000000               0.000000000               0.000000000               0.000626530               0.001421249               0.000639512               0.000057292               0.000454648               0.000511939               0.000000000               0.000000000               0.000000000               0.000000000               0.000593997               0.001691376               0.000579887               0.000011326               0.000560011               0.000571337               0.000000000               0.000000000               0.000000000               0.000000000               0.000552209               0.001915062               0.000516629              -0.000032305               0.000649116               0.000616811               0.000000000               0.000000000               0.000000000               0.000000000               0.000507810               0.002097833               0.000460668              -0.000071801               0.000723204               0.000651404               0.000000000               0.000000000               0.000000000               0.000000000               0.000460095               0.002237515               0.000414195              -0.000107154               0.000781549               0.000674395               0.000000000               0.000000000               0.000000000               0.000000000               0.000413829               0.002358372               0.000375737              -0.000139611               0.000832653               0.000693043               0.000000000               0.000000000               0.000000000               0.000000000               0.000376077               0.002472686               0.000335796              -0.000168057               0.000880239               0.000712183               0.000000000               0.000000000               0.000000000               0.000000000               0.000351366               0.002580728               0.000290203              -0.000190828               0.000923843               0.000733015               0.000000000               0.000000000               0.000000000               0.000000000               0.000334095               0.002678902               0.000243982              -0.000209577               0.000962817               0.000753241               0.000000000               0.000000000               0.000000000               0.000000000               0.000311790               0.002765008               0.000204610              -0.000228704               0.000997895               0.000769191               0.000000000               0.000000000               0.000000000               0.000000000               0.000281749               0.002836532               0.000168626              -0.000248910               0.001028471               0.000779561               0.000000000               0.000000000               0.000000000               0.000000000               0.000252483               0.002892186               0.000124208              -0.000266842               0.001053000               0.000786158               0.000000000               0.000000000               0.000000000               0.000000000               0.000223890               0.002936109               0.000066597              -0.000283054               0.001073045               0.000789990               0.000000000               0.000000000               0.000000000               0.000000000               0.000197936               0.002948717               0.000031860              -0.000294363               0.001081017               0.000786654               0.000000000               0.000000000               0.000000000               0.000000000               0.000244195               0.000175224               0.000227708               0.000069669               0.000035184               0.000104853               0.000000000               0.000000000               0.000000000               0.000000000               0.000541869               0.000441064               0.000365937               0.000148066               0.000097664               0.000245731               0.000000000               0.000000000               0.000000000               0.000000000               0.000698070               0.000809273               0.000475878               0.000160615               0.000216216               0.000376832               0.000000000               0.000000000               0.000000000               0.000000000               0.000724277               0.001147483               0.000478388               0.000128167               0.000339768               0.000467935               0.000000000               0.000000000               0.000000000               0.000000000               0.000705574               0.001434907               0.000443454               0.000085226               0.000449889               0.000535115               0.000000000               0.000000000               0.000000000               0.000000000               0.000669122               0.001681213               0.000401051               0.000040769               0.000546809               0.000587578               0.000000000               0.000000000               0.000000000               0.000000000               0.000620707               0.001887712               0.000361939              -0.000003199               0.000630297               0.000627098               0.000000000               0.000000000               0.000000000               0.000000000               0.000568258               0.002059426               0.000328633              -0.000044332               0.000701246               0.000656914               0.000000000               0.000000000               0.000000000               0.000000000               0.000514069               0.002212781               0.000299834              -0.000083822               0.000765527               0.000681705               0.000000000               0.000000000               0.000000000               0.000000000               0.000462467               0.002354239               0.000271365              -0.000120855               0.000825024               0.000704169               0.000000000               0.000000000               0.000000000               0.000000000               0.000424957               0.002482663               0.000240304              -0.000150974               0.000877871               0.000726897               0.000000000               0.000000000               0.000000000               0.000000000               0.000399900               0.002597617               0.000202424              -0.000174739               0.000924110               0.000749371               0.000000000               0.000000000               0.000000000               0.000000000               0.000376963               0.002702838               0.000165928              -0.000196493               0.000966435               0.000769942               0.000000000               0.000000000               0.000000000               0.000000000               0.000356898               0.002791654               0.000139764              -0.000215120               0.001002248               0.000787129               0.000000000               0.000000000               0.000000000               0.000000000               0.000344212               0.002860639               0.000111490              -0.000228500               0.001029703               0.000801204               0.000000000               0.000000000               0.000000000               0.000000000               0.000338742               0.002916972               0.000064609              -0.000237593               0.001051512               0.000813919               0.000000000               0.000000000               0.000000000               0.000000000               0.000333024               0.002939876               0.000034485              -0.000242600               0.001060815               0.000818216               0.000000000               0.000000000               0.000000000               0.000000000               0.000120154               0.000083285               0.000103419               0.000034646               0.000016213               0.000050859               0.000000000               0.000000000               0.000000000               0.000000000               0.000499086               0.000306366               0.000183427               0.000148860               0.000052501               0.000201361               0.000000000               0.000000000               0.000000000               0.000000000               0.000732732               0.000628798               0.000249304               0.000196173               0.000144206               0.000340379               0.000000000               0.000000000               0.000000000               0.000000000               0.000791831               0.000961568               0.000256340               0.000176739               0.000261607               0.000438345               0.000000000               0.000000000               0.000000000               0.000000000               0.000782579               0.001255403               0.000241410               0.000136540               0.000372950               0.000509491               0.000000000               0.000000000               0.000000000               0.000000000               0.000747773               0.001510522               0.000219599               0.000091599               0.000472969               0.000564568               0.000000000               0.000000000               0.000000000               0.000000000               0.000700139               0.001736372               0.000199435               0.000045505               0.000563617               0.000609122               0.000000000               0.000000000               0.000000000               0.000000000               0.000645567               0.001937253               0.000183607              -0.000000069               0.000645767               0.000645698               0.000000000               0.000000000               0.000000000               0.000000000               0.000587627               0.002112074               0.000168675              -0.000043649               0.000718567               0.000674918               0.000000000               0.000000000               0.000000000               0.000000000               0.000530686               0.002263648               0.000154596              -0.000083949               0.000782525               0.000698576               0.000000000               0.000000000               0.000000000               0.000000000               0.000481515               0.002402015               0.000139136              -0.000119683               0.000840558               0.000720875               0.000000000               0.000000000               0.000000000               0.000000000               0.000447008               0.002531682               0.000114003              -0.000148832               0.000893496               0.000744664               0.000000000               0.000000000               0.000000000               0.000000000               0.000430262               0.002651459               0.000090838              -0.000170084               0.000940505               0.000770422               0.000000000               0.000000000               0.000000000               0.000000000               0.000424587               0.002756382               0.000080444              -0.000185327               0.000980560               0.000795233               0.000000000               0.000000000               0.000000000               0.000000000               0.000423840               0.002843871               0.000068404              -0.000196543               0.001013462               0.000816919               0.000000000               0.000000000               0.000000000               0.000000000               0.000432859               0.002911377               0.000040294              -0.000201600               0.001037649               0.000836050               0.000000000               0.000000000               0.000000000               0.000000000               0.000445427               0.002940709               0.000021451              -0.000200553               0.001047078               0.000846524               0.000000000               0.000000000               0.000000000               0.000000000               0.000000000               0.000000000               0.000000000               0.000000000               0.000000000               0.000000000               0.000000000               0.000000000               0.000000000               0.000000000               0.000000000               0.000000000               0.000000000               0.000000000               0.000000000               0.000000000               0.000000000               0.000000000               0.000000000               0.000000000               0.000000000               0.000000000               0.000000000               0.000000000               0.000000000               0.000000000               0.000000000               0.000000000               0.000000000               0.000000000               0.000000000               0.000000000               0.000000000               0.000000000               0.000000000               0.000000000               0.000000000               0.000000000               0.000000000               0.000000000               0.000000000               0.000000000               0.000000000               0.000000000               0.000000000               0.000000000               0.000000000               0.000000000               0.000000000               0.000000000               0.000000000               0.000000000               0.000000000               0.000000000               0.000000000               0.000000000               0.000000000               0.000000000               0.000000000               0.000000000               0.000000000               0.000000000               0.000000000               0.000000000               0.000000000               0.000000000               0.000000000               0.000000000               0.000000000               0.000000000               0.000000000               0.000000000               0.000000000               0.000000000               0.000000000               0.000000000               0.000000000               0.000000000               0.000000000               0.000000000               0.000000000               0.000000000               0.000000000               0.000000000               0.000000000               0.000000000               0.000000000               0.000000000               0.000000000               0.000000000               0.000000000               0.000000000               0.000000000               0.000000000               0.000000000               0.000000000               0.000000000               0.000000000               0.000000000               0.000000000               0.000000000               0.000000000               0.000000000               0.000000000               0.000000000               0.000000000               0.000000000               0.000000000               0.000000000               0.000000000               0.000000000               0.000000000               0.000000000               0.000000000               0.000000000               0.000000000               0.000000000               0.000000000               0.000000000               0.000000000               0.000000000               0.000000000               0.000000000               0.000000000               0.000000000               0.000000000               0.000000000               0.000000000               0.000000000               0.000000000               0.000000000               0.000000000               0.000000000               0.000000000               0.000000000               0.000000000               0.000000000               0.000000000               0.000000000               0.000000000               0.000000000               0.000000000               0.000000000               0.000000000               0.000000000               0.000000000               0.000000000               0.000000000               0.000000000               0.000000000               0.000000000               0.000000000               0.000000000               0.000000000               0.000000000               0.000000000               0.000000000               0.000000000               0.000000000               0.000000000               0.000000000               0.000000000               0.000000000               0.000000000               0.000000000               0.000000000               0.000000000               0.000000000               0.000000000               0.000000000 </DataArray>
</PointData>
</Piece>
</UnstructuredGrid> </VTKFile>
