<?xml version="1.0"?>
<VTKFile type="UnstructuredGrid" version="0.1">
<UnstructuredGrid>
<Piece NumberOfPoints="      1156" NumberOfCells="      1024">
<Points>
<DataArray type="Float64"                                    Name="coordinates"                                                      NumberOfComponents=" 3" format="ascii">
              0.133000000               0.000000000               0.000000000               0.155937500               0.000000000               0.000000000               0.178875000               0.000000000               0.000000000               0.201812500               0.000000000               0.000000000               0.224750000               0.000000000               0.000000000               0.247687500               0.000000000               0.000000000               0.270625000               0.000000000               0.000000000               0.293562500               0.000000000               0.000000000               0.316500000               0.000000000               0.000000000               0.339437500               0.000000000               0.000000000               0.362375000               0.000000000               0.000000000               0.385312500               0.000000000               0.000000000               0.408250000               0.000000000               0.000000000               0.431187500               0.000000000               0.000000000               0.454125000               0.000000000               0.000000000               0.477062500               0.000000000               0.000000000               0.500000000               0.000000000               0.000000000               0.132359569               0.013036280               0.000000000               0.155337096               0.016127762               0.000000000               0.178314623               0.019219245               0.000000000               0.201292150               0.022310727               0.000000000               0.224269676               0.025402210               0.000000000               0.247247203               0.028493692               0.000000000               0.270224730               0.031585175               0.000000000               0.293202257               0.034676657               0.000000000               0.316179784               0.037768140               0.000000000               0.339157311               0.040859622               0.000000000               0.362134838               0.043951105               0.000000000               0.385112365               0.047042587               0.000000000               0.408089892               0.050134070               0.000000000               0.431067419               0.053225552               0.000000000               0.454044946               0.056317035               0.000000000               0.477022473               0.059408517               0.000000000               0.500000000               0.062500000               0.000000000               0.130444442               0.025947013               0.000000000               0.153541665               0.032137825               0.000000000               0.176638887               0.038328636               0.000000000               0.199736109               0.044519448               0.000000000               0.222833332               0.050710260               0.000000000               0.245930554               0.056901071               0.000000000               0.269027776               0.063091883               0.000000000               0.292124999               0.069282695               0.000000000               0.315222221               0.075473506               0.000000000               0.338319444               0.081664318               0.000000000               0.361416666               0.087855130               0.000000000               0.384513888               0.094045942               0.000000000               0.407611111               0.100236753               0.000000000               0.430708333               0.106427565               0.000000000               0.453805555               0.112618377               0.000000000               0.476902778               0.118809188               0.000000000               0.500000000               0.125000000               0.000000000               0.127273065               0.038607862               0.000000000               0.150568498               0.047913621               0.000000000               0.173863932               0.057219379               0.000000000               0.197159365               0.066525138               0.000000000               0.220454798               0.075830897               0.000000000               0.243750232               0.085136655               0.000000000               0.267045665               0.094442414               0.000000000               0.290341099               0.103748172               0.000000000               0.313636532               0.113053931               0.000000000               0.336931966               0.122359690               0.000000000               0.360227399               0.131665448               0.000000000               0.383522833               0.140971207               0.000000000               0.406818266               0.150276966               0.000000000               0.430113700               0.159582724               0.000000000               0.453409133               0.168888483               0.000000000               0.476704567               0.178194241               0.000000000               0.500000000               0.187500000               0.000000000               0.122875978               0.050896897               0.000000000               0.146446229               0.063340840               0.000000000               0.170016481               0.075784784               0.000000000               0.193586732               0.088228728               0.000000000               0.217156983               0.100672672               0.000000000               0.240727235               0.113116616               0.000000000               0.264297486               0.125560560               0.000000000               0.287867738               0.138004504               0.000000000               0.311437989               0.150448448               0.000000000               0.335008240               0.162892392               0.000000000               0.358578492               0.175336336               0.000000000               0.382148743               0.187780280               0.000000000               0.405718994               0.200224224               0.000000000               0.429289246               0.212668168               0.000000000               0.452859497               0.225112112               0.000000000               0.476429749               0.237556056               0.000000000               0.500000000               0.250000000               0.000000000               0.117295528               0.062695766               0.000000000               0.141214558               0.078308531               0.000000000               0.165133587               0.093921295               0.000000000               0.189052617               0.109534060               0.000000000               0.212971646               0.125146824               0.000000000               0.236890676               0.140759589               0.000000000               0.260809705               0.156372354               0.000000000               0.284728735               0.171985118               0.000000000               0.308647764               0.187597883               0.000000000               0.332566794               0.203210648               0.000000000               0.356485823               0.218823412               0.000000000               0.380404853               0.234436177               0.000000000               0.404323882               0.250048941               0.000000000               0.428242912               0.265661706               0.000000000               0.452161941               0.281274471               0.000000000               0.476080971               0.296887235               0.000000000               0.500000000               0.312500000               0.000000000               0.110585458               0.073890841               0.000000000               0.134923867               0.092710163               0.000000000               0.159262276               0.111529486               0.000000000               0.183600685               0.130348808               0.000000000               0.207939094               0.149168131               0.000000000               0.232277503               0.167987453               0.000000000               0.256615912               0.186806776               0.000000000               0.280954320               0.205626098               0.000000000               0.305292729               0.224445420               0.000000000               0.329631138               0.243264743               0.000000000               0.353969547               0.262084065               0.000000000               0.378307956               0.280903388               0.000000000               0.402646365               0.299722710               0.000000000               0.426984773               0.318542033               0.000000000               0.451323182               0.337361355               0.000000000               0.475661591               0.356180678               0.000000000               0.500000000               0.375000000               0.000000000               0.102810390               0.084374307               0.000000000               0.127634741               0.106444663               0.000000000               0.152459092               0.128515018               0.000000000               0.177283442               0.150585374               0.000000000               0.202107793               0.172655730               0.000000000               0.226932143               0.194726086               0.000000000               0.251756494               0.216796442               0.000000000               0.276580845               0.238866798               0.000000000               0.301405195               0.260937153               0.000000000               0.326229546               0.283007509               0.000000000               0.351053896               0.305077865               0.000000000               0.375878247               0.327148221               0.000000000               0.400702598               0.349218577               0.000000000               0.425526948               0.371288933               0.000000000               0.450351299               0.393359288               0.000000000               0.475175649               0.415429644               0.000000000               0.500000000               0.437500000               0.000000000               0.094045202               0.094045202               0.000000000               0.119417377               0.119417377               0.000000000               0.144789552               0.144789552               0.000000000               0.170161727               0.170161727               0.000000000               0.195533901               0.195533901               0.000000000               0.220906076               0.220906076               0.000000000               0.246278251               0.246278251               0.000000000               0.271650426               0.271650426               0.000000000               0.297022601               0.297022601               0.000000000               0.322394776               0.322394776               0.000000000               0.347766951               0.347766951               0.000000000               0.373139126               0.373139126               0.000000000               0.398511300               0.398511300               0.000000000               0.423883475               0.423883475               0.000000000               0.449255650               0.449255650               0.000000000               0.474627825               0.474627825               0.000000000               0.500000000               0.500000000               0.000000000               0.084374307               0.102810390               0.000000000               0.106444663               0.127634741               0.000000000               0.128515018               0.152459092               0.000000000               0.150585374               0.177283442               0.000000000               0.172655730               0.202107793               0.000000000               0.194726086               0.226932143               0.000000000               0.216796442               0.251756494               0.000000000               0.238866798               0.276580845               0.000000000               0.260937153               0.301405195               0.000000000               0.283007509               0.326229546               0.000000000               0.305077865               0.351053896               0.000000000               0.327148221               0.375878247               0.000000000               0.349218577               0.400702598               0.000000000               0.371288933               0.425526948               0.000000000               0.393359288               0.450351299               0.000000000               0.415429644               0.475175649               0.000000000               0.437500000               0.500000000               0.000000000               0.073890841               0.110585458               0.000000000               0.092710163               0.134923867               0.000000000               0.111529486               0.159262276               0.000000000               0.130348808               0.183600685               0.000000000               0.149168131               0.207939094               0.000000000               0.167987453               0.232277503               0.000000000               0.186806776               0.256615912               0.000000000               0.205626098               0.280954320               0.000000000               0.224445420               0.305292729               0.000000000               0.243264743               0.329631138               0.000000000               0.262084065               0.353969547               0.000000000               0.280903388               0.378307956               0.000000000               0.299722710               0.402646365               0.000000000               0.318542033               0.426984773               0.000000000               0.337361355               0.451323182               0.000000000               0.356180678               0.475661591               0.000000000               0.375000000               0.500000000               0.000000000               0.062695766               0.117295528               0.000000000               0.078308531               0.141214558               0.000000000               0.093921295               0.165133587               0.000000000               0.109534060               0.189052617               0.000000000               0.125146824               0.212971646               0.000000000               0.140759589               0.236890676               0.000000000               0.156372354               0.260809705               0.000000000               0.171985118               0.284728735               0.000000000               0.187597883               0.308647764               0.000000000               0.203210648               0.332566794               0.000000000               0.218823412               0.356485823               0.000000000               0.234436177               0.380404853               0.000000000               0.250048941               0.404323882               0.000000000               0.265661706               0.428242912               0.000000000               0.281274471               0.452161941               0.000000000               0.296887235               0.476080971               0.000000000               0.312500000               0.500000000               0.000000000               0.050896897               0.122875978               0.000000000               0.063340840               0.146446229               0.000000000               0.075784784               0.170016481               0.000000000               0.088228728               0.193586732               0.000000000               0.100672672               0.217156983               0.000000000               0.113116616               0.240727235               0.000000000               0.125560560               0.264297486               0.000000000               0.138004504               0.287867738               0.000000000               0.150448448               0.311437989               0.000000000               0.162892392               0.335008240               0.000000000               0.175336336               0.358578492               0.000000000               0.187780280               0.382148743               0.000000000               0.200224224               0.405718994               0.000000000               0.212668168               0.429289246               0.000000000               0.225112112               0.452859497               0.000000000               0.237556056               0.476429749               0.000000000               0.250000000               0.500000000               0.000000000               0.038607862               0.127273065               0.000000000               0.047913621               0.150568498               0.000000000               0.057219379               0.173863932               0.000000000               0.066525138               0.197159365               0.000000000               0.075830897               0.220454798               0.000000000               0.085136655               0.243750232               0.000000000               0.094442414               0.267045665               0.000000000               0.103748172               0.290341099               0.000000000               0.113053931               0.313636532               0.000000000               0.122359690               0.336931966               0.000000000               0.131665448               0.360227399               0.000000000               0.140971207               0.383522833               0.000000000               0.150276966               0.406818266               0.000000000               0.159582724               0.430113700               0.000000000               0.168888483               0.453409133               0.000000000               0.178194241               0.476704567               0.000000000               0.187500000               0.500000000               0.000000000               0.025947013               0.130444442               0.000000000               0.032137825               0.153541665               0.000000000               0.038328636               0.176638887               0.000000000               0.044519448               0.199736109               0.000000000               0.050710260               0.222833332               0.000000000               0.056901071               0.245930554               0.000000000               0.063091883               0.269027776               0.000000000               0.069282695               0.292124999               0.000000000               0.075473506               0.315222221               0.000000000               0.081664318               0.338319444               0.000000000               0.087855130               0.361416666               0.000000000               0.094045942               0.384513888               0.000000000               0.100236753               0.407611111               0.000000000               0.106427565               0.430708333               0.000000000               0.112618377               0.453805555               0.000000000               0.118809188               0.476902778               0.000000000               0.125000000               0.500000000               0.000000000               0.013036280               0.132359569               0.000000000               0.016127762               0.155337096               0.000000000               0.019219245               0.178314623               0.000000000               0.022310727               0.201292150               0.000000000               0.025402210               0.224269676               0.000000000               0.028493692               0.247247203               0.000000000               0.031585175               0.270224730               0.000000000               0.034676657               0.293202257               0.000000000               0.037768140               0.316179784               0.000000000               0.040859622               0.339157311               0.000000000               0.043951105               0.362134838               0.000000000               0.047042587               0.385112365               0.000000000               0.050134070               0.408089892               0.000000000               0.053225552               0.431067419               0.000000000               0.056317035               0.454044946               0.000000000               0.059408517               0.477022473               0.000000000               0.062500000               0.500000000               0.000000000               0.000000000               0.133000000               0.000000000               0.000000000               0.155937500               0.000000000               0.000000000               0.178875000               0.000000000               0.000000000               0.201812500               0.000000000               0.000000000               0.224750000               0.000000000               0.000000000               0.247687500               0.000000000               0.000000000               0.270625000               0.000000000               0.000000000               0.293562500               0.000000000               0.000000000               0.316500000               0.000000000               0.000000000               0.339437500               0.000000000               0.000000000               0.362375000               0.000000000               0.000000000               0.385312500               0.000000000               0.000000000               0.408250000               0.000000000               0.000000000               0.431187500               0.000000000               0.000000000               0.454125000               0.000000000               0.000000000               0.477062500               0.000000000               0.000000000               0.500000000               0.000000000               0.133000000               0.000000000               0.000000000               0.155937500               0.000000000               0.000000000               0.178875000               0.000000000               0.000000000               0.201812500               0.000000000               0.000000000               0.224750000               0.000000000               0.000000000               0.247687500               0.000000000               0.000000000               0.270625000               0.000000000               0.000000000               0.293562500               0.000000000               0.000000000               0.316500000               0.000000000               0.000000000               0.339437500               0.000000000               0.000000000               0.362375000               0.000000000               0.000000000               0.385312500               0.000000000               0.000000000               0.408250000               0.000000000               0.000000000               0.431187500               0.000000000               0.000000000               0.454125000               0.000000000               0.000000000               0.477062500               0.000000000               0.000000000               0.500000000               0.000000000               0.000000000               0.132359569              -0.013036280               0.000000000               0.155337096              -0.016127762               0.000000000               0.178314623              -0.019219245               0.000000000               0.201292150              -0.022310727               0.000000000               0.224269676              -0.025402210               0.000000000               0.247247203              -0.028493692               0.000000000               0.270224730              -0.031585175               0.000000000               0.293202257              -0.034676657               0.000000000               0.316179784              -0.037768140               0.000000000               0.339157311              -0.040859622               0.000000000               0.362134838              -0.043951105               0.000000000               0.385112365              -0.047042587               0.000000000               0.408089892              -0.050134070               0.000000000               0.431067419              -0.053225552               0.000000000               0.454044946              -0.056317035               0.000000000               0.477022473              -0.059408517               0.000000000               0.500000000              -0.062500000               0.000000000               0.130444442              -0.025947013               0.000000000               0.153541665              -0.032137825               0.000000000               0.176638887              -0.038328636               0.000000000               0.199736109              -0.044519448               0.000000000               0.222833332              -0.050710260               0.000000000               0.245930554              -0.056901071               0.000000000               0.269027776              -0.063091883               0.000000000               0.292124999              -0.069282695               0.000000000               0.315222221              -0.075473506               0.000000000               0.338319444              -0.081664318               0.000000000               0.361416666              -0.087855130               0.000000000               0.384513888              -0.094045942               0.000000000               0.407611111              -0.100236753               0.000000000               0.430708333              -0.106427565               0.000000000               0.453805555              -0.112618377               0.000000000               0.476902778              -0.118809188               0.000000000               0.500000000              -0.125000000               0.000000000               0.127273065              -0.038607862               0.000000000               0.150568498              -0.047913621               0.000000000               0.173863932              -0.057219379               0.000000000               0.197159365              -0.066525138               0.000000000               0.220454798              -0.075830897               0.000000000               0.243750232              -0.085136655               0.000000000               0.267045665              -0.094442414               0.000000000               0.290341099              -0.103748172               0.000000000               0.313636532              -0.113053931               0.000000000               0.336931966              -0.122359690               0.000000000               0.360227399              -0.131665448               0.000000000               0.383522833              -0.140971207               0.000000000               0.406818266              -0.150276966               0.000000000               0.430113700              -0.159582724               0.000000000               0.453409133              -0.168888483               0.000000000               0.476704567              -0.178194241               0.000000000               0.500000000              -0.187500000               0.000000000               0.122875978              -0.050896897               0.000000000               0.146446229              -0.063340840               0.000000000               0.170016481              -0.075784784               0.000000000               0.193586732              -0.088228728               0.000000000               0.217156983              -0.100672672               0.000000000               0.240727235              -0.113116616               0.000000000               0.264297486              -0.125560560               0.000000000               0.287867738              -0.138004504               0.000000000               0.311437989              -0.150448448               0.000000000               0.335008240              -0.162892392               0.000000000               0.358578492              -0.175336336               0.000000000               0.382148743              -0.187780280               0.000000000               0.405718994              -0.200224224               0.000000000               0.429289246              -0.212668168               0.000000000               0.452859497              -0.225112112               0.000000000               0.476429749              -0.237556056               0.000000000               0.500000000              -0.250000000               0.000000000               0.117295528              -0.062695766               0.000000000               0.141214558              -0.078308531               0.000000000               0.165133587              -0.093921295               0.000000000               0.189052617              -0.109534060               0.000000000               0.212971646              -0.125146824               0.000000000               0.236890676              -0.140759589               0.000000000               0.260809705              -0.156372354               0.000000000               0.284728735              -0.171985118               0.000000000               0.308647764              -0.187597883               0.000000000               0.332566794              -0.203210648               0.000000000               0.356485823              -0.218823412               0.000000000               0.380404853              -0.234436177               0.000000000               0.404323882              -0.250048941               0.000000000               0.428242912              -0.265661706               0.000000000               0.452161941              -0.281274471               0.000000000               0.476080971              -0.296887235               0.000000000               0.500000000              -0.312500000               0.000000000               0.110585458              -0.073890841               0.000000000               0.134923867              -0.092710163               0.000000000               0.159262276              -0.111529486               0.000000000               0.183600685              -0.130348808               0.000000000               0.207939094              -0.149168131               0.000000000               0.232277503              -0.167987453               0.000000000               0.256615912              -0.186806776               0.000000000               0.280954320              -0.205626098               0.000000000               0.305292729              -0.224445420               0.000000000               0.329631138              -0.243264743               0.000000000               0.353969547              -0.262084065               0.000000000               0.378307956              -0.280903388               0.000000000               0.402646365              -0.299722710               0.000000000               0.426984773              -0.318542033               0.000000000               0.451323182              -0.337361355               0.000000000               0.475661591              -0.356180678               0.000000000               0.500000000              -0.375000000               0.000000000               0.102810390              -0.084374307               0.000000000               0.127634741              -0.106444663               0.000000000               0.152459092              -0.128515018               0.000000000               0.177283442              -0.150585374               0.000000000               0.202107793              -0.172655730               0.000000000               0.226932143              -0.194726086               0.000000000               0.251756494              -0.216796442               0.000000000               0.276580845              -0.238866798               0.000000000               0.301405195              -0.260937153               0.000000000               0.326229546              -0.283007509               0.000000000               0.351053896              -0.305077865               0.000000000               0.375878247              -0.327148221               0.000000000               0.400702598              -0.349218577               0.000000000               0.425526948              -0.371288933               0.000000000               0.450351299              -0.393359288               0.000000000               0.475175649              -0.415429644               0.000000000               0.500000000              -0.437500000               0.000000000               0.094045202              -0.094045202               0.000000000               0.119417377              -0.119417377               0.000000000               0.144789552              -0.144789552               0.000000000               0.170161727              -0.170161727               0.000000000               0.195533901              -0.195533901               0.000000000               0.220906076              -0.220906076               0.000000000               0.246278251              -0.246278251               0.000000000               0.271650426              -0.271650426               0.000000000               0.297022601              -0.297022601               0.000000000               0.322394776              -0.322394776               0.000000000               0.347766951              -0.347766951               0.000000000               0.373139126              -0.373139126               0.000000000               0.398511300              -0.398511300               0.000000000               0.423883475              -0.423883475               0.000000000               0.449255650              -0.449255650               0.000000000               0.474627825              -0.474627825               0.000000000               0.500000000              -0.500000000               0.000000000               0.084374307              -0.102810390               0.000000000               0.106444663              -0.127634741               0.000000000               0.128515018              -0.152459092               0.000000000               0.150585374              -0.177283442               0.000000000               0.172655730              -0.202107793               0.000000000               0.194726086              -0.226932143               0.000000000               0.216796442              -0.251756494               0.000000000               0.238866798              -0.276580845               0.000000000               0.260937153              -0.301405195               0.000000000               0.283007509              -0.326229546               0.000000000               0.305077865              -0.351053896               0.000000000               0.327148221              -0.375878247               0.000000000               0.349218577              -0.400702598               0.000000000               0.371288933              -0.425526948               0.000000000               0.393359288              -0.450351299               0.000000000               0.415429644              -0.475175649               0.000000000               0.437500000              -0.500000000               0.000000000               0.073890841              -0.110585458               0.000000000               0.092710163              -0.134923867               0.000000000               0.111529486              -0.159262276               0.000000000               0.130348808              -0.183600685               0.000000000               0.149168131              -0.207939094               0.000000000               0.167987453              -0.232277503               0.000000000               0.186806776              -0.256615912               0.000000000               0.205626098              -0.280954320               0.000000000               0.224445420              -0.305292729               0.000000000               0.243264743              -0.329631138               0.000000000               0.262084065              -0.353969547               0.000000000               0.280903388              -0.378307956               0.000000000               0.299722710              -0.402646365               0.000000000               0.318542033              -0.426984773               0.000000000               0.337361355              -0.451323182               0.000000000               0.356180678              -0.475661591               0.000000000               0.375000000              -0.500000000               0.000000000               0.062695766              -0.117295528               0.000000000               0.078308531              -0.141214558               0.000000000               0.093921295              -0.165133587               0.000000000               0.109534060              -0.189052617               0.000000000               0.125146824              -0.212971646               0.000000000               0.140759589              -0.236890676               0.000000000               0.156372354              -0.260809705               0.000000000               0.171985118              -0.284728735               0.000000000               0.187597883              -0.308647764               0.000000000               0.203210648              -0.332566794               0.000000000               0.218823412              -0.356485823               0.000000000               0.234436177              -0.380404853               0.000000000               0.250048941              -0.404323882               0.000000000               0.265661706              -0.428242912               0.000000000               0.281274471              -0.452161941               0.000000000               0.296887235              -0.476080971               0.000000000               0.312500000              -0.500000000               0.000000000               0.050896897              -0.122875978               0.000000000               0.063340840              -0.146446229               0.000000000               0.075784784              -0.170016481               0.000000000               0.088228728              -0.193586732               0.000000000               0.100672672              -0.217156983               0.000000000               0.113116616              -0.240727235               0.000000000               0.125560560              -0.264297486               0.000000000               0.138004504              -0.287867738               0.000000000               0.150448448              -0.311437989               0.000000000               0.162892392              -0.335008240               0.000000000               0.175336336              -0.358578492               0.000000000               0.187780280              -0.382148743               0.000000000               0.200224224              -0.405718994               0.000000000               0.212668168              -0.429289246               0.000000000               0.225112112              -0.452859497               0.000000000               0.237556056              -0.476429749               0.000000000               0.250000000              -0.500000000               0.000000000               0.038607862              -0.127273065               0.000000000               0.047913621              -0.150568498               0.000000000               0.057219379              -0.173863932               0.000000000               0.066525138              -0.197159365               0.000000000               0.075830897              -0.220454798               0.000000000               0.085136655              -0.243750232               0.000000000               0.094442414              -0.267045665               0.000000000               0.103748172              -0.290341099               0.000000000               0.113053931              -0.313636532               0.000000000               0.122359690              -0.336931966               0.000000000               0.131665448              -0.360227399               0.000000000               0.140971207              -0.383522833               0.000000000               0.150276966              -0.406818266               0.000000000               0.159582724              -0.430113700               0.000000000               0.168888483              -0.453409133               0.000000000               0.178194241              -0.476704567               0.000000000               0.187500000              -0.500000000               0.000000000               0.025947013              -0.130444442               0.000000000               0.032137825              -0.153541665               0.000000000               0.038328636              -0.176638887               0.000000000               0.044519448              -0.199736109               0.000000000               0.050710260              -0.222833332               0.000000000               0.056901071              -0.245930554               0.000000000               0.063091883              -0.269027776               0.000000000               0.069282695              -0.292124999               0.000000000               0.075473506              -0.315222221               0.000000000               0.081664318              -0.338319444               0.000000000               0.087855130              -0.361416666               0.000000000               0.094045942              -0.384513888               0.000000000               0.100236753              -0.407611111               0.000000000               0.106427565              -0.430708333               0.000000000               0.112618377              -0.453805555               0.000000000               0.118809188              -0.476902778               0.000000000               0.125000000              -0.500000000               0.000000000               0.013036280              -0.132359569               0.000000000               0.016127762              -0.155337096               0.000000000               0.019219245              -0.178314623               0.000000000               0.022310727              -0.201292150               0.000000000               0.025402210              -0.224269676               0.000000000               0.028493692              -0.247247203               0.000000000               0.031585175              -0.270224730               0.000000000               0.034676657              -0.293202257               0.000000000               0.037768140              -0.316179784               0.000000000               0.040859622              -0.339157311               0.000000000               0.043951105              -0.362134838               0.000000000               0.047042587              -0.385112365               0.000000000               0.050134070              -0.408089892               0.000000000               0.053225552              -0.431067419               0.000000000               0.056317035              -0.454044946               0.000000000               0.059408517              -0.477022473               0.000000000               0.062500000              -0.500000000               0.000000000               0.000000000              -0.133000000               0.000000000               0.000000000              -0.155937500               0.000000000               0.000000000              -0.178875000               0.000000000               0.000000000              -0.201812500               0.000000000               0.000000000              -0.224750000               0.000000000               0.000000000              -0.247687500               0.000000000               0.000000000              -0.270625000               0.000000000               0.000000000              -0.293562500               0.000000000               0.000000000              -0.316500000               0.000000000               0.000000000              -0.339437500               0.000000000               0.000000000              -0.362375000               0.000000000               0.000000000              -0.385312500               0.000000000               0.000000000              -0.408250000               0.000000000               0.000000000              -0.431187500               0.000000000               0.000000000              -0.454125000               0.000000000               0.000000000              -0.477062500               0.000000000               0.000000000              -0.500000000               0.000000000              -0.133000000               0.000000000               0.000000000              -0.155937500               0.000000000               0.000000000              -0.178875000               0.000000000               0.000000000              -0.201812500               0.000000000               0.000000000              -0.224750000               0.000000000               0.000000000              -0.247687500               0.000000000               0.000000000              -0.270625000               0.000000000               0.000000000              -0.293562500               0.000000000               0.000000000              -0.316500000               0.000000000               0.000000000              -0.339437500               0.000000000               0.000000000              -0.362375000               0.000000000               0.000000000              -0.385312500               0.000000000               0.000000000              -0.408250000               0.000000000               0.000000000              -0.431187500               0.000000000               0.000000000              -0.454125000               0.000000000               0.000000000              -0.477062500               0.000000000               0.000000000              -0.500000000               0.000000000               0.000000000              -0.132359569              -0.013036280               0.000000000              -0.155337096              -0.016127762               0.000000000              -0.178314623              -0.019219245               0.000000000              -0.201292150              -0.022310727               0.000000000              -0.224269676              -0.025402210               0.000000000              -0.247247203              -0.028493692               0.000000000              -0.270224730              -0.031585175               0.000000000              -0.293202257              -0.034676657               0.000000000              -0.316179784              -0.037768140               0.000000000              -0.339157311              -0.040859622               0.000000000              -0.362134838              -0.043951105               0.000000000              -0.385112365              -0.047042587               0.000000000              -0.408089892              -0.050134070               0.000000000              -0.431067419              -0.053225552               0.000000000              -0.454044946              -0.056317035               0.000000000              -0.477022473              -0.059408517               0.000000000              -0.500000000              -0.062500000               0.000000000              -0.130444442              -0.025947013               0.000000000              -0.153541665              -0.032137825               0.000000000              -0.176638887              -0.038328636               0.000000000              -0.199736109              -0.044519448               0.000000000              -0.222833332              -0.050710260               0.000000000              -0.245930554              -0.056901071               0.000000000              -0.269027776              -0.063091883               0.000000000              -0.292124999              -0.069282695               0.000000000              -0.315222221              -0.075473506               0.000000000              -0.338319444              -0.081664318               0.000000000              -0.361416666              -0.087855130               0.000000000              -0.384513888              -0.094045942               0.000000000              -0.407611111              -0.100236753               0.000000000              -0.430708333              -0.106427565               0.000000000              -0.453805555              -0.112618377               0.000000000              -0.476902778              -0.118809188               0.000000000              -0.500000000              -0.125000000               0.000000000              -0.127273065              -0.038607862               0.000000000              -0.150568498              -0.047913621               0.000000000              -0.173863932              -0.057219379               0.000000000              -0.197159365              -0.066525138               0.000000000              -0.220454798              -0.075830897               0.000000000              -0.243750232              -0.085136655               0.000000000              -0.267045665              -0.094442414               0.000000000              -0.290341099              -0.103748172               0.000000000              -0.313636532              -0.113053931               0.000000000              -0.336931966              -0.122359690               0.000000000              -0.360227399              -0.131665448               0.000000000              -0.383522833              -0.140971207               0.000000000              -0.406818266              -0.150276966               0.000000000              -0.430113700              -0.159582724               0.000000000              -0.453409133              -0.168888483               0.000000000              -0.476704567              -0.178194241               0.000000000              -0.500000000              -0.187500000               0.000000000              -0.122875978              -0.050896897               0.000000000              -0.146446229              -0.063340840               0.000000000              -0.170016481              -0.075784784               0.000000000              -0.193586732              -0.088228728               0.000000000              -0.217156983              -0.100672672               0.000000000              -0.240727235              -0.113116616               0.000000000              -0.264297486              -0.125560560               0.000000000              -0.287867738              -0.138004504               0.000000000              -0.311437989              -0.150448448               0.000000000              -0.335008240              -0.162892392               0.000000000              -0.358578492              -0.175336336               0.000000000              -0.382148743              -0.187780280               0.000000000              -0.405718994              -0.200224224               0.000000000              -0.429289246              -0.212668168               0.000000000              -0.452859497              -0.225112112               0.000000000              -0.476429749              -0.237556056               0.000000000              -0.500000000              -0.250000000               0.000000000              -0.117295528              -0.062695766               0.000000000              -0.141214558              -0.078308531               0.000000000              -0.165133587              -0.093921295               0.000000000              -0.189052617              -0.109534060               0.000000000              -0.212971646              -0.125146824               0.000000000              -0.236890676              -0.140759589               0.000000000              -0.260809705              -0.156372354               0.000000000              -0.284728735              -0.171985118               0.000000000              -0.308647764              -0.187597883               0.000000000              -0.332566794              -0.203210648               0.000000000              -0.356485823              -0.218823412               0.000000000              -0.380404853              -0.234436177               0.000000000              -0.404323882              -0.250048941               0.000000000              -0.428242912              -0.265661706               0.000000000              -0.452161941              -0.281274471               0.000000000              -0.476080971              -0.296887235               0.000000000              -0.500000000              -0.312500000               0.000000000              -0.110585458              -0.073890841               0.000000000              -0.134923867              -0.092710163               0.000000000              -0.159262276              -0.111529486               0.000000000              -0.183600685              -0.130348808               0.000000000              -0.207939094              -0.149168131               0.000000000              -0.232277503              -0.167987453               0.000000000              -0.256615912              -0.186806776               0.000000000              -0.280954320              -0.205626098               0.000000000              -0.305292729              -0.224445420               0.000000000              -0.329631138              -0.243264743               0.000000000              -0.353969547              -0.262084065               0.000000000              -0.378307956              -0.280903388               0.000000000              -0.402646365              -0.299722710               0.000000000              -0.426984773              -0.318542033               0.000000000              -0.451323182              -0.337361355               0.000000000              -0.475661591              -0.356180678               0.000000000              -0.500000000              -0.375000000               0.000000000              -0.102810390              -0.084374307               0.000000000              -0.127634741              -0.106444663               0.000000000              -0.152459092              -0.128515018               0.000000000              -0.177283442              -0.150585374               0.000000000              -0.202107793              -0.172655730               0.000000000              -0.226932143              -0.194726086               0.000000000              -0.251756494              -0.216796442               0.000000000              -0.276580845              -0.238866798               0.000000000              -0.301405195              -0.260937153               0.000000000              -0.326229546              -0.283007509               0.000000000              -0.351053896              -0.305077865               0.000000000              -0.375878247              -0.327148221               0.000000000              -0.400702598              -0.349218577               0.000000000              -0.425526948              -0.371288933               0.000000000              -0.450351299              -0.393359288               0.000000000              -0.475175649              -0.415429644               0.000000000              -0.500000000              -0.437500000               0.000000000              -0.094045202              -0.094045202               0.000000000              -0.119417377              -0.119417377               0.000000000              -0.144789552              -0.144789552               0.000000000              -0.170161727              -0.170161727               0.000000000              -0.195533901              -0.195533901               0.000000000              -0.220906076              -0.220906076               0.000000000              -0.246278251              -0.246278251               0.000000000              -0.271650426              -0.271650426               0.000000000              -0.297022601              -0.297022601               0.000000000              -0.322394776              -0.322394776               0.000000000              -0.347766951              -0.347766951               0.000000000              -0.373139126              -0.373139126               0.000000000              -0.398511300              -0.398511300               0.000000000              -0.423883475              -0.423883475               0.000000000              -0.449255650              -0.449255650               0.000000000              -0.474627825              -0.474627825               0.000000000              -0.500000000              -0.500000000               0.000000000              -0.084374307              -0.102810390               0.000000000              -0.106444663              -0.127634741               0.000000000              -0.128515018              -0.152459092               0.000000000              -0.150585374              -0.177283442               0.000000000              -0.172655730              -0.202107793               0.000000000              -0.194726086              -0.226932143               0.000000000              -0.216796442              -0.251756494               0.000000000              -0.238866798              -0.276580845               0.000000000              -0.260937153              -0.301405195               0.000000000              -0.283007509              -0.326229546               0.000000000              -0.305077865              -0.351053896               0.000000000              -0.327148221              -0.375878247               0.000000000              -0.349218577              -0.400702598               0.000000000              -0.371288933              -0.425526948               0.000000000              -0.393359288              -0.450351299               0.000000000              -0.415429644              -0.475175649               0.000000000              -0.437500000              -0.500000000               0.000000000              -0.073890841              -0.110585458               0.000000000              -0.092710163              -0.134923867               0.000000000              -0.111529486              -0.159262276               0.000000000              -0.130348808              -0.183600685               0.000000000              -0.149168131              -0.207939094               0.000000000              -0.167987453              -0.232277503               0.000000000              -0.186806776              -0.256615912               0.000000000              -0.205626098              -0.280954320               0.000000000              -0.224445420              -0.305292729               0.000000000              -0.243264743              -0.329631138               0.000000000              -0.262084065              -0.353969547               0.000000000              -0.280903388              -0.378307956               0.000000000              -0.299722710              -0.402646365               0.000000000              -0.318542033              -0.426984773               0.000000000              -0.337361355              -0.451323182               0.000000000              -0.356180678              -0.475661591               0.000000000              -0.375000000              -0.500000000               0.000000000              -0.062695766              -0.117295528               0.000000000              -0.078308531              -0.141214558               0.000000000              -0.093921295              -0.165133587               0.000000000              -0.109534060              -0.189052617               0.000000000              -0.125146824              -0.212971646               0.000000000              -0.140759589              -0.236890676               0.000000000              -0.156372354              -0.260809705               0.000000000              -0.171985118              -0.284728735               0.000000000              -0.187597883              -0.308647764               0.000000000              -0.203210648              -0.332566794               0.000000000              -0.218823412              -0.356485823               0.000000000              -0.234436177              -0.380404853               0.000000000              -0.250048941              -0.404323882               0.000000000              -0.265661706              -0.428242912               0.000000000              -0.281274471              -0.452161941               0.000000000              -0.296887235              -0.476080971               0.000000000              -0.312500000              -0.500000000               0.000000000              -0.050896897              -0.122875978               0.000000000              -0.063340840              -0.146446229               0.000000000              -0.075784784              -0.170016481               0.000000000              -0.088228728              -0.193586732               0.000000000              -0.100672672              -0.217156983               0.000000000              -0.113116616              -0.240727235               0.000000000              -0.125560560              -0.264297486               0.000000000              -0.138004504              -0.287867738               0.000000000              -0.150448448              -0.311437989               0.000000000              -0.162892392              -0.335008240               0.000000000              -0.175336336              -0.358578492               0.000000000              -0.187780280              -0.382148743               0.000000000              -0.200224224              -0.405718994               0.000000000              -0.212668168              -0.429289246               0.000000000              -0.225112112              -0.452859497               0.000000000              -0.237556056              -0.476429749               0.000000000              -0.250000000              -0.500000000               0.000000000              -0.038607862              -0.127273065               0.000000000              -0.047913621              -0.150568498               0.000000000              -0.057219379              -0.173863932               0.000000000              -0.066525138              -0.197159365               0.000000000              -0.075830897              -0.220454798               0.000000000              -0.085136655              -0.243750232               0.000000000              -0.094442414              -0.267045665               0.000000000              -0.103748172              -0.290341099               0.000000000              -0.113053931              -0.313636532               0.000000000              -0.122359690              -0.336931966               0.000000000              -0.131665448              -0.360227399               0.000000000              -0.140971207              -0.383522833               0.000000000              -0.150276966              -0.406818266               0.000000000              -0.159582724              -0.430113700               0.000000000              -0.168888483              -0.453409133               0.000000000              -0.178194241              -0.476704567               0.000000000              -0.187500000              -0.500000000               0.000000000              -0.025947013              -0.130444442               0.000000000              -0.032137825              -0.153541665               0.000000000              -0.038328636              -0.176638887               0.000000000              -0.044519448              -0.199736109               0.000000000              -0.050710260              -0.222833332               0.000000000              -0.056901071              -0.245930554               0.000000000              -0.063091883              -0.269027776               0.000000000              -0.069282695              -0.292124999               0.000000000              -0.075473506              -0.315222221               0.000000000              -0.081664318              -0.338319444               0.000000000              -0.087855130              -0.361416666               0.000000000              -0.094045942              -0.384513888               0.000000000              -0.100236753              -0.407611111               0.000000000              -0.106427565              -0.430708333               0.000000000              -0.112618377              -0.453805555               0.000000000              -0.118809188              -0.476902778               0.000000000              -0.125000000              -0.500000000               0.000000000              -0.013036280              -0.132359569               0.000000000              -0.016127762              -0.155337096               0.000000000              -0.019219245              -0.178314623               0.000000000              -0.022310727              -0.201292150               0.000000000              -0.025402210              -0.224269676               0.000000000              -0.028493692              -0.247247203               0.000000000              -0.031585175              -0.270224730               0.000000000              -0.034676657              -0.293202257               0.000000000              -0.037768140              -0.316179784               0.000000000              -0.040859622              -0.339157311               0.000000000              -0.043951105              -0.362134838               0.000000000              -0.047042587              -0.385112365               0.000000000              -0.050134070              -0.408089892               0.000000000              -0.053225552              -0.431067419               0.000000000              -0.056317035              -0.454044946               0.000000000              -0.059408517              -0.477022473               0.000000000              -0.062500000              -0.500000000               0.000000000               0.000000000              -0.133000000               0.000000000               0.000000000              -0.155937500               0.000000000               0.000000000              -0.178875000               0.000000000               0.000000000              -0.201812500               0.000000000               0.000000000              -0.224750000               0.000000000               0.000000000              -0.247687500               0.000000000               0.000000000              -0.270625000               0.000000000               0.000000000              -0.293562500               0.000000000               0.000000000              -0.316500000               0.000000000               0.000000000              -0.339437500               0.000000000               0.000000000              -0.362375000               0.000000000               0.000000000              -0.385312500               0.000000000               0.000000000              -0.408250000               0.000000000               0.000000000              -0.431187500               0.000000000               0.000000000              -0.454125000               0.000000000               0.000000000              -0.477062500               0.000000000               0.000000000              -0.500000000               0.000000000              -0.133000000               0.000000000               0.000000000              -0.155937500               0.000000000               0.000000000              -0.178875000               0.000000000               0.000000000              -0.201812500               0.000000000               0.000000000              -0.224750000               0.000000000               0.000000000              -0.247687500               0.000000000               0.000000000              -0.270625000               0.000000000               0.000000000              -0.293562500               0.000000000               0.000000000              -0.316500000               0.000000000               0.000000000              -0.339437500               0.000000000               0.000000000              -0.362375000               0.000000000               0.000000000              -0.385312500               0.000000000               0.000000000              -0.408250000               0.000000000               0.000000000              -0.431187500               0.000000000               0.000000000              -0.454125000               0.000000000               0.000000000              -0.477062500               0.000000000               0.000000000              -0.500000000               0.000000000               0.000000000              -0.132359569               0.013036280               0.000000000              -0.155337096               0.016127762               0.000000000              -0.178314623               0.019219245               0.000000000              -0.201292150               0.022310727               0.000000000              -0.224269676               0.025402210               0.000000000              -0.247247203               0.028493692               0.000000000              -0.270224730               0.031585175               0.000000000              -0.293202257               0.034676657               0.000000000              -0.316179784               0.037768140               0.000000000              -0.339157311               0.040859622               0.000000000              -0.362134838               0.043951105               0.000000000              -0.385112365               0.047042587               0.000000000              -0.408089892               0.050134070               0.000000000              -0.431067419               0.053225552               0.000000000              -0.454044946               0.056317035               0.000000000              -0.477022473               0.059408517               0.000000000              -0.500000000               0.062500000               0.000000000              -0.130444442               0.025947013               0.000000000              -0.153541665               0.032137825               0.000000000              -0.176638887               0.038328636               0.000000000              -0.199736109               0.044519448               0.000000000              -0.222833332               0.050710260               0.000000000              -0.245930554               0.056901071               0.000000000              -0.269027776               0.063091883               0.000000000              -0.292124999               0.069282695               0.000000000              -0.315222221               0.075473506               0.000000000              -0.338319444               0.081664318               0.000000000              -0.361416666               0.087855130               0.000000000              -0.384513888               0.094045942               0.000000000              -0.407611111               0.100236753               0.000000000              -0.430708333               0.106427565               0.000000000              -0.453805555               0.112618377               0.000000000              -0.476902778               0.118809188               0.000000000              -0.500000000               0.125000000               0.000000000              -0.127273065               0.038607862               0.000000000              -0.150568498               0.047913621               0.000000000              -0.173863932               0.057219379               0.000000000              -0.197159365               0.066525138               0.000000000              -0.220454798               0.075830897               0.000000000              -0.243750232               0.085136655               0.000000000              -0.267045665               0.094442414               0.000000000              -0.290341099               0.103748172               0.000000000              -0.313636532               0.113053931               0.000000000              -0.336931966               0.122359690               0.000000000              -0.360227399               0.131665448               0.000000000              -0.383522833               0.140971207               0.000000000              -0.406818266               0.150276966               0.000000000              -0.430113700               0.159582724               0.000000000              -0.453409133               0.168888483               0.000000000              -0.476704567               0.178194241               0.000000000              -0.500000000               0.187500000               0.000000000              -0.122875978               0.050896897               0.000000000              -0.146446229               0.063340840               0.000000000              -0.170016481               0.075784784               0.000000000              -0.193586732               0.088228728               0.000000000              -0.217156983               0.100672672               0.000000000              -0.240727235               0.113116616               0.000000000              -0.264297486               0.125560560               0.000000000              -0.287867738               0.138004504               0.000000000              -0.311437989               0.150448448               0.000000000              -0.335008240               0.162892392               0.000000000              -0.358578492               0.175336336               0.000000000              -0.382148743               0.187780280               0.000000000              -0.405718994               0.200224224               0.000000000              -0.429289246               0.212668168               0.000000000              -0.452859497               0.225112112               0.000000000              -0.476429749               0.237556056               0.000000000              -0.500000000               0.250000000               0.000000000              -0.117295528               0.062695766               0.000000000              -0.141214558               0.078308531               0.000000000              -0.165133587               0.093921295               0.000000000              -0.189052617               0.109534060               0.000000000              -0.212971646               0.125146824               0.000000000              -0.236890676               0.140759589               0.000000000              -0.260809705               0.156372354               0.000000000              -0.284728735               0.171985118               0.000000000              -0.308647764               0.187597883               0.000000000              -0.332566794               0.203210648               0.000000000              -0.356485823               0.218823412               0.000000000              -0.380404853               0.234436177               0.000000000              -0.404323882               0.250048941               0.000000000              -0.428242912               0.265661706               0.000000000              -0.452161941               0.281274471               0.000000000              -0.476080971               0.296887235               0.000000000              -0.500000000               0.312500000               0.000000000              -0.110585458               0.073890841               0.000000000              -0.134923867               0.092710163               0.000000000              -0.159262276               0.111529486               0.000000000              -0.183600685               0.130348808               0.000000000              -0.207939094               0.149168131               0.000000000              -0.232277503               0.167987453               0.000000000              -0.256615912               0.186806776               0.000000000              -0.280954320               0.205626098               0.000000000              -0.305292729               0.224445420               0.000000000              -0.329631138               0.243264743               0.000000000              -0.353969547               0.262084065               0.000000000              -0.378307956               0.280903388               0.000000000              -0.402646365               0.299722710               0.000000000              -0.426984773               0.318542033               0.000000000              -0.451323182               0.337361355               0.000000000              -0.475661591               0.356180678               0.000000000              -0.500000000               0.375000000               0.000000000              -0.102810390               0.084374307               0.000000000              -0.127634741               0.106444663               0.000000000              -0.152459092               0.128515018               0.000000000              -0.177283442               0.150585374               0.000000000              -0.202107793               0.172655730               0.000000000              -0.226932143               0.194726086               0.000000000              -0.251756494               0.216796442               0.000000000              -0.276580845               0.238866798               0.000000000              -0.301405195               0.260937153               0.000000000              -0.326229546               0.283007509               0.000000000              -0.351053896               0.305077865               0.000000000              -0.375878247               0.327148221               0.000000000              -0.400702598               0.349218577               0.000000000              -0.425526948               0.371288933               0.000000000              -0.450351299               0.393359288               0.000000000              -0.475175649               0.415429644               0.000000000              -0.500000000               0.437500000               0.000000000              -0.094045202               0.094045202               0.000000000              -0.119417377               0.119417377               0.000000000              -0.144789552               0.144789552               0.000000000              -0.170161727               0.170161727               0.000000000              -0.195533901               0.195533901               0.000000000              -0.220906076               0.220906076               0.000000000              -0.246278251               0.246278251               0.000000000              -0.271650426               0.271650426               0.000000000              -0.297022601               0.297022601               0.000000000              -0.322394776               0.322394776               0.000000000              -0.347766951               0.347766951               0.000000000              -0.373139126               0.373139126               0.000000000              -0.398511300               0.398511300               0.000000000              -0.423883475               0.423883475               0.000000000              -0.449255650               0.449255650               0.000000000              -0.474627825               0.474627825               0.000000000              -0.500000000               0.500000000               0.000000000              -0.084374307               0.102810390               0.000000000              -0.106444663               0.127634741               0.000000000              -0.128515018               0.152459092               0.000000000              -0.150585374               0.177283442               0.000000000              -0.172655730               0.202107793               0.000000000              -0.194726086               0.226932143               0.000000000              -0.216796442               0.251756494               0.000000000              -0.238866798               0.276580845               0.000000000              -0.260937153               0.301405195               0.000000000              -0.283007509               0.326229546               0.000000000              -0.305077865               0.351053896               0.000000000              -0.327148221               0.375878247               0.000000000              -0.349218577               0.400702598               0.000000000              -0.371288933               0.425526948               0.000000000              -0.393359288               0.450351299               0.000000000              -0.415429644               0.475175649               0.000000000              -0.437500000               0.500000000               0.000000000              -0.073890841               0.110585458               0.000000000              -0.092710163               0.134923867               0.000000000              -0.111529486               0.159262276               0.000000000              -0.130348808               0.183600685               0.000000000              -0.149168131               0.207939094               0.000000000              -0.167987453               0.232277503               0.000000000              -0.186806776               0.256615912               0.000000000              -0.205626098               0.280954320               0.000000000              -0.224445420               0.305292729               0.000000000              -0.243264743               0.329631138               0.000000000              -0.262084065               0.353969547               0.000000000              -0.280903388               0.378307956               0.000000000              -0.299722710               0.402646365               0.000000000              -0.318542033               0.426984773               0.000000000              -0.337361355               0.451323182               0.000000000              -0.356180678               0.475661591               0.000000000              -0.375000000               0.500000000               0.000000000              -0.062695766               0.117295528               0.000000000              -0.078308531               0.141214558               0.000000000              -0.093921295               0.165133587               0.000000000              -0.109534060               0.189052617               0.000000000              -0.125146824               0.212971646               0.000000000              -0.140759589               0.236890676               0.000000000              -0.156372354               0.260809705               0.000000000              -0.171985118               0.284728735               0.000000000              -0.187597883               0.308647764               0.000000000              -0.203210648               0.332566794               0.000000000              -0.218823412               0.356485823               0.000000000              -0.234436177               0.380404853               0.000000000              -0.250048941               0.404323882               0.000000000              -0.265661706               0.428242912               0.000000000              -0.281274471               0.452161941               0.000000000              -0.296887235               0.476080971               0.000000000              -0.312500000               0.500000000               0.000000000              -0.050896897               0.122875978               0.000000000              -0.063340840               0.146446229               0.000000000              -0.075784784               0.170016481               0.000000000              -0.088228728               0.193586732               0.000000000              -0.100672672               0.217156983               0.000000000              -0.113116616               0.240727235               0.000000000              -0.125560560               0.264297486               0.000000000              -0.138004504               0.287867738               0.000000000              -0.150448448               0.311437989               0.000000000              -0.162892392               0.335008240               0.000000000              -0.175336336               0.358578492               0.000000000              -0.187780280               0.382148743               0.000000000              -0.200224224               0.405718994               0.000000000              -0.212668168               0.429289246               0.000000000              -0.225112112               0.452859497               0.000000000              -0.237556056               0.476429749               0.000000000              -0.250000000               0.500000000               0.000000000              -0.038607862               0.127273065               0.000000000              -0.047913621               0.150568498               0.000000000              -0.057219379               0.173863932               0.000000000              -0.066525138               0.197159365               0.000000000              -0.075830897               0.220454798               0.000000000              -0.085136655               0.243750232               0.000000000              -0.094442414               0.267045665               0.000000000              -0.103748172               0.290341099               0.000000000              -0.113053931               0.313636532               0.000000000              -0.122359690               0.336931966               0.000000000              -0.131665448               0.360227399               0.000000000              -0.140971207               0.383522833               0.000000000              -0.150276966               0.406818266               0.000000000              -0.159582724               0.430113700               0.000000000              -0.168888483               0.453409133               0.000000000              -0.178194241               0.476704567               0.000000000              -0.187500000               0.500000000               0.000000000              -0.025947013               0.130444442               0.000000000              -0.032137825               0.153541665               0.000000000              -0.038328636               0.176638887               0.000000000              -0.044519448               0.199736109               0.000000000              -0.050710260               0.222833332               0.000000000              -0.056901071               0.245930554               0.000000000              -0.063091883               0.269027776               0.000000000              -0.069282695               0.292124999               0.000000000              -0.075473506               0.315222221               0.000000000              -0.081664318               0.338319444               0.000000000              -0.087855130               0.361416666               0.000000000              -0.094045942               0.384513888               0.000000000              -0.100236753               0.407611111               0.000000000              -0.106427565               0.430708333               0.000000000              -0.112618377               0.453805555               0.000000000              -0.118809188               0.476902778               0.000000000              -0.125000000               0.500000000               0.000000000              -0.013036280               0.132359569               0.000000000              -0.016127762               0.155337096               0.000000000              -0.019219245               0.178314623               0.000000000              -0.022310727               0.201292150               0.000000000              -0.025402210               0.224269676               0.000000000              -0.028493692               0.247247203               0.000000000              -0.031585175               0.270224730               0.000000000              -0.034676657               0.293202257               0.000000000              -0.037768140               0.316179784               0.000000000              -0.040859622               0.339157311               0.000000000              -0.043951105               0.362134838               0.000000000              -0.047042587               0.385112365               0.000000000              -0.050134070               0.408089892               0.000000000              -0.053225552               0.431067419               0.000000000              -0.056317035               0.454044946               0.000000000              -0.059408517               0.477022473               0.000000000              -0.062500000               0.500000000               0.000000000               0.000000000               0.133000000               0.000000000               0.000000000               0.155937500               0.000000000               0.000000000               0.178875000               0.000000000               0.000000000               0.201812500               0.000000000               0.000000000               0.224750000               0.000000000               0.000000000               0.247687500               0.000000000               0.000000000               0.270625000               0.000000000               0.000000000               0.293562500               0.000000000               0.000000000               0.316500000               0.000000000               0.000000000               0.339437500               0.000000000               0.000000000               0.362375000               0.000000000               0.000000000               0.385312500               0.000000000               0.000000000               0.408250000               0.000000000               0.000000000               0.431187500               0.000000000               0.000000000               0.454125000               0.000000000               0.000000000               0.477062500               0.000000000               0.000000000               0.500000000               0.000000000 </DataArray>
</Points>
<Cells>
<DataArray type="Int32"                                    Name="connectivity"                                                      NumberOfComponents=" 1" format="ascii">
         0          1         18         17          1          2         19         18          2          3         20         19          3          4         21         20          4          5         22         21          5          6         23         22          6          7         24         23          7          8         25         24          8          9         26         25          9         10         27         26         10         11         28         27         11         12         29         28         12         13         30         29         13         14         31         30         14         15         32         31         15         16         33         32         17         18         35         34         18         19         36         35         19         20         37         36         20         21         38         37         21         22         39         38         22         23         40         39         23         24         41         40         24         25         42         41         25         26         43         42         26         27         44         43         27         28         45         44         28         29         46         45         29         30         47         46         30         31         48         47         31         32         49         48         32         33         50         49         34         35         52         51         35         36         53         52         36         37         54         53         37         38         55         54         38         39         56         55         39         40         57         56         40         41         58         57         41         42         59         58         42         43         60         59         43         44         61         60         44         45         62         61         45         46         63         62         46         47         64         63         47         48         65         64         48         49         66         65         49         50         67         66         51         52         69         68         52         53         70         69         53         54         71         70         54         55         72         71         55         56         73         72         56         57         74         73         57         58         75         74         58         59         76         75         59         60         77         76         60         61         78         77         61         62         79         78         62         63         80         79         63         64         81         80         64         65         82         81         65         66         83         82         66         67         84         83         68         69         86         85         69         70         87         86         70         71         88         87         71         72         89         88         72         73         90         89         73         74         91         90         74         75         92         91         75         76         93         92         76         77         94         93         77         78         95         94         78         79         96         95         79         80         97         96         80         81         98         97         81         82         99         98         82         83        100         99         83         84        101        100         85         86        103        102         86         87        104        103         87         88        105        104         88         89        106        105         89         90        107        106         90         91        108        107         91         92        109        108         92         93        110        109         93         94        111        110         94         95        112        111         95         96        113        112         96         97        114        113         97         98        115        114         98         99        116        115         99        100        117        116        100        101        118        117        102        103        120        119        103        104        121        120        104        105        122        121        105        106        123        122        106        107        124        123        107        108        125        124        108        109        126        125        109        110        127        126        110        111        128        127        111        112        129        128        112        113        130        129        113        114        131        130        114        115        132        131        115        116        133        132        116        117        134        133        117        118        135        134        119        120        137        136        120        121        138        137        121        122        139        138        122        123        140        139        123        124        141        140        124        125        142        141        125        126        143        142        126        127        144        143        127        128        145        144        128        129        146        145        129        130        147        146        130        131        148        147        131        132        149        148        132        133        150        149        133        134        151        150        134        135        152        151        136        137        154        153        137        138        155        154        138        139        156        155        139        140        157        156        140        141        158        157        141        142        159        158        142        143        160        159        143        144        161        160        144        145        162        161        145        146        163        162        146        147        164        163        147        148        165        164        148        149        166        165        149        150        167        166        150        151        168        167        151        152        169        168        153        154        171        170        154        155        172        171        155        156        173        172        156        157        174        173        157        158        175        174        158        159        176        175        159        160        177        176        160        161        178        177        161        162        179        178        162        163        180        179        163        164        181        180        164        165        182        181        165        166        183        182        166        167        184        183        167        168        185        184        168        169        186        185        170        171        188        187        171        172        189        188        172        173        190        189        173        174        191        190        174        175        192        191        175        176        193        192        176        177        194        193        177        178        195        194        178        179        196        195        179        180        197        196        180        181        198        197        181        182        199        198        182        183        200        199        183        184        201        200        184        185        202        201        185        186        203        202        187        188        205        204        188        189        206        205        189        190        207        206        190        191        208        207        191        192        209        208        192        193        210        209        193        194        211        210        194        195        212        211        195        196        213        212        196        197        214        213        197        198        215        214        198        199        216        215        199        200        217        216        200        201        218        217        201        202        219        218        202        203        220        219        204        205        222        221        205        206        223        222        206        207        224        223        207        208        225        224        208        209        226        225        209        210        227        226        210        211        228        227        211        212        229        228        212        213        230        229        213        214        231        230        214        215        232        231        215        216        233        232        216        217        234        233        217        218        235        234        218        219        236        235        219        220        237        236        221        222        239        238        222        223        240        239        223        224        241        240        224        225        242        241        225        226        243        242        226        227        244        243        227        228        245        244        228        229        246        245        229        230        247        246        230        231        248        247        231        232        249        248        232        233        250        249        233        234        251        250        234        235        252        251        235        236        253        252        236        237        254        253        238        239        256        255        239        240        257        256        240        241        258        257        241        242        259        258        242        243        260        259        243        244        261        260        244        245        262        261        245        246        263        262        246        247        264        263        247        248        265        264        248        249        266        265        249        250        267        266        250        251        268        267        251        252        269        268        252        253        270        269        253        254        271        270        255        256        273        272        256        257        274        273        257        258        275        274        258        259        276        275        259        260        277        276        260        261        278        277        261        262        279        278        262        263        280        279        263        264        281        280        264        265        282        281        265        266        283        282        266        267        284        283        267        268        285        284        268        269        286        285        269        270        287        286        270        271        288        287        306        307          1          0        307        308          2          1        308        309          3          2        309        310          4          3        310        311          5          4        311        312          6          5        312        313          7          6        313        314          8          7        314        315          9          8        315        316         10          9        316        317         11         10        317        318         12         11        318        319         13         12        319        320         14         13        320        321         15         14        321        322         16         15        323        324        307        306        324        325        308        307        325        326        309        308        326        327        310        309        327        328        311        310        328        329        312        311        329        330        313        312        330        331        314        313        331        332        315        314        332        333        316        315        333        334        317        316        334        335        318        317        335        336        319        318        336        337        320        319        337        338        321        320        338        339        322        321        340        341        324        323        341        342        325        324        342        343        326        325        343        344        327        326        344        345        328        327        345        346        329        328        346        347        330        329        347        348        331        330        348        349        332        331        349        350        333        332        350        351        334        333        351        352        335        334        352        353        336        335        353        354        337        336        354        355        338        337        355        356        339        338        357        358        341        340        358        359        342        341        359        360        343        342        360        361        344        343        361        362        345        344        362        363        346        345        363        364        347        346        364        365        348        347        365        366        349        348        366        367        350        349        367        368        351        350        368        369        352        351        369        370        353        352        370        371        354        353        371        372        355        354        372        373        356        355        374        375        358        357        375        376        359        358        376        377        360        359        377        378        361        360        378        379        362        361        379        380        363        362        380        381        364        363        381        382        365        364        382        383        366        365        383        384        367        366        384        385        368        367        385        386        369        368        386        387        370        369        387        388        371        370        388        389        372        371        389        390        373        372        391        392        375        374        392        393        376        375        393        394        377        376        394        395        378        377        395        396        379        378        396        397        380        379        397        398        381        380        398        399        382        381        399        400        383        382        400        401        384        383        401        402        385        384        402        403        386        385        403        404        387        386        404        405        388        387        405        406        389        388        406        407        390        389        408        409        392        391        409        410        393        392        410        411        394        393        411        412        395        394        412        413        396        395        413        414        397        396        414        415        398        397        415        416        399        398        416        417        400        399        417        418        401        400        418        419        402        401        419        420        403        402        420        421        404        403        421        422        405        404        422        423        406        405        423        424        407        406        425        426        409        408        426        427        410        409        427        428        411        410        428        429        412        411        429        430        413        412        430        431        414        413        431        432        415        414        432        433        416        415        433        434        417        416        434        435        418        417        435        436        419        418        436        437        420        419        437        438        421        420        438        439        422        421        439        440        423        422        440        441        424        423        442        443        426        425        443        444        427        426        444        445        428        427        445        446        429        428        446        447        430        429        447        448        431        430        448        449        432        431        449        450        433        432        450        451        434        433        451        452        435        434        452        453        436        435        453        454        437        436        454        455        438        437        455        456        439        438        456        457        440        439        457        458        441        440        459        460        443        442        460        461        444        443        461        462        445        444        462        463        446        445        463        464        447        446        464        465        448        447        465        466        449        448        466        467        450        449        467        468        451        450        468        469        452        451        469        470        453        452        470        471        454        453        471        472        455        454        472        473        456        455        473        474        457        456        474        475        458        457        476        477        460        459        477        478        461        460        478        479        462        461        479        480        463        462        480        481        464        463        481        482        465        464        482        483        466        465        483        484        467        466        484        485        468        467        485        486        469        468        486        487        470        469        487        488        471        470        488        489        472        471        489        490        473        472        490        491        474        473        491        492        475        474        493        494        477        476        494        495        478        477        495        496        479        478        496        497        480        479        497        498        481        480        498        499        482        481        499        500        483        482        500        501        484        483        501        502        485        484        502        503        486        485        503        504        487        486        504        505        488        487        505        506        489        488        506        507        490        489        507        508        491        490        508        509        492        491        510        511        494        493        511        512        495        494        512        513        496        495        513        514        497        496        514        515        498        497        515        516        499        498        516        517        500        499        517        518        501        500        518        519        502        501        519        520        503        502        520        521        504        503        521        522        505        504        522        523        506        505        523        524        507        506        524        525        508        507        525        526        509        508        527        528        511        510        528        529        512        511        529        530        513        512        530        531        514        513        531        532        515        514        532        533        516        515        533        534        517        516        534        535        518        517        535        536        519        518        536        537        520        519        537        538        521        520        538        539        522        521        539        540        523        522        540        541        524        523        541        542        525        524        542        543        526        525        544        545        528        527        545        546        529        528        546        547        530        529        547        548        531        530        548        549        532        531        549        550        533        532        550        551        534        533        551        552        535        534        552        553        536        535        553        554        537        536        554        555        538        537        555        556        539        538        556        557        540        539        557        558        541        540        558        559        542        541        559        560        543        542        561        562        545        544        562        563        546        545        563        564        547        546        564        565        548        547        565        566        549        548        566        567        550        549        567        568        551        550        568        569        552        551        569        570        553        552        570        571        554        553        571        572        555        554        572        573        556        555        573        574        557        556        574        575        558        557        575        576        559        558        576        577        560        559        578        579        596        595        579        580        597        596        580        581        598        597        581        582        599        598        582        583        600        599        583        584        601        600        584        585        602        601        585        586        603        602        586        587        604        603        587        588        605        604        588        589        606        605        589        590        607        606        590        591        608        607        591        592        609        608        592        593        610        609        593        594        611        610        595        596        613        612        596        597        614        613        597        598        615        614        598        599        616        615        599        600        617        616        600        601        618        617        601        602        619        618        602        603        620        619        603        604        621        620        604        605        622        621        605        606        623        622        606        607        624        623        607        608        625        624        608        609        626        625        609        610        627        626        610        611        628        627        612        613        630        629        613        614        631        630        614        615        632        631        615        616        633        632        616        617        634        633        617        618        635        634        618        619        636        635        619        620        637        636        620        621        638        637        621        622        639        638        622        623        640        639        623        624        641        640        624        625        642        641        625        626        643        642        626        627        644        643        627        628        645        644        629        630        647        646        630        631        648        647        631        632        649        648        632        633        650        649        633        634        651        650        634        635        652        651        635        636        653        652        636        637        654        653        637        638        655        654        638        639        656        655        639        640        657        656        640        641        658        657        641        642        659        658        642        643        660        659        643        644        661        660        644        645        662        661        646        647        664        663        647        648        665        664        648        649        666        665        649        650        667        666        650        651        668        667        651        652        669        668        652        653        670        669        653        654        671        670        654        655        672        671        655        656        673        672        656        657        674        673        657        658        675        674        658        659        676        675        659        660        677        676        660        661        678        677        661        662        679        678        663        664        681        680        664        665        682        681        665        666        683        682        666        667        684        683        667        668        685        684        668        669        686        685        669        670        687        686        670        671        688        687        671        672        689        688        672        673        690        689        673        674        691        690        674        675        692        691        675        676        693        692        676        677        694        693        677        678        695        694        678        679        696        695        680        681        698        697        681        682        699        698        682        683        700        699        683        684        701        700        684        685        702        701        685        686        703        702        686        687        704        703        687        688        705        704        688        689        706        705        689        690        707        706        690        691        708        707        691        692        709        708        692        693        710        709        693        694        711        710        694        695        712        711        695        696        713        712        697        698        715        714        698        699        716        715        699        700        717        716        700        701        718        717        701        702        719        718        702        703        720        719        703        704        721        720        704        705        722        721        705        706        723        722        706        707        724        723        707        708        725        724        708        709        726        725        709        710        727        726        710        711        728        727        711        712        729        728        712        713        730        729        714        715        732        731        715        716        733        732        716        717        734        733        717        718        735        734        718        719        736        735        719        720        737        736        720        721        738        737        721        722        739        738        722        723        740        739        723        724        741        740        724        725        742        741        725        726        743        742        726        727        744        743        727        728        745        744        728        729        746        745        729        730        747        746        731        732        749        748        732        733        750        749        733        734        751        750        734        735        752        751        735        736        753        752        736        737        754        753        737        738        755        754        738        739        756        755        739        740        757        756        740        741        758        757        741        742        759        758        742        743        760        759        743        744        761        760        744        745        762        761        745        746        763        762        746        747        764        763        748        749        766        765        749        750        767        766        750        751        768        767        751        752        769        768        752        753        770        769        753        754        771        770        754        755        772        771        755        756        773        772        756        757        774        773        757        758        775        774        758        759        776        775        759        760        777        776        760        761        778        777        761        762        779        778        762        763        780        779        763        764        781        780        765        766        783        782        766        767        784        783        767        768        785        784        768        769        786        785        769        770        787        786        770        771        788        787        771        772        789        788        772        773        790        789        773        774        791        790        774        775        792        791        775        776        793        792        776        777        794        793        777        778        795        794        778        779        796        795        779        780        797        796        780        781        798        797        782        783        800        799        783        784        801        800        784        785        802        801        785        786        803        802        786        787        804        803        787        788        805        804        788        789        806        805        789        790        807        806        790        791        808        807        791        792        809        808        792        793        810        809        793        794        811        810        794        795        812        811        795        796        813        812        796        797        814        813        797        798        815        814        799        800        817        816        800        801        818        817        801        802        819        818        802        803        820        819        803        804        821        820        804        805        822        821        805        806        823        822        806        807        824        823        807        808        825        824        808        809        826        825        809        810        827        826        810        811        828        827        811        812        829        828        812        813        830        829        813        814        831        830        814        815        832        831        816        817        834        833        817        818        835        834        818        819        836        835        819        820        837        836        820        821        838        837        821        822        839        838        822        823        840        839        823        824        841        840        824        825        842        841        825        826        843        842        826        827        844        843        827        828        845        844        828        829        846        845        829        830        847        846        830        831        848        847        831        832        849        848        833        834        562        561        834        835        563        562        835        836        564        563        836        837        565        564        837        838        566        565        838        839        567        566        839        840        568        567        840        841        569        568        841        842        570        569        842        843        571        570        843        844        572        571        844        845        573        572        845        846        574        573        846        847        575        574        847        848        576        575        848        849        577        576        884        885        579        578        885        886        580        579        886        887        581        580        887        888        582        581        888        889        583        582        889        890        584        583        890        891        585        584        891        892        586        585        892        893        587        586        893        894        588        587        894        895        589        588        895        896        590        589        896        897        591        590        897        898        592        591        898        899        593        592        899        900        594        593        901        902        885        884        902        903        886        885        903        904        887        886        904        905        888        887        905        906        889        888        906        907        890        889        907        908        891        890        908        909        892        891        909        910        893        892        910        911        894        893        911        912        895        894        912        913        896        895        913        914        897        896        914        915        898        897        915        916        899        898        916        917        900        899        918        919        902        901        919        920        903        902        920        921        904        903        921        922        905        904        922        923        906        905        923        924        907        906        924        925        908        907        925        926        909        908        926        927        910        909        927        928        911        910        928        929        912        911        929        930        913        912        930        931        914        913        931        932        915        914        932        933        916        915        933        934        917        916        935        936        919        918        936        937        920        919        937        938        921        920        938        939        922        921        939        940        923        922        940        941        924        923        941        942        925        924        942        943        926        925        943        944        927        926        944        945        928        927        945        946        929        928        946        947        930        929        947        948        931        930        948        949        932        931        949        950        933        932        950        951        934        933        952        953        936        935        953        954        937        936        954        955        938        937        955        956        939        938        956        957        940        939        957        958        941        940        958        959        942        941        959        960        943        942        960        961        944        943        961        962        945        944        962        963        946        945        963        964        947        946        964        965        948        947        965        966        949        948        966        967        950        949        967        968        951        950        969        970        953        952        970        971        954        953        971        972        955        954        972        973        956        955        973        974        957        956        974        975        958        957        975        976        959        958        976        977        960        959        977        978        961        960        978        979        962        961        979        980        963        962        980        981        964        963        981        982        965        964        982        983        966        965        983        984        967        966        984        985        968        967        986        987        970        969        987        988        971        970        988        989        972        971        989        990        973        972        990        991        974        973        991        992        975        974        992        993        976        975        993        994        977        976        994        995        978        977        995        996        979        978        996        997        980        979        997        998        981        980        998        999        982        981        999       1000        983        982       1000       1001        984        983       1001       1002        985        984       1003       1004        987        986       1004       1005        988        987       1005       1006        989        988       1006       1007        990        989       1007       1008        991        990       1008       1009        992        991       1009       1010        993        992       1010       1011        994        993       1011       1012        995        994       1012       1013        996        995       1013       1014        997        996       1014       1015        998        997       1015       1016        999        998       1016       1017       1000        999       1017       1018       1001       1000       1018       1019       1002       1001       1020       1021       1004       1003       1021       1022       1005       1004       1022       1023       1006       1005       1023       1024       1007       1006       1024       1025       1008       1007       1025       1026       1009       1008       1026       1027       1010       1009       1027       1028       1011       1010       1028       1029       1012       1011       1029       1030       1013       1012       1030       1031       1014       1013       1031       1032       1015       1014       1032       1033       1016       1015       1033       1034       1017       1016       1034       1035       1018       1017       1035       1036       1019       1018       1037       1038       1021       1020       1038       1039       1022       1021       1039       1040       1023       1022       1040       1041       1024       1023       1041       1042       1025       1024       1042       1043       1026       1025       1043       1044       1027       1026       1044       1045       1028       1027       1045       1046       1029       1028       1046       1047       1030       1029       1047       1048       1031       1030       1048       1049       1032       1031       1049       1050       1033       1032       1050       1051       1034       1033       1051       1052       1035       1034       1052       1053       1036       1035       1054       1055       1038       1037       1055       1056       1039       1038       1056       1057       1040       1039       1057       1058       1041       1040       1058       1059       1042       1041       1059       1060       1043       1042       1060       1061       1044       1043       1061       1062       1045       1044       1062       1063       1046       1045       1063       1064       1047       1046       1064       1065       1048       1047       1065       1066       1049       1048       1066       1067       1050       1049       1067       1068       1051       1050       1068       1069       1052       1051       1069       1070       1053       1052       1071       1072       1055       1054       1072       1073       1056       1055       1073       1074       1057       1056       1074       1075       1058       1057       1075       1076       1059       1058       1076       1077       1060       1059       1077       1078       1061       1060       1078       1079       1062       1061       1079       1080       1063       1062       1080       1081       1064       1063       1081       1082       1065       1064       1082       1083       1066       1065       1083       1084       1067       1066       1084       1085       1068       1067       1085       1086       1069       1068       1086       1087       1070       1069       1088       1089       1072       1071       1089       1090       1073       1072       1090       1091       1074       1073       1091       1092       1075       1074       1092       1093       1076       1075       1093       1094       1077       1076       1094       1095       1078       1077       1095       1096       1079       1078       1096       1097       1080       1079       1097       1098       1081       1080       1098       1099       1082       1081       1099       1100       1083       1082       1100       1101       1084       1083       1101       1102       1085       1084       1102       1103       1086       1085       1103       1104       1087       1086       1105       1106       1089       1088       1106       1107       1090       1089       1107       1108       1091       1090       1108       1109       1092       1091       1109       1110       1093       1092       1110       1111       1094       1093       1111       1112       1095       1094       1112       1113       1096       1095       1113       1114       1097       1096       1114       1115       1098       1097       1115       1116       1099       1098       1116       1117       1100       1099       1117       1118       1101       1100       1118       1119       1102       1101       1119       1120       1103       1102       1120       1121       1104       1103       1122       1123       1106       1105       1123       1124       1107       1106       1124       1125       1108       1107       1125       1126       1109       1108       1126       1127       1110       1109       1127       1128       1111       1110       1128       1129       1112       1111       1129       1130       1113       1112       1130       1131       1114       1113       1131       1132       1115       1114       1132       1133       1116       1115       1133       1134       1117       1116       1134       1135       1118       1117       1135       1136       1119       1118       1136       1137       1120       1119       1137       1138       1121       1120        272        273       1123       1122        273        274       1124       1123        274        275       1125       1124        275        276       1126       1125        276        277       1127       1126        277        278       1128       1127        278        279       1129       1128        279        280       1130       1129        280        281       1131       1130        281        282       1132       1131        282        283       1133       1132        283        284       1134       1133        284        285       1135       1134        285        286       1136       1135        286        287       1137       1136        287        288       1138       1137 </DataArray>
<DataArray type="Int32"                                    Name="offsets"                                                      NumberOfComponents=" 1" format="ascii">
         4          8         12         16         20         24         28         32         36         40         44         48         52         56         60         64         68         72         76         80         84         88         92         96        100        104        108        112        116        120        124        128        132        136        140        144        148        152        156        160        164        168        172        176        180        184        188        192        196        200        204        208        212        216        220        224        228        232        236        240        244        248        252        256        260        264        268        272        276        280        284        288        292        296        300        304        308        312        316        320        324        328        332        336        340        344        348        352        356        360        364        368        372        376        380        384        388        392        396        400        404        408        412        416        420        424        428        432        436        440        444        448        452        456        460        464        468        472        476        480        484        488        492        496        500        504        508        512        516        520        524        528        532        536        540        544        548        552        556        560        564        568        572        576        580        584        588        592        596        600        604        608        612        616        620        624        628        632        636        640        644        648        652        656        660        664        668        672        676        680        684        688        692        696        700        704        708        712        716        720        724        728        732        736        740        744        748        752        756        760        764        768        772        776        780        784        788        792        796        800        804        808        812        816        820        824        828        832        836        840        844        848        852        856        860        864        868        872        876        880        884        888        892        896        900        904        908        912        916        920        924        928        932        936        940        944        948        952        956        960        964        968        972        976        980        984        988        992        996       1000       1004       1008       1012       1016       1020       1024       1028       1032       1036       1040       1044       1048       1052       1056       1060       1064       1068       1072       1076       1080       1084       1088       1092       1096       1100       1104       1108       1112       1116       1120       1124       1128       1132       1136       1140       1144       1148       1152       1156       1160       1164       1168       1172       1176       1180       1184       1188       1192       1196       1200       1204       1208       1212       1216       1220       1224       1228       1232       1236       1240       1244       1248       1252       1256       1260       1264       1268       1272       1276       1280       1284       1288       1292       1296       1300       1304       1308       1312       1316       1320       1324       1328       1332       1336       1340       1344       1348       1352       1356       1360       1364       1368       1372       1376       1380       1384       1388       1392       1396       1400       1404       1408       1412       1416       1420       1424       1428       1432       1436       1440       1444       1448       1452       1456       1460       1464       1468       1472       1476       1480       1484       1488       1492       1496       1500       1504       1508       1512       1516       1520       1524       1528       1532       1536       1540       1544       1548       1552       1556       1560       1564       1568       1572       1576       1580       1584       1588       1592       1596       1600       1604       1608       1612       1616       1620       1624       1628       1632       1636       1640       1644       1648       1652       1656       1660       1664       1668       1672       1676       1680       1684       1688       1692       1696       1700       1704       1708       1712       1716       1720       1724       1728       1732       1736       1740       1744       1748       1752       1756       1760       1764       1768       1772       1776       1780       1784       1788       1792       1796       1800       1804       1808       1812       1816       1820       1824       1828       1832       1836       1840       1844       1848       1852       1856       1860       1864       1868       1872       1876       1880       1884       1888       1892       1896       1900       1904       1908       1912       1916       1920       1924       1928       1932       1936       1940       1944       1948       1952       1956       1960       1964       1968       1972       1976       1980       1984       1988       1992       1996       2000       2004       2008       2012       2016       2020       2024       2028       2032       2036       2040       2044       2048       2052       2056       2060       2064       2068       2072       2076       2080       2084       2088       2092       2096       2100       2104       2108       2112       2116       2120       2124       2128       2132       2136       2140       2144       2148       2152       2156       2160       2164       2168       2172       2176       2180       2184       2188       2192       2196       2200       2204       2208       2212       2216       2220       2224       2228       2232       2236       2240       2244       2248       2252       2256       2260       2264       2268       2272       2276       2280       2284       2288       2292       2296       2300       2304       2308       2312       2316       2320       2324       2328       2332       2336       2340       2344       2348       2352       2356       2360       2364       2368       2372       2376       2380       2384       2388       2392       2396       2400       2404       2408       2412       2416       2420       2424       2428       2432       2436       2440       2444       2448       2452       2456       2460       2464       2468       2472       2476       2480       2484       2488       2492       2496       2500       2504       2508       2512       2516       2520       2524       2528       2532       2536       2540       2544       2548       2552       2556       2560       2564       2568       2572       2576       2580       2584       2588       2592       2596       2600       2604       2608       2612       2616       2620       2624       2628       2632       2636       2640       2644       2648       2652       2656       2660       2664       2668       2672       2676       2680       2684       2688       2692       2696       2700       2704       2708       2712       2716       2720       2724       2728       2732       2736       2740       2744       2748       2752       2756       2760       2764       2768       2772       2776       2780       2784       2788       2792       2796       2800       2804       2808       2812       2816       2820       2824       2828       2832       2836       2840       2844       2848       2852       2856       2860       2864       2868       2872       2876       2880       2884       2888       2892       2896       2900       2904       2908       2912       2916       2920       2924       2928       2932       2936       2940       2944       2948       2952       2956       2960       2964       2968       2972       2976       2980       2984       2988       2992       2996       3000       3004       3008       3012       3016       3020       3024       3028       3032       3036       3040       3044       3048       3052       3056       3060       3064       3068       3072       3076       3080       3084       3088       3092       3096       3100       3104       3108       3112       3116       3120       3124       3128       3132       3136       3140       3144       3148       3152       3156       3160       3164       3168       3172       3176       3180       3184       3188       3192       3196       3200       3204       3208       3212       3216       3220       3224       3228       3232       3236       3240       3244       3248       3252       3256       3260       3264       3268       3272       3276       3280       3284       3288       3292       3296       3300       3304       3308       3312       3316       3320       3324       3328       3332       3336       3340       3344       3348       3352       3356       3360       3364       3368       3372       3376       3380       3384       3388       3392       3396       3400       3404       3408       3412       3416       3420       3424       3428       3432       3436       3440       3444       3448       3452       3456       3460       3464       3468       3472       3476       3480       3484       3488       3492       3496       3500       3504       3508       3512       3516       3520       3524       3528       3532       3536       3540       3544       3548       3552       3556       3560       3564       3568       3572       3576       3580       3584       3588       3592       3596       3600       3604       3608       3612       3616       3620       3624       3628       3632       3636       3640       3644       3648       3652       3656       3660       3664       3668       3672       3676       3680       3684       3688       3692       3696       3700       3704       3708       3712       3716       3720       3724       3728       3732       3736       3740       3744       3748       3752       3756       3760       3764       3768       3772       3776       3780       3784       3788       3792       3796       3800       3804       3808       3812       3816       3820       3824       3828       3832       3836       3840       3844       3848       3852       3856       3860       3864       3868       3872       3876       3880       3884       3888       3892       3896       3900       3904       3908       3912       3916       3920       3924       3928       3932       3936       3940       3944       3948       3952       3956       3960       3964       3968       3972       3976       3980       3984       3988       3992       3996       4000       4004       4008       4012       4016       4020       4024       4028       4032       4036       4040       4044       4048       4052       4056       4060       4064       4068       4072       4076       4080       4084       4088       4092       4096 </DataArray>
<DataArray type="UInt8"                                    Name="types"                                                      NumberOfComponents=" 1" format="ascii">
         9          9          9          9          9          9          9          9          9          9          9          9          9          9          9          9          9          9          9          9          9          9          9          9          9          9          9          9          9          9          9          9          9          9          9          9          9          9          9          9          9          9          9          9          9          9          9          9          9          9          9          9          9          9          9          9          9          9          9          9          9          9          9          9          9          9          9          9          9          9          9          9          9          9          9          9          9          9          9          9          9          9          9          9          9          9          9          9          9          9          9          9          9          9          9          9          9          9          9          9          9          9          9          9          9          9          9          9          9          9          9          9          9          9          9          9          9          9          9          9          9          9          9          9          9          9          9          9          9          9          9          9          9          9          9          9          9          9          9          9          9          9          9          9          9          9          9          9          9          9          9          9          9          9          9          9          9          9          9          9          9          9          9          9          9          9          9          9          9          9          9          9          9          9          9          9          9          9          9          9          9          9          9          9          9          9          9          9          9          9          9          9          9          9          9          9          9          9          9          9          9          9          9          9          9          9          9          9          9          9          9          9          9          9          9          9          9          9          9          9          9          9          9          9          9          9          9          9          9          9          9          9          9          9          9          9          9          9          9          9          9          9          9          9          9          9          9          9          9          9          9          9          9          9          9          9          9          9          9          9          9          9          9          9          9          9          9          9          9          9          9          9          9          9          9          9          9          9          9          9          9          9          9          9          9          9          9          9          9          9          9          9          9          9          9          9          9          9          9          9          9          9          9          9          9          9          9          9          9          9          9          9          9          9          9          9          9          9          9          9          9          9          9          9          9          9          9          9          9          9          9          9          9          9          9          9          9          9          9          9          9          9          9          9          9          9          9          9          9          9          9          9          9          9          9          9          9          9          9          9          9          9          9          9          9          9          9          9          9          9          9          9          9          9          9          9          9          9          9          9          9          9          9          9          9          9          9          9          9          9          9          9          9          9          9          9          9          9          9          9          9          9          9          9          9          9          9          9          9          9          9          9          9          9          9          9          9          9          9          9          9          9          9          9          9          9          9          9          9          9          9          9          9          9          9          9          9          9          9          9          9          9          9          9          9          9          9          9          9          9          9          9          9          9          9          9          9          9          9          9          9          9          9          9          9          9          9          9          9          9          9          9          9          9          9          9          9          9          9          9          9          9          9          9          9          9          9          9          9          9          9          9          9          9          9          9          9          9          9          9          9          9          9          9          9          9          9          9          9          9          9          9          9          9          9          9          9          9          9          9          9          9          9          9          9          9          9          9          9          9          9          9          9          9          9          9          9          9          9          9          9          9          9          9          9          9          9          9          9          9          9          9          9          9          9          9          9          9          9          9          9          9          9          9          9          9          9          9          9          9          9          9          9          9          9          9          9          9          9          9          9          9          9          9          9          9          9          9          9          9          9          9          9          9          9          9          9          9          9          9          9          9          9          9          9          9          9          9          9          9          9          9          9          9          9          9          9          9          9          9          9          9          9          9          9          9          9          9          9          9          9          9          9          9          9          9          9          9          9          9          9          9          9          9          9          9          9          9          9          9          9          9          9          9          9          9          9          9          9          9          9          9          9          9          9          9          9          9          9          9          9          9          9          9          9          9          9          9          9          9          9          9          9          9          9          9          9          9          9          9          9          9          9          9          9          9          9          9          9          9          9          9          9          9          9          9          9          9          9          9          9          9          9          9          9          9          9          9          9          9          9          9          9          9          9          9          9          9          9          9          9          9          9          9          9          9          9          9          9          9          9          9          9          9          9          9          9          9          9          9          9          9          9          9          9          9          9          9          9          9          9          9          9          9          9          9          9          9          9          9          9          9          9          9          9          9          9          9          9          9          9          9          9          9          9          9          9          9          9          9          9          9          9          9          9          9          9          9          9          9          9          9          9          9          9          9          9          9          9          9          9          9          9          9          9          9          9          9          9          9          9          9          9          9          9          9          9          9          9          9          9          9          9          9          9          9          9          9          9          9          9          9          9          9          9          9          9          9          9          9          9          9          9          9          9          9          9          9          9          9          9          9          9          9          9          9          9          9          9          9          9          9          9          9          9          9          9          9          9          9          9          9          9          9          9          9          9          9          9          9          9          9          9          9          9          9          9          9          9          9          9          9          9          9          9          9          9          9          9          9          9          9          9          9          9          9          9          9          9          9          9          9          9          9          9          9          9          9          9          9          9          9          9          9          9          9          9          9          9          9          9          9          9          9          9          9          9          9          9          9          9          9          9          9          9          9          9          9          9          9          9          9          9          9          9          9          9          9          9          9          9          9          9          9          9          9          9          9          9          9          9          9          9          9          9          9          9          9          9          9          9          9          9          9          9          9          9          9          9          9          9          9          9          9          9          9          9          9          9          9          9          9          9          9          9          9          9          9          9          9          9          9          9          9 </DataArray>
</Cells>
<CellData>
<DataArray type="Int32"                                    Name="material"                                                      NumberOfComponents=" 1" format="ascii">
         1          1          1          1          1          1          1          1          1          1          1          1          1          1          1          1          1          1          1          1          1          1          1          1          1          1          1          1          1          1          1          1          1          1          1          1          1          1          1          1          1          1          1          1          1          1          1          1          1          1          1          1          1          1          1          1          1          1          1          1          1          1          1          1          1          1          1          1          1          1          1          1          1          1          1          1          1          1          1          1          1          1          1          1          1          1          1          1          1          1          1          1          1          1          1          1          1          1          1          1          1          1          1          1          1          1          1          1          1          1          1          1          1          1          1          1          1          1          1          1          1          1          1          1          1          1          1          1          1          1          1          1          1          1          1          1          1          1          1          1          1          1          1          1          1          1          1          1          1          1          1          1          1          1          1          1          1          1          1          1          1          1          1          1          1          1          1          1          1          1          1          1          1          1          1          1          1          1          1          1          1          1          1          1          1          1          1          1          1          1          1          1          1          1          1          1          1          1          1          1          1          1          1          1          1          1          1          1          1          1          1          1          1          1          1          1          1          1          1          1          1          1          1          1          1          1          1          1          1          1          1          1          1          1          1          1          1          1          1          1          1          1          1          1          1          1          1          1          1          1          1          1          1          1          1          1          1          1          1          1          1          1          1          1          1          1          1          1          1          1          1          1          1          1          1          1          1          1          1          1          1          1          1          1          1          1          1          1          1          1          1          1          1          1          1          1          1          1          1          1          1          1          1          1          1          1          1          1          1          1          1          1          1          1          1          1          1          1          1          1          1          1          1          1          1          1          1          1          1          1          1          1          1          1          1          1          1          1          1          1          1          1          1          1          1          1          1          1          1          1          1          1          1          1          1          1          1          1          1          1          1          1          1          1          1          1          1          1          1          1          1          1          1          1          1          1          1          1          1          1          1          1          1          1          1          1          1          1          1          1          1          1          1          1          1          1          1          1          1          1          1          1          1          1          1          1          1          1          1          1          1          1          1          1          1          1          1          1          1          1          1          1          1          1          1          1          1          1          1          1          1          1          1          1          1          1          1          1          1          1          1          1          1          1          1          1          1          1          1          1          1          1          1          1          1          1          1          1          1          1          1          1          1          1          1          1          1          1          1          1          1          1          1          1          1          1          1          1          1          1          1          1          1          1          1          1          1          1          1          1          1          1          1          1          1          1          1          1          1          1          1          1          1          1          1          1          1          1          1          1          1          1          1          1          1          1          1          1          1          1          1          1          1          1          1          1          1          1          1          1          1          1          1          1          1          1          1          1          1          1          1          1          1          1          1          1          1          1          1          1          1          1          1          1          1          1          1          1          1          1          1          1          1          1          1          1          1          1          1          1          1          1          1          1          1          1          1          1          1          1          1          1          1          1          1          1          1          1          1          1          1          1          1          1          1          1          1          1          1          1          1          1          1          1          1          1          1          1          1          1          1          1          1          1          1          1          1          1          1          1          1          1          1          1          1          1          1          1          1          1          1          1          1          1          1          1          1          1          1          1          1          1          1          1          1          1          1          1          1          1          1          1          1          1          1          1          1          1          1          1          1          1          1          1          1          1          1          1          1          1          1          1          1          1          1          1          1          1          1          1          1          1          1          1          1          1          1          1          1          1          1          1          1          1          1          1          1          1          1          1          1          1          1          1          1          1          1          1          1          1          1          1          1          1          1          1          1          1          1          1          1          1          1          1          1          1          1          1          1          1          1          1          1          1          1          1          1          1          1          1          1          1          1          1          1          1          1          1          1          1          1          1          1          1          1          1          1          1          1          1          1          1          1          1          1          1          1          1          1          1          1          1          1          1          1          1          1          1          1          1          1          1          1          1          1          1          1          1          1          1          1          1          1          1          1          1          1          1          1          1          1          1          1          1          1          1          1          1          1          1          1          1          1          1          1          1          1          1          1          1          1          1          1          1          1          1          1          1          1          1          1          1          1          1          1          1          1          1          1          1          1          1          1          1          1          1          1          1          1          1          1          1          1          1          1          1          1          1          1          1          1          1          1          1          1          1          1          1          1          1          1          1          1          1          1          1          1          1          1          1          1          1          1          1          1          1          1          1          1          1          1          1          1          1          1          1          1          1          1          1          1          1          1          1          1          1          1          1          1          1          1          1          1          1          1          1          1          1          1          1          1          1          1          1          1          1          1          1          1          1          1          1          1          1          1          1          1          1          1          1          1          1          1          1          1          1          1          1          1          1          1          1          1          1          1          1          1          1          1          1          1          1          1          1          1          1          1          1          1          1          1          1          1          1          1          1          1          1          1          1          1          1          1          1          1          1          1          1          1          1          1          1          1          1          1          1          1          1          1          1          1          1          1          1          1          1          1          1          1          1          1          1          1          1          1          1          1          1          1          1          1          1          1          1 </DataArray>
</CellData>
<PointData>
<DataArray type="Float64"                                    Name="u"                                                      NumberOfComponents=" 3" format="ascii">
             -0.000907705               0.000000000               0.999999985              -0.000957831              -0.000000000               0.999999985              -0.000979549               0.000000000               0.999999985              -0.000992240              -0.000000000               0.999999985              -0.001002614              -0.000000000               0.999999985              -0.001013134               0.000000000               0.999999985              -0.001024408               0.000000000               0.999999985              -0.001036493               0.000000000               0.999999985              -0.001049108               0.000000000               0.999999985              -0.001061788               0.000000000               0.999999985              -0.001074148               0.000000000               0.999999985              -0.001085897               0.000000000               0.999999985              -0.001096755              -0.000000000               0.999999985              -0.001106348               0.000000000               0.999999985              -0.001114370               0.000000000               0.999999985              -0.001120197               0.000000000               0.999999985              -0.001122987               0.000000000               0.999999985              -0.000902661               0.000130467               0.999999985              -0.000948499               0.000103493               0.999999985              -0.000967383               0.000091227               0.999999985              -0.000978241               0.000086112               0.999999985              -0.000987367               0.000084450               0.999999985              -0.000996850               0.000084297               0.999999985              -0.001007149               0.000084733               0.999999985              -0.001018166               0.000084891               0.999999985              -0.001029624               0.000084269               0.999999985              -0.001041004               0.000082372               0.999999985              -0.001051867               0.000079123               0.999999985              -0.001061959               0.000074151               0.999999985              -0.001070891               0.000067297               0.999999985              -0.001078298               0.000058001               0.999999985              -0.001083865               0.000045807               0.999999985              -0.001087143               0.000029579               0.999999985              -0.001087560               0.000007819               0.999999985              -0.000887620               0.000259659               0.999999985              -0.000920932               0.000206548               0.999999985              -0.000932009               0.000183305               0.999999985              -0.000937817               0.000174231               0.999999985              -0.000943450               0.000171727               0.999999985              -0.000950135               0.000172133               0.999999985              -0.000957769               0.000173305               0.999999985              -0.000966020               0.000173945               0.999999985              -0.000974382               0.000172879               0.999999985              -0.000982147               0.000169403               0.999999985              -0.000988868               0.000163107               0.999999985              -0.000994112               0.000153713               0.999999985              -0.000997517               0.000140507               0.999999985              -0.000998845               0.000123021               0.999999985              -0.000997872               0.000100543               0.999999985              -0.000994519               0.000071603               0.999999985              -0.000988715               0.000034189               0.999999985              -0.000862810               0.000386432               0.999999985              -0.000876503               0.000308904               0.999999985              -0.000876383               0.000277097               0.999999985              -0.000875395               0.000265906               0.999999985              -0.000876402               0.000263995               0.999999985              -0.000879349               0.000265789               0.999999985              -0.000883424               0.000268388               0.999999985              -0.000887825               0.000269679               0.999999985              -0.000891596               0.000268485               0.999999985              -0.000894066               0.000263641               0.999999985              -0.000894693               0.000254767               0.999999985              -0.000892922               0.000241296               0.999999985              -0.000888516               0.000222884               0.999999985              -0.000881471               0.000199213               0.999999985              -0.000871924               0.000169613               0.999999985              -0.000859959               0.000132914               0.999999985              -0.000846001               0.000088221               0.999999985              -0.000828590               0.000509734               0.999999985              -0.000817374               0.000410613               0.999999985              -0.000804711               0.000373206               0.999999985              -0.000796998               0.000362018               0.999999985              -0.000793794               0.000361913               0.999999985              -0.000793201               0.000365881               0.999999985              -0.000793610               0.000370120               0.999999985              -0.000793540               0.000372350               0.999999985              -0.000791953               0.000370984               0.999999985              -0.000787994               0.000365034               0.999999985              -0.000781076               0.000353869               0.999999985              -0.000770834               0.000337112               0.999999985              -0.000757382               0.000314939               0.999999985              -0.000741036               0.000287344               0.999999985              -0.000722093               0.000254038               0.999999985              -0.000701021               0.000214731               0.999999985              -0.000678552               0.000169838               0.999999985              -0.000785745               0.000628331               0.999999985              -0.000746569               0.000511870               0.999999985              -0.000722409               0.000471819               0.999999985              -0.000709768               0.000462265               0.999999985              -0.000703628               0.000464729               0.999999985              -0.000700300               0.000471063               0.999999985              -0.000697233               0.000476989               0.999999985              -0.000692556               0.000479977               0.999999985              -0.000685009               0.000478315               0.999999985              -0.000673768               0.000471124               0.999999985              -0.000658443               0.000457763               0.999999985              -0.000639163               0.000438723               0.999999985              -0.000616316               0.000414274               0.999999985              -0.000590391               0.000384859               0.999999985              -0.000561985               0.000350680               0.999999985              -0.000531791               0.000312082               0.999999985              -0.000500537               0.000270367               0.999999985              -0.000735148               0.000741030               0.999999985              -0.000667830               0.000612700               0.999999985              -0.000635081               0.000572592               0.999999985              -0.000619925               0.000565594               0.999999985              -0.000612508               0.000570790               0.999999985              -0.000607281               0.000579271               0.999999985              -0.000600955               0.000586570               0.999999985              -0.000591298               0.000589883               0.999999985              -0.000577138               0.000587542               0.999999985              -0.000557977               0.000578865               0.999999985              -0.000533649               0.000563954               0.999999985              -0.000504791               0.000543508               0.999999985              -0.000472126               0.000518160               0.999999985              -0.000436341               0.000488446               0.999999985              -0.000398061               0.000454988               0.999999985              -0.000358188               0.000418609               0.999999985              -0.000317424               0.000380831               0.999999985              -0.000677949               0.000846711               0.999999985              -0.000585025               0.000712807               0.999999985              -0.000547511               0.000674588               0.999999985              -0.000532569               0.000670201               0.999999985              -0.000525196               0.000677850               0.999999985              -0.000518570               0.000688121               0.999999985              -0.000508859               0.000696310               0.999999985              -0.000493719               0.000699392               0.999999985              -0.000472198               0.000696078               0.999999985              -0.000444080               0.000686193               0.999999985              -0.000409922               0.000670182               0.999999985              -0.000370733               0.000649091               0.999999985              -0.000327423               0.000623691               0.999999985              -0.000280756               0.000594646               0.999999985              -0.000231693               0.000562872               0.999999985              -0.000181425               0.000529535               0.999999985              -0.000130639               0.000495765               0.999999985              -0.000616112               0.000943499               0.999999985              -0.000500904               0.000812108               0.999999985              -0.000464018               0.000776164               0.999999985              -0.000451231               0.000773945               0.999999985              -0.000444772               0.000783612               0.999999985              -0.000436769               0.000795312               0.999999985              -0.000423050               0.000803844               0.999999985              -0.000401517               0.000806451               0.999999985              -0.000371503               0.000802158               0.999999985              -0.000333340               0.000791203               0.999999985              -0.000288408               0.000774462               0.999999985              -0.000237748               0.000753168               0.999999985              -0.000182475               0.000728174               0.999999985              -0.000123929               0.000700540               0.999999985              -0.000063695               0.000671408               0.999999985              -0.000002944               0.000641695               0.999999985               0.000057891               0.000612161               0.999999985              -0.000552176               0.001035235               0.999999985              -0.000430230               0.000923607               0.999999985              -0.000390814               0.000884122               0.999999985              -0.000377510               0.000877439               0.999999985              -0.000371798               0.000884634               0.999999985              -0.000365877               0.000896528               0.999999985              -0.000355573               0.000907860               0.999999985              -0.000338561               0.000915719               0.999999985              -0.000313849               0.000918697               0.999999985              -0.000280993               0.000916310               0.999999985              -0.000240884               0.000908908               0.999999985              -0.000194424               0.000897184               0.999999985              -0.000142386               0.000881888               0.999999985              -0.000085943               0.000863898               0.999999985              -0.000026301               0.000843980               0.999999985               0.000035320               0.000823204               0.999999985               0.000097457               0.000802209               0.999999985              -0.000482552               0.001118906               0.999999985              -0.000362295               0.001031585               0.999999985              -0.000320482               0.000994958               0.999999985              -0.000305818               0.000986054               0.999999985              -0.000299899               0.000991777               0.999999985              -0.000295264               0.001003997               0.999999985              -0.000287625               0.001017926               0.999999985              -0.000274483               0.001030490               0.999999985              -0.000254439               0.001040119               0.999999985              -0.000226963               0.001045880               0.999999985              -0.000192198               0.001047443               0.999999985              -0.000150675               0.001045033               0.999999985              -0.000102851               0.001039009               0.999999985              -0.000049308               0.001030133               0.999999985               0.000009162               0.001019128               0.999999985               0.000071252               0.001006759               0.999999985               0.000135274               0.000993849               0.999999985              -0.000408644               0.001192431               0.999999985              -0.000297006               0.001132759               0.999999985              -0.000254715               0.001103657               0.999999985              -0.000238457               0.001095853               0.999999985              -0.000231850               0.001101367               0.999999985              -0.000227635               0.001114451               0.999999985              -0.000221785               0.001130959               0.999999985              -0.000211724               0.001148078               0.999999985              -0.000195899               0.001163976               0.999999985              -0.000173501               0.001177461               0.999999985              -0.000144410               0.001187804               0.999999985              -0.000108719               0.001194622               0.999999985              -0.000066024               0.001198047               0.999999985              -0.000016373               0.001198502               0.999999985               0.000039516               0.001196432               0.999999985               0.000101056               0.001192573               0.999999985               0.000166989               0.001187656               0.999999985              -0.000331214               0.001254368               0.999999985              -0.000234329               0.001222876               0.999999985              -0.000194432               0.001204632               0.999999985              -0.000177570               0.001200848               0.999999985              -0.000170185               0.001208003               0.999999985              -0.000165907               0.001222683               0.999999985              -0.000161047               0.001241938               0.999999985              -0.000153360               0.001263283               0.999999985              -0.000141328               0.001285003               0.999999985              -0.000123845               0.001305718               0.999999985              -0.000100701               0.001324443               0.999999985              -0.000071345               0.001340588               0.999999985              -0.000035026               0.001353670               0.999999985               0.000008666               0.001363722               0.999999985               0.000059887               0.001370977               0.999999985               0.000118561               0.001376037               0.999999985               0.000184706               0.001379439               0.999999985              -0.000250971               0.001303523               0.999999985              -0.000173948               0.001297678               0.999999985              -0.000139754               0.001291727               0.999999985              -0.000124152               0.001293921               0.999999985              -0.000116700               0.001304321               0.999999985              -0.000112352               0.001321437               0.999999985              -0.000108233               0.001343444               0.999999985              -0.000102480               0.001368598               0.999999985              -0.000093775               0.001395316               0.999999985              -0.000080985               0.001422422               0.999999985              -0.000063581               0.001448942               0.999999985              -0.000041011               0.001473954               0.999999985              -0.000012447               0.001496835               0.999999985               0.000023135               0.001517022               0.999999985               0.000066507               0.001534249               0.999999985               0.000118425               0.001548761               0.999999985               0.000179983               0.001560965               0.999999985              -0.000168517               0.001339181               0.999999985              -0.000115198               0.001353717               0.999999985              -0.000090116               0.001358895               0.999999985              -0.000077953               0.001367378               0.999999985              -0.000071726               0.001381708               0.999999985              -0.000068007               0.001401672               0.999999985              -0.000064734               0.001426425               0.999999985              -0.000060741               0.001454839               0.999999985              -0.000055026               0.001485767               0.999999985              -0.000046544               0.001518053               0.999999985              -0.000034855               0.001550751               0.999999985              -0.000019468               0.001583021               0.999999985               0.000000267               0.001614206               0.999999985               0.000025448               0.001643530               0.999999985               0.000057198               0.001670382               0.999999985               0.000096715               0.001694366               0.999999985               0.000145721               0.001715385               0.999999985              -0.000084608               0.001360748               0.999999985              -0.000057405               0.001388332               0.999999985              -0.000044131               0.001401391               0.999999985              -0.000037420               0.001414652               0.999999985              -0.000033886               0.001432129               0.999999985              -0.000031633               0.001454439               0.999999985              -0.000029840               0.001481238               0.999999985              -0.000027682               0.001511894               0.999999985              -0.000024837               0.001545586               0.999999985              -0.000020505               0.001581389               0.999999985              -0.000014662               0.001618229               0.999999985              -0.000006980               0.001655256               0.999999985               0.000003219               0.001691798               0.999999985               0.000016384               0.001727209               0.999999985               0.000033229               0.001760880               0.999999985               0.000054600               0.001791878               0.999999985               0.000081767               0.001819592               0.999999985               0.000000000               0.001368004               0.999999985              -0.000000000               0.001400051               0.999999985              -0.000000000               0.001415920               0.999999985              -0.000000000               0.001430949               0.999999985               0.000000000               0.001449647               0.999999985               0.000000000               0.001472887               0.999999985              -0.000000000               0.001500453               0.999999985               0.000000000               0.001531883               0.999999985              -0.000000000               0.001566474               0.999999985              -0.000000000               0.001603354               0.999999985              -0.000000000               0.001641671               0.999999985               0.000000000               0.001680535               0.999999985               0.000000000               0.001719028               0.999999985              -0.000000000               0.001756458               0.999999985              -0.000000000               0.001792317               0.999999985               0.000000000               0.001826014               0.999999985              -0.000000000               0.001856445               0.999999985              -0.000907705               0.000000000               0.999999985              -0.000957831              -0.000000000               0.999999985              -0.000979549               0.000000000               0.999999985              -0.000992240              -0.000000000               0.999999985              -0.001002614              -0.000000000               0.999999985              -0.001013134               0.000000000               0.999999985              -0.001024408               0.000000000               0.999999985              -0.001036493               0.000000000               0.999999985              -0.001049108               0.000000000               0.999999985              -0.001061788               0.000000000               0.999999985              -0.001074148               0.000000000               0.999999985              -0.001085897               0.000000000               0.999999985              -0.001096755              -0.000000000               0.999999985              -0.001106348               0.000000000               0.999999985              -0.001114370               0.000000000               0.999999985              -0.001120197               0.000000000               0.999999985              -0.001122987               0.000000000               0.999999985              -0.000902661              -0.000130467               0.999999985              -0.000948499              -0.000103493               0.999999985              -0.000967383              -0.000091227               0.999999985              -0.000978241              -0.000086112               0.999999985              -0.000987367              -0.000084450               0.999999985              -0.000996850              -0.000084297               0.999999985              -0.001007149              -0.000084733               0.999999985              -0.001018166              -0.000084891               0.999999985              -0.001029624              -0.000084269               0.999999985              -0.001041004              -0.000082372               0.999999985              -0.001051867              -0.000079123               0.999999985              -0.001061959              -0.000074151               0.999999985              -0.001070891              -0.000067297               0.999999985              -0.001078298              -0.000058001               0.999999985              -0.001083865              -0.000045807               0.999999985              -0.001087143              -0.000029579               0.999999985              -0.001087560              -0.000007819               0.999999985              -0.000887620              -0.000259659               0.999999985              -0.000920932              -0.000206548               0.999999985              -0.000932009              -0.000183305               0.999999985              -0.000937817              -0.000174231               0.999999985              -0.000943450              -0.000171727               0.999999985              -0.000950135              -0.000172133               0.999999985              -0.000957769              -0.000173305               0.999999985              -0.000966020              -0.000173945               0.999999985              -0.000974382              -0.000172879               0.999999985              -0.000982147              -0.000169403               0.999999985              -0.000988868              -0.000163107               0.999999985              -0.000994112              -0.000153713               0.999999985              -0.000997517              -0.000140507               0.999999985              -0.000998845              -0.000123021               0.999999985              -0.000997872              -0.000100543               0.999999985              -0.000994519              -0.000071603               0.999999985              -0.000988715              -0.000034189               0.999999985              -0.000862810              -0.000386432               0.999999985              -0.000876503              -0.000308904               0.999999985              -0.000876383              -0.000277097               0.999999985              -0.000875395              -0.000265906               0.999999985              -0.000876402              -0.000263995               0.999999985              -0.000879349              -0.000265789               0.999999985              -0.000883424              -0.000268388               0.999999985              -0.000887825              -0.000269679               0.999999985              -0.000891596              -0.000268485               0.999999985              -0.000894066              -0.000263641               0.999999985              -0.000894693              -0.000254767               0.999999985              -0.000892922              -0.000241296               0.999999985              -0.000888516              -0.000222884               0.999999985              -0.000881471              -0.000199213               0.999999985              -0.000871924              -0.000169613               0.999999985              -0.000859959              -0.000132914               0.999999985              -0.000846001              -0.000088221               0.999999985              -0.000828590              -0.000509734               0.999999985              -0.000817374              -0.000410613               0.999999985              -0.000804711              -0.000373206               0.999999985              -0.000796998              -0.000362018               0.999999985              -0.000793794              -0.000361913               0.999999985              -0.000793201              -0.000365881               0.999999985              -0.000793610              -0.000370120               0.999999985              -0.000793540              -0.000372350               0.999999985              -0.000791953              -0.000370984               0.999999985              -0.000787994              -0.000365034               0.999999985              -0.000781076              -0.000353869               0.999999985              -0.000770834              -0.000337112               0.999999985              -0.000757382              -0.000314939               0.999999985              -0.000741036              -0.000287344               0.999999985              -0.000722093              -0.000254038               0.999999985              -0.000701021              -0.000214731               0.999999985              -0.000678552              -0.000169838               0.999999985              -0.000785745              -0.000628331               0.999999985              -0.000746569              -0.000511870               0.999999985              -0.000722409              -0.000471819               0.999999985              -0.000709768              -0.000462265               0.999999985              -0.000703628              -0.000464729               0.999999985              -0.000700300              -0.000471063               0.999999985              -0.000697233              -0.000476989               0.999999985              -0.000692556              -0.000479977               0.999999985              -0.000685009              -0.000478315               0.999999985              -0.000673768              -0.000471124               0.999999985              -0.000658443              -0.000457763               0.999999985              -0.000639163              -0.000438723               0.999999985              -0.000616316              -0.000414274               0.999999985              -0.000590391              -0.000384859               0.999999985              -0.000561985              -0.000350680               0.999999985              -0.000531791              -0.000312082               0.999999985              -0.000500537              -0.000270367               0.999999985              -0.000735148              -0.000741030               0.999999985              -0.000667830              -0.000612700               0.999999985              -0.000635081              -0.000572592               0.999999985              -0.000619925              -0.000565594               0.999999985              -0.000612508              -0.000570790               0.999999985              -0.000607281              -0.000579271               0.999999985              -0.000600955              -0.000586570               0.999999985              -0.000591298              -0.000589883               0.999999985              -0.000577138              -0.000587542               0.999999985              -0.000557977              -0.000578865               0.999999985              -0.000533649              -0.000563954               0.999999985              -0.000504791              -0.000543508               0.999999985              -0.000472126              -0.000518160               0.999999985              -0.000436341              -0.000488446               0.999999985              -0.000398061              -0.000454988               0.999999985              -0.000358188              -0.000418609               0.999999985              -0.000317424              -0.000380831               0.999999985              -0.000677949              -0.000846711               0.999999985              -0.000585025              -0.000712807               0.999999985              -0.000547511              -0.000674588               0.999999985              -0.000532569              -0.000670201               0.999999985              -0.000525196              -0.000677850               0.999999985              -0.000518570              -0.000688121               0.999999985              -0.000508859              -0.000696310               0.999999985              -0.000493719              -0.000699392               0.999999985              -0.000472198              -0.000696078               0.999999985              -0.000444080              -0.000686193               0.999999985              -0.000409922              -0.000670182               0.999999985              -0.000370733              -0.000649091               0.999999985              -0.000327423              -0.000623691               0.999999985              -0.000280756              -0.000594646               0.999999985              -0.000231693              -0.000562872               0.999999985              -0.000181425              -0.000529535               0.999999985              -0.000130639              -0.000495765               0.999999985              -0.000616112              -0.000943499               0.999999985              -0.000500904              -0.000812108               0.999999985              -0.000464018              -0.000776164               0.999999985              -0.000451231              -0.000773945               0.999999985              -0.000444772              -0.000783612               0.999999985              -0.000436769              -0.000795312               0.999999985              -0.000423050              -0.000803844               0.999999985              -0.000401517              -0.000806451               0.999999985              -0.000371503              -0.000802158               0.999999985              -0.000333340              -0.000791203               0.999999985              -0.000288408              -0.000774462               0.999999985              -0.000237748              -0.000753168               0.999999985              -0.000182475              -0.000728174               0.999999985              -0.000123929              -0.000700540               0.999999985              -0.000063695              -0.000671408               0.999999985              -0.000002944              -0.000641695               0.999999985               0.000057891              -0.000612161               0.999999985              -0.000552176              -0.001035235               0.999999985              -0.000430230              -0.000923607               0.999999985              -0.000390814              -0.000884122               0.999999985              -0.000377510              -0.000877439               0.999999985              -0.000371798              -0.000884634               0.999999985              -0.000365877              -0.000896528               0.999999985              -0.000355573              -0.000907860               0.999999985              -0.000338561              -0.000915719               0.999999985              -0.000313849              -0.000918697               0.999999985              -0.000280993              -0.000916310               0.999999985              -0.000240884              -0.000908908               0.999999985              -0.000194424              -0.000897184               0.999999985              -0.000142386              -0.000881888               0.999999985              -0.000085943              -0.000863898               0.999999985              -0.000026301              -0.000843980               0.999999985               0.000035320              -0.000823204               0.999999985               0.000097457              -0.000802209               0.999999985              -0.000482552              -0.001118906               0.999999985              -0.000362295              -0.001031585               0.999999985              -0.000320482              -0.000994958               0.999999985              -0.000305818              -0.000986054               0.999999985              -0.000299899              -0.000991777               0.999999985              -0.000295264              -0.001003997               0.999999985              -0.000287625              -0.001017926               0.999999985              -0.000274483              -0.001030490               0.999999985              -0.000254439              -0.001040119               0.999999985              -0.000226963              -0.001045880               0.999999985              -0.000192198              -0.001047443               0.999999985              -0.000150675              -0.001045033               0.999999985              -0.000102851              -0.001039009               0.999999985              -0.000049308              -0.001030133               0.999999985               0.000009162              -0.001019128               0.999999985               0.000071252              -0.001006759               0.999999985               0.000135274              -0.000993849               0.999999985              -0.000408644              -0.001192431               0.999999985              -0.000297006              -0.001132759               0.999999985              -0.000254715              -0.001103657               0.999999985              -0.000238457              -0.001095853               0.999999985              -0.000231850              -0.001101367               0.999999985              -0.000227635              -0.001114451               0.999999985              -0.000221785              -0.001130959               0.999999985              -0.000211724              -0.001148078               0.999999985              -0.000195899              -0.001163976               0.999999985              -0.000173501              -0.001177461               0.999999985              -0.000144410              -0.001187804               0.999999985              -0.000108719              -0.001194622               0.999999985              -0.000066024              -0.001198047               0.999999985              -0.000016373              -0.001198502               0.999999985               0.000039516              -0.001196432               0.999999985               0.000101056              -0.001192573               0.999999985               0.000166989              -0.001187656               0.999999985              -0.000331214              -0.001254368               0.999999985              -0.000234329              -0.001222876               0.999999985              -0.000194432              -0.001204632               0.999999985              -0.000177570              -0.001200848               0.999999985              -0.000170185              -0.001208003               0.999999985              -0.000165907              -0.001222683               0.999999985              -0.000161047              -0.001241938               0.999999985              -0.000153360              -0.001263283               0.999999985              -0.000141328              -0.001285003               0.999999985              -0.000123845              -0.001305718               0.999999985              -0.000100701              -0.001324443               0.999999985              -0.000071345              -0.001340588               0.999999985              -0.000035026              -0.001353670               0.999999985               0.000008666              -0.001363722               0.999999985               0.000059887              -0.001370977               0.999999985               0.000118561              -0.001376037               0.999999985               0.000184706              -0.001379439               0.999999985              -0.000250971              -0.001303523               0.999999985              -0.000173948              -0.001297678               0.999999985              -0.000139754              -0.001291727               0.999999985              -0.000124152              -0.001293921               0.999999985              -0.000116700              -0.001304321               0.999999985              -0.000112352              -0.001321437               0.999999985              -0.000108233              -0.001343444               0.999999985              -0.000102480              -0.001368598               0.999999985              -0.000093775              -0.001395316               0.999999985              -0.000080985              -0.001422422               0.999999985              -0.000063581              -0.001448942               0.999999985              -0.000041011              -0.001473954               0.999999985              -0.000012447              -0.001496835               0.999999985               0.000023135              -0.001517022               0.999999985               0.000066507              -0.001534249               0.999999985               0.000118425              -0.001548761               0.999999985               0.000179983              -0.001560965               0.999999985              -0.000168517              -0.001339181               0.999999985              -0.000115198              -0.001353717               0.999999985              -0.000090116              -0.001358895               0.999999985              -0.000077953              -0.001367378               0.999999985              -0.000071726              -0.001381708               0.999999985              -0.000068007              -0.001401672               0.999999985              -0.000064734              -0.001426425               0.999999985              -0.000060741              -0.001454839               0.999999985              -0.000055026              -0.001485767               0.999999985              -0.000046544              -0.001518053               0.999999985              -0.000034855              -0.001550751               0.999999985              -0.000019468              -0.001583021               0.999999985               0.000000267              -0.001614206               0.999999985               0.000025448              -0.001643530               0.999999985               0.000057198              -0.001670382               0.999999985               0.000096715              -0.001694366               0.999999985               0.000145721              -0.001715385               0.999999985              -0.000084608              -0.001360748               0.999999985              -0.000057405              -0.001388332               0.999999985              -0.000044131              -0.001401391               0.999999985              -0.000037420              -0.001414652               0.999999985              -0.000033886              -0.001432129               0.999999985              -0.000031633              -0.001454439               0.999999985              -0.000029840              -0.001481238               0.999999985              -0.000027682              -0.001511894               0.999999985              -0.000024837              -0.001545586               0.999999985              -0.000020505              -0.001581389               0.999999985              -0.000014662              -0.001618229               0.999999985              -0.000006980              -0.001655256               0.999999985               0.000003219              -0.001691798               0.999999985               0.000016384              -0.001727209               0.999999985               0.000033229              -0.001760880               0.999999985               0.000054600              -0.001791878               0.999999985               0.000081767              -0.001819592               0.999999985              -0.000000000              -0.001368004               0.999999985              -0.000000000              -0.001400051               0.999999985              -0.000000000              -0.001415920               0.999999985              -0.000000000              -0.001430949               0.999999985              -0.000000000              -0.001449647               0.999999985              -0.000000000              -0.001472887               0.999999985              -0.000000000              -0.001500453               0.999999985               0.000000000              -0.001531883               0.999999985               0.000000000              -0.001566474               0.999999985               0.000000000              -0.001603354               0.999999985               0.000000000              -0.001641671               0.999999985              -0.000000000              -0.001680535               0.999999985              -0.000000000              -0.001719028               0.999999985               0.000000000              -0.001756458               0.999999985              -0.000000000              -0.001792317               0.999999985              -0.000000000              -0.001826014               0.999999985               0.000000000              -0.001856445               0.999999985               0.000907705               0.000000000               0.999999985               0.000957831              -0.000000000               0.999999985               0.000979549               0.000000000               0.999999985               0.000992240               0.000000000               0.999999985               0.001002614              -0.000000000               0.999999985               0.001013134              -0.000000000               0.999999985               0.001024408               0.000000000               0.999999985               0.001036493              -0.000000000               0.999999985               0.001049108               0.000000000               0.999999985               0.001061788              -0.000000000               0.999999985               0.001074148               0.000000000               0.999999985               0.001085897               0.000000000               0.999999985               0.001096755               0.000000000               0.999999985               0.001106348               0.000000000               0.999999985               0.001114370              -0.000000000               0.999999985               0.001120197               0.000000000               0.999999985               0.001122987               0.000000000               0.999999985               0.000902661              -0.000130467               0.999999985               0.000948499              -0.000103493               0.999999985               0.000967383              -0.000091227               0.999999985               0.000978241              -0.000086112               0.999999985               0.000987367              -0.000084450               0.999999985               0.000996850              -0.000084297               0.999999985               0.001007149              -0.000084733               0.999999985               0.001018166              -0.000084891               0.999999985               0.001029624              -0.000084269               0.999999985               0.001041004              -0.000082372               0.999999985               0.001051867              -0.000079123               0.999999985               0.001061959              -0.000074151               0.999999985               0.001070891              -0.000067297               0.999999985               0.001078298              -0.000058001               0.999999985               0.001083865              -0.000045807               0.999999985               0.001087143              -0.000029579               0.999999985               0.001087560              -0.000007819               0.999999985               0.000887620              -0.000259659               0.999999985               0.000920932              -0.000206548               0.999999985               0.000932009              -0.000183305               0.999999985               0.000937817              -0.000174231               0.999999985               0.000943450              -0.000171727               0.999999985               0.000950135              -0.000172133               0.999999985               0.000957769              -0.000173305               0.999999985               0.000966020              -0.000173945               0.999999985               0.000974382              -0.000172879               0.999999985               0.000982147              -0.000169403               0.999999985               0.000988868              -0.000163107               0.999999985               0.000994112              -0.000153713               0.999999985               0.000997517              -0.000140507               0.999999985               0.000998845              -0.000123021               0.999999985               0.000997872              -0.000100543               0.999999985               0.000994519              -0.000071603               0.999999985               0.000988715              -0.000034189               0.999999985               0.000862810              -0.000386432               0.999999985               0.000876503              -0.000308904               0.999999985               0.000876383              -0.000277097               0.999999985               0.000875395              -0.000265906               0.999999985               0.000876402              -0.000263995               0.999999985               0.000879349              -0.000265789               0.999999985               0.000883424              -0.000268388               0.999999985               0.000887825              -0.000269679               0.999999985               0.000891596              -0.000268485               0.999999985               0.000894066              -0.000263641               0.999999985               0.000894693              -0.000254767               0.999999985               0.000892922              -0.000241296               0.999999985               0.000888516              -0.000222884               0.999999985               0.000881471              -0.000199213               0.999999985               0.000871924              -0.000169613               0.999999985               0.000859959              -0.000132914               0.999999985               0.000846001              -0.000088221               0.999999985               0.000828590              -0.000509734               0.999999985               0.000817374              -0.000410613               0.999999985               0.000804711              -0.000373206               0.999999985               0.000796998              -0.000362018               0.999999985               0.000793794              -0.000361913               0.999999985               0.000793201              -0.000365881               0.999999985               0.000793610              -0.000370120               0.999999985               0.000793540              -0.000372350               0.999999985               0.000791953              -0.000370984               0.999999985               0.000787994              -0.000365034               0.999999985               0.000781076              -0.000353869               0.999999985               0.000770834              -0.000337112               0.999999985               0.000757382              -0.000314939               0.999999985               0.000741036              -0.000287344               0.999999985               0.000722093              -0.000254038               0.999999985               0.000701021              -0.000214731               0.999999985               0.000678552              -0.000169838               0.999999985               0.000785745              -0.000628331               0.999999985               0.000746569              -0.000511870               0.999999985               0.000722409              -0.000471819               0.999999985               0.000709768              -0.000462265               0.999999985               0.000703628              -0.000464729               0.999999985               0.000700300              -0.000471063               0.999999985               0.000697233              -0.000476989               0.999999985               0.000692556              -0.000479977               0.999999985               0.000685009              -0.000478315               0.999999985               0.000673768              -0.000471124               0.999999985               0.000658443              -0.000457763               0.999999985               0.000639163              -0.000438723               0.999999985               0.000616316              -0.000414274               0.999999985               0.000590391              -0.000384859               0.999999985               0.000561985              -0.000350680               0.999999985               0.000531791              -0.000312082               0.999999985               0.000500537              -0.000270367               0.999999985               0.000735148              -0.000741030               0.999999985               0.000667830              -0.000612700               0.999999985               0.000635081              -0.000572592               0.999999985               0.000619925              -0.000565594               0.999999985               0.000612508              -0.000570790               0.999999985               0.000607281              -0.000579271               0.999999985               0.000600955              -0.000586570               0.999999985               0.000591298              -0.000589883               0.999999985               0.000577138              -0.000587542               0.999999985               0.000557977              -0.000578865               0.999999985               0.000533649              -0.000563954               0.999999985               0.000504791              -0.000543508               0.999999985               0.000472126              -0.000518160               0.999999985               0.000436341              -0.000488446               0.999999985               0.000398061              -0.000454988               0.999999985               0.000358188              -0.000418609               0.999999985               0.000317424              -0.000380831               0.999999985               0.000677949              -0.000846711               0.999999985               0.000585025              -0.000712807               0.999999985               0.000547511              -0.000674588               0.999999985               0.000532569              -0.000670201               0.999999985               0.000525196              -0.000677850               0.999999985               0.000518570              -0.000688121               0.999999985               0.000508859              -0.000696310               0.999999985               0.000493719              -0.000699392               0.999999985               0.000472198              -0.000696078               0.999999985               0.000444080              -0.000686193               0.999999985               0.000409922              -0.000670182               0.999999985               0.000370733              -0.000649091               0.999999985               0.000327423              -0.000623691               0.999999985               0.000280756              -0.000594646               0.999999985               0.000231693              -0.000562872               0.999999985               0.000181425              -0.000529535               0.999999985               0.000130639              -0.000495765               0.999999985               0.000616112              -0.000943499               0.999999985               0.000500904              -0.000812108               0.999999985               0.000464018              -0.000776164               0.999999985               0.000451231              -0.000773945               0.999999985               0.000444772              -0.000783612               0.999999985               0.000436769              -0.000795312               0.999999985               0.000423050              -0.000803844               0.999999985               0.000401517              -0.000806451               0.999999985               0.000371503              -0.000802158               0.999999985               0.000333340              -0.000791203               0.999999985               0.000288408              -0.000774462               0.999999985               0.000237748              -0.000753168               0.999999985               0.000182475              -0.000728174               0.999999985               0.000123929              -0.000700540               0.999999985               0.000063695              -0.000671408               0.999999985               0.000002944              -0.000641695               0.999999985              -0.000057891              -0.000612161               0.999999985               0.000552176              -0.001035235               0.999999985               0.000430230              -0.000923607               0.999999985               0.000390814              -0.000884122               0.999999985               0.000377510              -0.000877439               0.999999985               0.000371798              -0.000884634               0.999999985               0.000365877              -0.000896528               0.999999985               0.000355573              -0.000907860               0.999999985               0.000338561              -0.000915719               0.999999985               0.000313849              -0.000918697               0.999999985               0.000280993              -0.000916310               0.999999985               0.000240884              -0.000908908               0.999999985               0.000194424              -0.000897184               0.999999985               0.000142386              -0.000881888               0.999999985               0.000085943              -0.000863898               0.999999985               0.000026301              -0.000843980               0.999999985              -0.000035320              -0.000823204               0.999999985              -0.000097457              -0.000802209               0.999999985               0.000482552              -0.001118906               0.999999985               0.000362295              -0.001031585               0.999999985               0.000320482              -0.000994958               0.999999985               0.000305818              -0.000986054               0.999999985               0.000299899              -0.000991777               0.999999985               0.000295264              -0.001003997               0.999999985               0.000287625              -0.001017926               0.999999985               0.000274483              -0.001030490               0.999999985               0.000254439              -0.001040119               0.999999985               0.000226963              -0.001045880               0.999999985               0.000192198              -0.001047443               0.999999985               0.000150675              -0.001045033               0.999999985               0.000102851              -0.001039009               0.999999985               0.000049308              -0.001030133               0.999999985              -0.000009162              -0.001019128               0.999999985              -0.000071252              -0.001006759               0.999999985              -0.000135274              -0.000993849               0.999999985               0.000408644              -0.001192431               0.999999985               0.000297006              -0.001132759               0.999999985               0.000254715              -0.001103657               0.999999985               0.000238457              -0.001095853               0.999999985               0.000231850              -0.001101367               0.999999985               0.000227635              -0.001114451               0.999999985               0.000221785              -0.001130959               0.999999985               0.000211724              -0.001148078               0.999999985               0.000195899              -0.001163976               0.999999985               0.000173501              -0.001177461               0.999999985               0.000144410              -0.001187804               0.999999985               0.000108719              -0.001194622               0.999999985               0.000066024              -0.001198047               0.999999985               0.000016373              -0.001198502               0.999999985              -0.000039516              -0.001196432               0.999999985              -0.000101056              -0.001192573               0.999999985              -0.000166989              -0.001187656               0.999999985               0.000331214              -0.001254368               0.999999985               0.000234329              -0.001222876               0.999999985               0.000194432              -0.001204632               0.999999985               0.000177570              -0.001200848               0.999999985               0.000170185              -0.001208003               0.999999985               0.000165907              -0.001222683               0.999999985               0.000161047              -0.001241938               0.999999985               0.000153360              -0.001263283               0.999999985               0.000141328              -0.001285003               0.999999985               0.000123845              -0.001305718               0.999999985               0.000100701              -0.001324443               0.999999985               0.000071345              -0.001340588               0.999999985               0.000035026              -0.001353670               0.999999985              -0.000008666              -0.001363722               0.999999985              -0.000059887              -0.001370977               0.999999985              -0.000118561              -0.001376037               0.999999985              -0.000184706              -0.001379439               0.999999985               0.000250971              -0.001303523               0.999999985               0.000173948              -0.001297678               0.999999985               0.000139754              -0.001291727               0.999999985               0.000124152              -0.001293921               0.999999985               0.000116700              -0.001304321               0.999999985               0.000112352              -0.001321437               0.999999985               0.000108233              -0.001343444               0.999999985               0.000102480              -0.001368598               0.999999985               0.000093775              -0.001395316               0.999999985               0.000080985              -0.001422422               0.999999985               0.000063581              -0.001448942               0.999999985               0.000041011              -0.001473954               0.999999985               0.000012447              -0.001496835               0.999999985              -0.000023135              -0.001517022               0.999999985              -0.000066507              -0.001534249               0.999999985              -0.000118425              -0.001548761               0.999999985              -0.000179983              -0.001560965               0.999999985               0.000168517              -0.001339181               0.999999985               0.000115198              -0.001353717               0.999999985               0.000090116              -0.001358895               0.999999985               0.000077953              -0.001367378               0.999999985               0.000071726              -0.001381708               0.999999985               0.000068007              -0.001401672               0.999999985               0.000064734              -0.001426425               0.999999985               0.000060741              -0.001454839               0.999999985               0.000055026              -0.001485767               0.999999985               0.000046544              -0.001518053               0.999999985               0.000034855              -0.001550751               0.999999985               0.000019468              -0.001583021               0.999999985              -0.000000267              -0.001614206               0.999999985              -0.000025448              -0.001643530               0.999999985              -0.000057198              -0.001670382               0.999999985              -0.000096715              -0.001694366               0.999999985              -0.000145721              -0.001715385               0.999999985               0.000084608              -0.001360748               0.999999985               0.000057405              -0.001388332               0.999999985               0.000044131              -0.001401391               0.999999985               0.000037420              -0.001414652               0.999999985               0.000033886              -0.001432129               0.999999985               0.000031633              -0.001454439               0.999999985               0.000029840              -0.001481238               0.999999985               0.000027682              -0.001511894               0.999999985               0.000024837              -0.001545586               0.999999985               0.000020505              -0.001581389               0.999999985               0.000014662              -0.001618229               0.999999985               0.000006980              -0.001655256               0.999999985              -0.000003219              -0.001691798               0.999999985              -0.000016384              -0.001727209               0.999999985              -0.000033229              -0.001760880               0.999999985              -0.000054600              -0.001791878               0.999999985              -0.000081767              -0.001819592               0.999999985              -0.000000000              -0.001368004               0.999999985              -0.000000000              -0.001400051               0.999999985              -0.000000000              -0.001415920               0.999999985              -0.000000000              -0.001430949               0.999999985              -0.000000000              -0.001449647               0.999999985              -0.000000000              -0.001472887               0.999999985              -0.000000000              -0.001500453               0.999999985               0.000000000              -0.001531883               0.999999985               0.000000000              -0.001566474               0.999999985               0.000000000              -0.001603354               0.999999985               0.000000000              -0.001641671               0.999999985              -0.000000000              -0.001680535               0.999999985              -0.000000000              -0.001719028               0.999999985               0.000000000              -0.001756458               0.999999985              -0.000000000              -0.001792317               0.999999985              -0.000000000              -0.001826014               0.999999985               0.000000000              -0.001856445               0.999999985               0.000907705               0.000000000               0.999999985               0.000957831              -0.000000000               0.999999985               0.000979549               0.000000000               0.999999985               0.000992240               0.000000000               0.999999985               0.001002614              -0.000000000               0.999999985               0.001013134              -0.000000000               0.999999985               0.001024408               0.000000000               0.999999985               0.001036493              -0.000000000               0.999999985               0.001049108               0.000000000               0.999999985               0.001061788              -0.000000000               0.999999985               0.001074148               0.000000000               0.999999985               0.001085897               0.000000000               0.999999985               0.001096755               0.000000000               0.999999985               0.001106348               0.000000000               0.999999985               0.001114370              -0.000000000               0.999999985               0.001120197               0.000000000               0.999999985               0.001122987               0.000000000               0.999999985               0.000902661               0.000130467               0.999999985               0.000948499               0.000103493               0.999999985               0.000967383               0.000091227               0.999999985               0.000978241               0.000086112               0.999999985               0.000987367               0.000084450               0.999999985               0.000996850               0.000084297               0.999999985               0.001007149               0.000084733               0.999999985               0.001018166               0.000084891               0.999999985               0.001029624               0.000084269               0.999999985               0.001041004               0.000082372               0.999999985               0.001051867               0.000079123               0.999999985               0.001061959               0.000074151               0.999999985               0.001070891               0.000067297               0.999999985               0.001078298               0.000058001               0.999999985               0.001083865               0.000045807               0.999999985               0.001087143               0.000029579               0.999999985               0.001087560               0.000007819               0.999999985               0.000887620               0.000259659               0.999999985               0.000920932               0.000206548               0.999999985               0.000932009               0.000183305               0.999999985               0.000937817               0.000174231               0.999999985               0.000943450               0.000171727               0.999999985               0.000950135               0.000172133               0.999999985               0.000957769               0.000173305               0.999999985               0.000966020               0.000173945               0.999999985               0.000974382               0.000172879               0.999999985               0.000982147               0.000169403               0.999999985               0.000988868               0.000163107               0.999999985               0.000994112               0.000153713               0.999999985               0.000997517               0.000140507               0.999999985               0.000998845               0.000123021               0.999999985               0.000997872               0.000100543               0.999999985               0.000994519               0.000071603               0.999999985               0.000988715               0.000034189               0.999999985               0.000862810               0.000386432               0.999999985               0.000876503               0.000308904               0.999999985               0.000876383               0.000277097               0.999999985               0.000875395               0.000265906               0.999999985               0.000876402               0.000263995               0.999999985               0.000879349               0.000265789               0.999999985               0.000883424               0.000268388               0.999999985               0.000887825               0.000269679               0.999999985               0.000891596               0.000268485               0.999999985               0.000894066               0.000263641               0.999999985               0.000894693               0.000254767               0.999999985               0.000892922               0.000241296               0.999999985               0.000888516               0.000222884               0.999999985               0.000881471               0.000199213               0.999999985               0.000871924               0.000169613               0.999999985               0.000859959               0.000132914               0.999999985               0.000846001               0.000088221               0.999999985               0.000828590               0.000509734               0.999999985               0.000817374               0.000410613               0.999999985               0.000804711               0.000373206               0.999999985               0.000796998               0.000362018               0.999999985               0.000793794               0.000361913               0.999999985               0.000793201               0.000365881               0.999999985               0.000793610               0.000370120               0.999999985               0.000793540               0.000372350               0.999999985               0.000791953               0.000370984               0.999999985               0.000787994               0.000365034               0.999999985               0.000781076               0.000353869               0.999999985               0.000770834               0.000337112               0.999999985               0.000757382               0.000314939               0.999999985               0.000741036               0.000287344               0.999999985               0.000722093               0.000254038               0.999999985               0.000701021               0.000214731               0.999999985               0.000678552               0.000169838               0.999999985               0.000785745               0.000628331               0.999999985               0.000746569               0.000511870               0.999999985               0.000722409               0.000471819               0.999999985               0.000709768               0.000462265               0.999999985               0.000703628               0.000464729               0.999999985               0.000700300               0.000471063               0.999999985               0.000697233               0.000476989               0.999999985               0.000692556               0.000479977               0.999999985               0.000685009               0.000478315               0.999999985               0.000673768               0.000471124               0.999999985               0.000658443               0.000457763               0.999999985               0.000639163               0.000438723               0.999999985               0.000616316               0.000414274               0.999999985               0.000590391               0.000384859               0.999999985               0.000561985               0.000350680               0.999999985               0.000531791               0.000312082               0.999999985               0.000500537               0.000270367               0.999999985               0.000735148               0.000741030               0.999999985               0.000667830               0.000612700               0.999999985               0.000635081               0.000572592               0.999999985               0.000619925               0.000565594               0.999999985               0.000612508               0.000570790               0.999999985               0.000607281               0.000579271               0.999999985               0.000600955               0.000586570               0.999999985               0.000591298               0.000589883               0.999999985               0.000577138               0.000587542               0.999999985               0.000557977               0.000578865               0.999999985               0.000533649               0.000563954               0.999999985               0.000504791               0.000543508               0.999999985               0.000472126               0.000518160               0.999999985               0.000436341               0.000488446               0.999999985               0.000398061               0.000454988               0.999999985               0.000358188               0.000418609               0.999999985               0.000317424               0.000380831               0.999999985               0.000677949               0.000846711               0.999999985               0.000585025               0.000712807               0.999999985               0.000547511               0.000674588               0.999999985               0.000532569               0.000670201               0.999999985               0.000525196               0.000677850               0.999999985               0.000518570               0.000688121               0.999999985               0.000508859               0.000696310               0.999999985               0.000493719               0.000699392               0.999999985               0.000472198               0.000696078               0.999999985               0.000444080               0.000686193               0.999999985               0.000409922               0.000670182               0.999999985               0.000370733               0.000649091               0.999999985               0.000327423               0.000623691               0.999999985               0.000280756               0.000594646               0.999999985               0.000231693               0.000562872               0.999999985               0.000181425               0.000529535               0.999999985               0.000130639               0.000495765               0.999999985               0.000616112               0.000943499               0.999999985               0.000500904               0.000812108               0.999999985               0.000464018               0.000776164               0.999999985               0.000451231               0.000773945               0.999999985               0.000444772               0.000783612               0.999999985               0.000436769               0.000795312               0.999999985               0.000423050               0.000803844               0.999999985               0.000401517               0.000806451               0.999999985               0.000371503               0.000802158               0.999999985               0.000333340               0.000791203               0.999999985               0.000288408               0.000774462               0.999999985               0.000237748               0.000753168               0.999999985               0.000182475               0.000728174               0.999999985               0.000123929               0.000700540               0.999999985               0.000063695               0.000671408               0.999999985               0.000002944               0.000641695               0.999999985              -0.000057891               0.000612161               0.999999985               0.000552176               0.001035235               0.999999985               0.000430230               0.000923607               0.999999985               0.000390814               0.000884122               0.999999985               0.000377510               0.000877439               0.999999985               0.000371798               0.000884634               0.999999985               0.000365877               0.000896528               0.999999985               0.000355573               0.000907860               0.999999985               0.000338561               0.000915719               0.999999985               0.000313849               0.000918697               0.999999985               0.000280993               0.000916310               0.999999985               0.000240884               0.000908908               0.999999985               0.000194424               0.000897184               0.999999985               0.000142386               0.000881888               0.999999985               0.000085943               0.000863898               0.999999985               0.000026301               0.000843980               0.999999985              -0.000035320               0.000823204               0.999999985              -0.000097457               0.000802209               0.999999985               0.000482552               0.001118906               0.999999985               0.000362295               0.001031585               0.999999985               0.000320482               0.000994958               0.999999985               0.000305818               0.000986054               0.999999985               0.000299899               0.000991777               0.999999985               0.000295264               0.001003997               0.999999985               0.000287625               0.001017926               0.999999985               0.000274483               0.001030490               0.999999985               0.000254439               0.001040119               0.999999985               0.000226963               0.001045880               0.999999985               0.000192198               0.001047443               0.999999985               0.000150675               0.001045033               0.999999985               0.000102851               0.001039009               0.999999985               0.000049308               0.001030133               0.999999985              -0.000009162               0.001019128               0.999999985              -0.000071252               0.001006759               0.999999985              -0.000135274               0.000993849               0.999999985               0.000408644               0.001192431               0.999999985               0.000297006               0.001132759               0.999999985               0.000254715               0.001103657               0.999999985               0.000238457               0.001095853               0.999999985               0.000231850               0.001101367               0.999999985               0.000227635               0.001114451               0.999999985               0.000221785               0.001130959               0.999999985               0.000211724               0.001148078               0.999999985               0.000195899               0.001163976               0.999999985               0.000173501               0.001177461               0.999999985               0.000144410               0.001187804               0.999999985               0.000108719               0.001194622               0.999999985               0.000066024               0.001198047               0.999999985               0.000016373               0.001198502               0.999999985              -0.000039516               0.001196432               0.999999985              -0.000101056               0.001192573               0.999999985              -0.000166989               0.001187656               0.999999985               0.000331214               0.001254368               0.999999985               0.000234329               0.001222876               0.999999985               0.000194432               0.001204632               0.999999985               0.000177570               0.001200848               0.999999985               0.000170185               0.001208003               0.999999985               0.000165907               0.001222683               0.999999985               0.000161047               0.001241938               0.999999985               0.000153360               0.001263283               0.999999985               0.000141328               0.001285003               0.999999985               0.000123845               0.001305718               0.999999985               0.000100701               0.001324443               0.999999985               0.000071345               0.001340588               0.999999985               0.000035026               0.001353670               0.999999985              -0.000008666               0.001363722               0.999999985              -0.000059887               0.001370977               0.999999985              -0.000118561               0.001376037               0.999999985              -0.000184706               0.001379439               0.999999985               0.000250971               0.001303523               0.999999985               0.000173948               0.001297678               0.999999985               0.000139754               0.001291727               0.999999985               0.000124152               0.001293921               0.999999985               0.000116700               0.001304321               0.999999985               0.000112352               0.001321437               0.999999985               0.000108233               0.001343444               0.999999985               0.000102480               0.001368598               0.999999985               0.000093775               0.001395316               0.999999985               0.000080985               0.001422422               0.999999985               0.000063581               0.001448942               0.999999985               0.000041011               0.001473954               0.999999985               0.000012447               0.001496835               0.999999985              -0.000023135               0.001517022               0.999999985              -0.000066507               0.001534249               0.999999985              -0.000118425               0.001548761               0.999999985              -0.000179983               0.001560965               0.999999985               0.000168517               0.001339181               0.999999985               0.000115198               0.001353717               0.999999985               0.000090116               0.001358895               0.999999985               0.000077953               0.001367378               0.999999985               0.000071726               0.001381708               0.999999985               0.000068007               0.001401672               0.999999985               0.000064734               0.001426425               0.999999985               0.000060741               0.001454839               0.999999985               0.000055026               0.001485767               0.999999985               0.000046544               0.001518053               0.999999985               0.000034855               0.001550751               0.999999985               0.000019468               0.001583021               0.999999985              -0.000000267               0.001614206               0.999999985              -0.000025448               0.001643530               0.999999985              -0.000057198               0.001670382               0.999999985              -0.000096715               0.001694366               0.999999985              -0.000145721               0.001715385               0.999999985               0.000084608               0.001360748               0.999999985               0.000057405               0.001388332               0.999999985               0.000044131               0.001401391               0.999999985               0.000037420               0.001414652               0.999999985               0.000033886               0.001432129               0.999999985               0.000031633               0.001454439               0.999999985               0.000029840               0.001481238               0.999999985               0.000027682               0.001511894               0.999999985               0.000024837               0.001545586               0.999999985               0.000020505               0.001581389               0.999999985               0.000014662               0.001618229               0.999999985               0.000006980               0.001655256               0.999999985              -0.000003219               0.001691798               0.999999985              -0.000016384               0.001727209               0.999999985              -0.000033229               0.001760880               0.999999985              -0.000054600               0.001791878               0.999999985              -0.000081767               0.001819592               0.999999985               0.000000000               0.001368004               0.999999985              -0.000000000               0.001400051               0.999999985              -0.000000000               0.001415920               0.999999985              -0.000000000               0.001430949               0.999999985               0.000000000               0.001449647               0.999999985               0.000000000               0.001472887               0.999999985              -0.000000000               0.001500453               0.999999985               0.000000000               0.001531883               0.999999985              -0.000000000               0.001566474               0.999999985              -0.000000000               0.001603354               0.999999985              -0.000000000               0.001641671               0.999999985               0.000000000               0.001680535               0.999999985               0.000000000               0.001719028               0.999999985              -0.000000000               0.001756458               0.999999985              -0.000000000               0.001792317               0.999999985               0.000000000               0.001826014               0.999999985              -0.000000000               0.001856445               0.999999985 </DataArray>
<DataArray type="Float64"                                    Name="defo"                                                      NumberOfComponents=" 3" format="ascii">
             -0.000907705               0.000000000               0.999999985              -0.000957831              -0.000000000               0.999999985              -0.000979549               0.000000000               0.999999985              -0.000992240              -0.000000000               0.999999985              -0.001002614              -0.000000000               0.999999985              -0.001013134               0.000000000               0.999999985              -0.001024408               0.000000000               0.999999985              -0.001036493               0.000000000               0.999999985              -0.001049108               0.000000000               0.999999985              -0.001061788               0.000000000               0.999999985              -0.001074148               0.000000000               0.999999985              -0.001085897               0.000000000               0.999999985              -0.001096755              -0.000000000               0.999999985              -0.001106348               0.000000000               0.999999985              -0.001114370               0.000000000               0.999999985              -0.001120197               0.000000000               0.999999985              -0.001122987               0.000000000               0.999999985              -0.000902661               0.000130467               0.999999985              -0.000948499               0.000103493               0.999999985              -0.000967383               0.000091227               0.999999985              -0.000978241               0.000086112               0.999999985              -0.000987367               0.000084450               0.999999985              -0.000996850               0.000084297               0.999999985              -0.001007149               0.000084733               0.999999985              -0.001018166               0.000084891               0.999999985              -0.001029624               0.000084269               0.999999985              -0.001041004               0.000082372               0.999999985              -0.001051867               0.000079123               0.999999985              -0.001061959               0.000074151               0.999999985              -0.001070891               0.000067297               0.999999985              -0.001078298               0.000058001               0.999999985              -0.001083865               0.000045807               0.999999985              -0.001087143               0.000029579               0.999999985              -0.001087560               0.000007819               0.999999985              -0.000887620               0.000259659               0.999999985              -0.000920932               0.000206548               0.999999985              -0.000932009               0.000183305               0.999999985              -0.000937817               0.000174231               0.999999985              -0.000943450               0.000171727               0.999999985              -0.000950135               0.000172133               0.999999985              -0.000957769               0.000173305               0.999999985              -0.000966020               0.000173945               0.999999985              -0.000974382               0.000172879               0.999999985              -0.000982147               0.000169403               0.999999985              -0.000988868               0.000163107               0.999999985              -0.000994112               0.000153713               0.999999985              -0.000997517               0.000140507               0.999999985              -0.000998845               0.000123021               0.999999985              -0.000997872               0.000100543               0.999999985              -0.000994519               0.000071603               0.999999985              -0.000988715               0.000034189               0.999999985              -0.000862810               0.000386432               0.999999985              -0.000876503               0.000308904               0.999999985              -0.000876383               0.000277097               0.999999985              -0.000875395               0.000265906               0.999999985              -0.000876402               0.000263995               0.999999985              -0.000879349               0.000265789               0.999999985              -0.000883424               0.000268388               0.999999985              -0.000887825               0.000269679               0.999999985              -0.000891596               0.000268485               0.999999985              -0.000894066               0.000263641               0.999999985              -0.000894693               0.000254767               0.999999985              -0.000892922               0.000241296               0.999999985              -0.000888516               0.000222884               0.999999985              -0.000881471               0.000199213               0.999999985              -0.000871924               0.000169613               0.999999985              -0.000859959               0.000132914               0.999999985              -0.000846001               0.000088221               0.999999985              -0.000828590               0.000509734               0.999999985              -0.000817374               0.000410613               0.999999985              -0.000804711               0.000373206               0.999999985              -0.000796998               0.000362018               0.999999985              -0.000793794               0.000361913               0.999999985              -0.000793201               0.000365881               0.999999985              -0.000793610               0.000370120               0.999999985              -0.000793540               0.000372350               0.999999985              -0.000791953               0.000370984               0.999999985              -0.000787994               0.000365034               0.999999985              -0.000781076               0.000353869               0.999999985              -0.000770834               0.000337112               0.999999985              -0.000757382               0.000314939               0.999999985              -0.000741036               0.000287344               0.999999985              -0.000722093               0.000254038               0.999999985              -0.000701021               0.000214731               0.999999985              -0.000678552               0.000169838               0.999999985              -0.000785745               0.000628331               0.999999985              -0.000746569               0.000511870               0.999999985              -0.000722409               0.000471819               0.999999985              -0.000709768               0.000462265               0.999999985              -0.000703628               0.000464729               0.999999985              -0.000700300               0.000471063               0.999999985              -0.000697233               0.000476989               0.999999985              -0.000692556               0.000479977               0.999999985              -0.000685009               0.000478315               0.999999985              -0.000673768               0.000471124               0.999999985              -0.000658443               0.000457763               0.999999985              -0.000639163               0.000438723               0.999999985              -0.000616316               0.000414274               0.999999985              -0.000590391               0.000384859               0.999999985              -0.000561985               0.000350680               0.999999985              -0.000531791               0.000312082               0.999999985              -0.000500537               0.000270367               0.999999985              -0.000735148               0.000741030               0.999999985              -0.000667830               0.000612700               0.999999985              -0.000635081               0.000572592               0.999999985              -0.000619925               0.000565594               0.999999985              -0.000612508               0.000570790               0.999999985              -0.000607281               0.000579271               0.999999985              -0.000600955               0.000586570               0.999999985              -0.000591298               0.000589883               0.999999985              -0.000577138               0.000587542               0.999999985              -0.000557977               0.000578865               0.999999985              -0.000533649               0.000563954               0.999999985              -0.000504791               0.000543508               0.999999985              -0.000472126               0.000518160               0.999999985              -0.000436341               0.000488446               0.999999985              -0.000398061               0.000454988               0.999999985              -0.000358188               0.000418609               0.999999985              -0.000317424               0.000380831               0.999999985              -0.000677949               0.000846711               0.999999985              -0.000585025               0.000712807               0.999999985              -0.000547511               0.000674588               0.999999985              -0.000532569               0.000670201               0.999999985              -0.000525196               0.000677850               0.999999985              -0.000518570               0.000688121               0.999999985              -0.000508859               0.000696310               0.999999985              -0.000493719               0.000699392               0.999999985              -0.000472198               0.000696078               0.999999985              -0.000444080               0.000686193               0.999999985              -0.000409922               0.000670182               0.999999985              -0.000370733               0.000649091               0.999999985              -0.000327423               0.000623691               0.999999985              -0.000280756               0.000594646               0.999999985              -0.000231693               0.000562872               0.999999985              -0.000181425               0.000529535               0.999999985              -0.000130639               0.000495765               0.999999985              -0.000616112               0.000943499               0.999999985              -0.000500904               0.000812108               0.999999985              -0.000464018               0.000776164               0.999999985              -0.000451231               0.000773945               0.999999985              -0.000444772               0.000783612               0.999999985              -0.000436769               0.000795312               0.999999985              -0.000423050               0.000803844               0.999999985              -0.000401517               0.000806451               0.999999985              -0.000371503               0.000802158               0.999999985              -0.000333340               0.000791203               0.999999985              -0.000288408               0.000774462               0.999999985              -0.000237748               0.000753168               0.999999985              -0.000182475               0.000728174               0.999999985              -0.000123929               0.000700540               0.999999985              -0.000063695               0.000671408               0.999999985              -0.000002944               0.000641695               0.999999985               0.000057891               0.000612161               0.999999985              -0.000552176               0.001035235               0.999999985              -0.000430230               0.000923607               0.999999985              -0.000390814               0.000884122               0.999999985              -0.000377510               0.000877439               0.999999985              -0.000371798               0.000884634               0.999999985              -0.000365877               0.000896528               0.999999985              -0.000355573               0.000907860               0.999999985              -0.000338561               0.000915719               0.999999985              -0.000313849               0.000918697               0.999999985              -0.000280993               0.000916310               0.999999985              -0.000240884               0.000908908               0.999999985              -0.000194424               0.000897184               0.999999985              -0.000142386               0.000881888               0.999999985              -0.000085943               0.000863898               0.999999985              -0.000026301               0.000843980               0.999999985               0.000035320               0.000823204               0.999999985               0.000097457               0.000802209               0.999999985              -0.000482552               0.001118906               0.999999985              -0.000362295               0.001031585               0.999999985              -0.000320482               0.000994958               0.999999985              -0.000305818               0.000986054               0.999999985              -0.000299899               0.000991777               0.999999985              -0.000295264               0.001003997               0.999999985              -0.000287625               0.001017926               0.999999985              -0.000274483               0.001030490               0.999999985              -0.000254439               0.001040119               0.999999985              -0.000226963               0.001045880               0.999999985              -0.000192198               0.001047443               0.999999985              -0.000150675               0.001045033               0.999999985              -0.000102851               0.001039009               0.999999985              -0.000049308               0.001030133               0.999999985               0.000009162               0.001019128               0.999999985               0.000071252               0.001006759               0.999999985               0.000135274               0.000993849               0.999999985              -0.000408644               0.001192431               0.999999985              -0.000297006               0.001132759               0.999999985              -0.000254715               0.001103657               0.999999985              -0.000238457               0.001095853               0.999999985              -0.000231850               0.001101367               0.999999985              -0.000227635               0.001114451               0.999999985              -0.000221785               0.001130959               0.999999985              -0.000211724               0.001148078               0.999999985              -0.000195899               0.001163976               0.999999985              -0.000173501               0.001177461               0.999999985              -0.000144410               0.001187804               0.999999985              -0.000108719               0.001194622               0.999999985              -0.000066024               0.001198047               0.999999985              -0.000016373               0.001198502               0.999999985               0.000039516               0.001196432               0.999999985               0.000101056               0.001192573               0.999999985               0.000166989               0.001187656               0.999999985              -0.000331214               0.001254368               0.999999985              -0.000234329               0.001222876               0.999999985              -0.000194432               0.001204632               0.999999985              -0.000177570               0.001200848               0.999999985              -0.000170185               0.001208003               0.999999985              -0.000165907               0.001222683               0.999999985              -0.000161047               0.001241938               0.999999985              -0.000153360               0.001263283               0.999999985              -0.000141328               0.001285003               0.999999985              -0.000123845               0.001305718               0.999999985              -0.000100701               0.001324443               0.999999985              -0.000071345               0.001340588               0.999999985              -0.000035026               0.001353670               0.999999985               0.000008666               0.001363722               0.999999985               0.000059887               0.001370977               0.999999985               0.000118561               0.001376037               0.999999985               0.000184706               0.001379439               0.999999985              -0.000250971               0.001303523               0.999999985              -0.000173948               0.001297678               0.999999985              -0.000139754               0.001291727               0.999999985              -0.000124152               0.001293921               0.999999985              -0.000116700               0.001304321               0.999999985              -0.000112352               0.001321437               0.999999985              -0.000108233               0.001343444               0.999999985              -0.000102480               0.001368598               0.999999985              -0.000093775               0.001395316               0.999999985              -0.000080985               0.001422422               0.999999985              -0.000063581               0.001448942               0.999999985              -0.000041011               0.001473954               0.999999985              -0.000012447               0.001496835               0.999999985               0.000023135               0.001517022               0.999999985               0.000066507               0.001534249               0.999999985               0.000118425               0.001548761               0.999999985               0.000179983               0.001560965               0.999999985              -0.000168517               0.001339181               0.999999985              -0.000115198               0.001353717               0.999999985              -0.000090116               0.001358895               0.999999985              -0.000077953               0.001367378               0.999999985              -0.000071726               0.001381708               0.999999985              -0.000068007               0.001401672               0.999999985              -0.000064734               0.001426425               0.999999985              -0.000060741               0.001454839               0.999999985              -0.000055026               0.001485767               0.999999985              -0.000046544               0.001518053               0.999999985              -0.000034855               0.001550751               0.999999985              -0.000019468               0.001583021               0.999999985               0.000000267               0.001614206               0.999999985               0.000025448               0.001643530               0.999999985               0.000057198               0.001670382               0.999999985               0.000096715               0.001694366               0.999999985               0.000145721               0.001715385               0.999999985              -0.000084608               0.001360748               0.999999985              -0.000057405               0.001388332               0.999999985              -0.000044131               0.001401391               0.999999985              -0.000037420               0.001414652               0.999999985              -0.000033886               0.001432129               0.999999985              -0.000031633               0.001454439               0.999999985              -0.000029840               0.001481238               0.999999985              -0.000027682               0.001511894               0.999999985              -0.000024837               0.001545586               0.999999985              -0.000020505               0.001581389               0.999999985              -0.000014662               0.001618229               0.999999985              -0.000006980               0.001655256               0.999999985               0.000003219               0.001691798               0.999999985               0.000016384               0.001727209               0.999999985               0.000033229               0.001760880               0.999999985               0.000054600               0.001791878               0.999999985               0.000081767               0.001819592               0.999999985               0.000000000               0.001368004               0.999999985              -0.000000000               0.001400051               0.999999985              -0.000000000               0.001415920               0.999999985              -0.000000000               0.001430949               0.999999985               0.000000000               0.001449647               0.999999985               0.000000000               0.001472887               0.999999985              -0.000000000               0.001500453               0.999999985               0.000000000               0.001531883               0.999999985              -0.000000000               0.001566474               0.999999985              -0.000000000               0.001603354               0.999999985              -0.000000000               0.001641671               0.999999985               0.000000000               0.001680535               0.999999985               0.000000000               0.001719028               0.999999985              -0.000000000               0.001756458               0.999999985              -0.000000000               0.001792317               0.999999985               0.000000000               0.001826014               0.999999985              -0.000000000               0.001856445               0.999999985              -0.000907705               0.000000000               0.999999985              -0.000957831              -0.000000000               0.999999985              -0.000979549               0.000000000               0.999999985              -0.000992240              -0.000000000               0.999999985              -0.001002614              -0.000000000               0.999999985              -0.001013134               0.000000000               0.999999985              -0.001024408               0.000000000               0.999999985              -0.001036493               0.000000000               0.999999985              -0.001049108               0.000000000               0.999999985              -0.001061788               0.000000000               0.999999985              -0.001074148               0.000000000               0.999999985              -0.001085897               0.000000000               0.999999985              -0.001096755              -0.000000000               0.999999985              -0.001106348               0.000000000               0.999999985              -0.001114370               0.000000000               0.999999985              -0.001120197               0.000000000               0.999999985              -0.001122987               0.000000000               0.999999985              -0.000902661              -0.000130467               0.999999985              -0.000948499              -0.000103493               0.999999985              -0.000967383              -0.000091227               0.999999985              -0.000978241              -0.000086112               0.999999985              -0.000987367              -0.000084450               0.999999985              -0.000996850              -0.000084297               0.999999985              -0.001007149              -0.000084733               0.999999985              -0.001018166              -0.000084891               0.999999985              -0.001029624              -0.000084269               0.999999985              -0.001041004              -0.000082372               0.999999985              -0.001051867              -0.000079123               0.999999985              -0.001061959              -0.000074151               0.999999985              -0.001070891              -0.000067297               0.999999985              -0.001078298              -0.000058001               0.999999985              -0.001083865              -0.000045807               0.999999985              -0.001087143              -0.000029579               0.999999985              -0.001087560              -0.000007819               0.999999985              -0.000887620              -0.000259659               0.999999985              -0.000920932              -0.000206548               0.999999985              -0.000932009              -0.000183305               0.999999985              -0.000937817              -0.000174231               0.999999985              -0.000943450              -0.000171727               0.999999985              -0.000950135              -0.000172133               0.999999985              -0.000957769              -0.000173305               0.999999985              -0.000966020              -0.000173945               0.999999985              -0.000974382              -0.000172879               0.999999985              -0.000982147              -0.000169403               0.999999985              -0.000988868              -0.000163107               0.999999985              -0.000994112              -0.000153713               0.999999985              -0.000997517              -0.000140507               0.999999985              -0.000998845              -0.000123021               0.999999985              -0.000997872              -0.000100543               0.999999985              -0.000994519              -0.000071603               0.999999985              -0.000988715              -0.000034189               0.999999985              -0.000862810              -0.000386432               0.999999985              -0.000876503              -0.000308904               0.999999985              -0.000876383              -0.000277097               0.999999985              -0.000875395              -0.000265906               0.999999985              -0.000876402              -0.000263995               0.999999985              -0.000879349              -0.000265789               0.999999985              -0.000883424              -0.000268388               0.999999985              -0.000887825              -0.000269679               0.999999985              -0.000891596              -0.000268485               0.999999985              -0.000894066              -0.000263641               0.999999985              -0.000894693              -0.000254767               0.999999985              -0.000892922              -0.000241296               0.999999985              -0.000888516              -0.000222884               0.999999985              -0.000881471              -0.000199213               0.999999985              -0.000871924              -0.000169613               0.999999985              -0.000859959              -0.000132914               0.999999985              -0.000846001              -0.000088221               0.999999985              -0.000828590              -0.000509734               0.999999985              -0.000817374              -0.000410613               0.999999985              -0.000804711              -0.000373206               0.999999985              -0.000796998              -0.000362018               0.999999985              -0.000793794              -0.000361913               0.999999985              -0.000793201              -0.000365881               0.999999985              -0.000793610              -0.000370120               0.999999985              -0.000793540              -0.000372350               0.999999985              -0.000791953              -0.000370984               0.999999985              -0.000787994              -0.000365034               0.999999985              -0.000781076              -0.000353869               0.999999985              -0.000770834              -0.000337112               0.999999985              -0.000757382              -0.000314939               0.999999985              -0.000741036              -0.000287344               0.999999985              -0.000722093              -0.000254038               0.999999985              -0.000701021              -0.000214731               0.999999985              -0.000678552              -0.000169838               0.999999985              -0.000785745              -0.000628331               0.999999985              -0.000746569              -0.000511870               0.999999985              -0.000722409              -0.000471819               0.999999985              -0.000709768              -0.000462265               0.999999985              -0.000703628              -0.000464729               0.999999985              -0.000700300              -0.000471063               0.999999985              -0.000697233              -0.000476989               0.999999985              -0.000692556              -0.000479977               0.999999985              -0.000685009              -0.000478315               0.999999985              -0.000673768              -0.000471124               0.999999985              -0.000658443              -0.000457763               0.999999985              -0.000639163              -0.000438723               0.999999985              -0.000616316              -0.000414274               0.999999985              -0.000590391              -0.000384859               0.999999985              -0.000561985              -0.000350680               0.999999985              -0.000531791              -0.000312082               0.999999985              -0.000500537              -0.000270367               0.999999985              -0.000735148              -0.000741030               0.999999985              -0.000667830              -0.000612700               0.999999985              -0.000635081              -0.000572592               0.999999985              -0.000619925              -0.000565594               0.999999985              -0.000612508              -0.000570790               0.999999985              -0.000607281              -0.000579271               0.999999985              -0.000600955              -0.000586570               0.999999985              -0.000591298              -0.000589883               0.999999985              -0.000577138              -0.000587542               0.999999985              -0.000557977              -0.000578865               0.999999985              -0.000533649              -0.000563954               0.999999985              -0.000504791              -0.000543508               0.999999985              -0.000472126              -0.000518160               0.999999985              -0.000436341              -0.000488446               0.999999985              -0.000398061              -0.000454988               0.999999985              -0.000358188              -0.000418609               0.999999985              -0.000317424              -0.000380831               0.999999985              -0.000677949              -0.000846711               0.999999985              -0.000585025              -0.000712807               0.999999985              -0.000547511              -0.000674588               0.999999985              -0.000532569              -0.000670201               0.999999985              -0.000525196              -0.000677850               0.999999985              -0.000518570              -0.000688121               0.999999985              -0.000508859              -0.000696310               0.999999985              -0.000493719              -0.000699392               0.999999985              -0.000472198              -0.000696078               0.999999985              -0.000444080              -0.000686193               0.999999985              -0.000409922              -0.000670182               0.999999985              -0.000370733              -0.000649091               0.999999985              -0.000327423              -0.000623691               0.999999985              -0.000280756              -0.000594646               0.999999985              -0.000231693              -0.000562872               0.999999985              -0.000181425              -0.000529535               0.999999985              -0.000130639              -0.000495765               0.999999985              -0.000616112              -0.000943499               0.999999985              -0.000500904              -0.000812108               0.999999985              -0.000464018              -0.000776164               0.999999985              -0.000451231              -0.000773945               0.999999985              -0.000444772              -0.000783612               0.999999985              -0.000436769              -0.000795312               0.999999985              -0.000423050              -0.000803844               0.999999985              -0.000401517              -0.000806451               0.999999985              -0.000371503              -0.000802158               0.999999985              -0.000333340              -0.000791203               0.999999985              -0.000288408              -0.000774462               0.999999985              -0.000237748              -0.000753168               0.999999985              -0.000182475              -0.000728174               0.999999985              -0.000123929              -0.000700540               0.999999985              -0.000063695              -0.000671408               0.999999985              -0.000002944              -0.000641695               0.999999985               0.000057891              -0.000612161               0.999999985              -0.000552176              -0.001035235               0.999999985              -0.000430230              -0.000923607               0.999999985              -0.000390814              -0.000884122               0.999999985              -0.000377510              -0.000877439               0.999999985              -0.000371798              -0.000884634               0.999999985              -0.000365877              -0.000896528               0.999999985              -0.000355573              -0.000907860               0.999999985              -0.000338561              -0.000915719               0.999999985              -0.000313849              -0.000918697               0.999999985              -0.000280993              -0.000916310               0.999999985              -0.000240884              -0.000908908               0.999999985              -0.000194424              -0.000897184               0.999999985              -0.000142386              -0.000881888               0.999999985              -0.000085943              -0.000863898               0.999999985              -0.000026301              -0.000843980               0.999999985               0.000035320              -0.000823204               0.999999985               0.000097457              -0.000802209               0.999999985              -0.000482552              -0.001118906               0.999999985              -0.000362295              -0.001031585               0.999999985              -0.000320482              -0.000994958               0.999999985              -0.000305818              -0.000986054               0.999999985              -0.000299899              -0.000991777               0.999999985              -0.000295264              -0.001003997               0.999999985              -0.000287625              -0.001017926               0.999999985              -0.000274483              -0.001030490               0.999999985              -0.000254439              -0.001040119               0.999999985              -0.000226963              -0.001045880               0.999999985              -0.000192198              -0.001047443               0.999999985              -0.000150675              -0.001045033               0.999999985              -0.000102851              -0.001039009               0.999999985              -0.000049308              -0.001030133               0.999999985               0.000009162              -0.001019128               0.999999985               0.000071252              -0.001006759               0.999999985               0.000135274              -0.000993849               0.999999985              -0.000408644              -0.001192431               0.999999985              -0.000297006              -0.001132759               0.999999985              -0.000254715              -0.001103657               0.999999985              -0.000238457              -0.001095853               0.999999985              -0.000231850              -0.001101367               0.999999985              -0.000227635              -0.001114451               0.999999985              -0.000221785              -0.001130959               0.999999985              -0.000211724              -0.001148078               0.999999985              -0.000195899              -0.001163976               0.999999985              -0.000173501              -0.001177461               0.999999985              -0.000144410              -0.001187804               0.999999985              -0.000108719              -0.001194622               0.999999985              -0.000066024              -0.001198047               0.999999985              -0.000016373              -0.001198502               0.999999985               0.000039516              -0.001196432               0.999999985               0.000101056              -0.001192573               0.999999985               0.000166989              -0.001187656               0.999999985              -0.000331214              -0.001254368               0.999999985              -0.000234329              -0.001222876               0.999999985              -0.000194432              -0.001204632               0.999999985              -0.000177570              -0.001200848               0.999999985              -0.000170185              -0.001208003               0.999999985              -0.000165907              -0.001222683               0.999999985              -0.000161047              -0.001241938               0.999999985              -0.000153360              -0.001263283               0.999999985              -0.000141328              -0.001285003               0.999999985              -0.000123845              -0.001305718               0.999999985              -0.000100701              -0.001324443               0.999999985              -0.000071345              -0.001340588               0.999999985              -0.000035026              -0.001353670               0.999999985               0.000008666              -0.001363722               0.999999985               0.000059887              -0.001370977               0.999999985               0.000118561              -0.001376037               0.999999985               0.000184706              -0.001379439               0.999999985              -0.000250971              -0.001303523               0.999999985              -0.000173948              -0.001297678               0.999999985              -0.000139754              -0.001291727               0.999999985              -0.000124152              -0.001293921               0.999999985              -0.000116700              -0.001304321               0.999999985              -0.000112352              -0.001321437               0.999999985              -0.000108233              -0.001343444               0.999999985              -0.000102480              -0.001368598               0.999999985              -0.000093775              -0.001395316               0.999999985              -0.000080985              -0.001422422               0.999999985              -0.000063581              -0.001448942               0.999999985              -0.000041011              -0.001473954               0.999999985              -0.000012447              -0.001496835               0.999999985               0.000023135              -0.001517022               0.999999985               0.000066507              -0.001534249               0.999999985               0.000118425              -0.001548761               0.999999985               0.000179983              -0.001560965               0.999999985              -0.000168517              -0.001339181               0.999999985              -0.000115198              -0.001353717               0.999999985              -0.000090116              -0.001358895               0.999999985              -0.000077953              -0.001367378               0.999999985              -0.000071726              -0.001381708               0.999999985              -0.000068007              -0.001401672               0.999999985              -0.000064734              -0.001426425               0.999999985              -0.000060741              -0.001454839               0.999999985              -0.000055026              -0.001485767               0.999999985              -0.000046544              -0.001518053               0.999999985              -0.000034855              -0.001550751               0.999999985              -0.000019468              -0.001583021               0.999999985               0.000000267              -0.001614206               0.999999985               0.000025448              -0.001643530               0.999999985               0.000057198              -0.001670382               0.999999985               0.000096715              -0.001694366               0.999999985               0.000145721              -0.001715385               0.999999985              -0.000084608              -0.001360748               0.999999985              -0.000057405              -0.001388332               0.999999985              -0.000044131              -0.001401391               0.999999985              -0.000037420              -0.001414652               0.999999985              -0.000033886              -0.001432129               0.999999985              -0.000031633              -0.001454439               0.999999985              -0.000029840              -0.001481238               0.999999985              -0.000027682              -0.001511894               0.999999985              -0.000024837              -0.001545586               0.999999985              -0.000020505              -0.001581389               0.999999985              -0.000014662              -0.001618229               0.999999985              -0.000006980              -0.001655256               0.999999985               0.000003219              -0.001691798               0.999999985               0.000016384              -0.001727209               0.999999985               0.000033229              -0.001760880               0.999999985               0.000054600              -0.001791878               0.999999985               0.000081767              -0.001819592               0.999999985              -0.000000000              -0.001368004               0.999999985              -0.000000000              -0.001400051               0.999999985              -0.000000000              -0.001415920               0.999999985              -0.000000000              -0.001430949               0.999999985              -0.000000000              -0.001449647               0.999999985              -0.000000000              -0.001472887               0.999999985              -0.000000000              -0.001500453               0.999999985               0.000000000              -0.001531883               0.999999985               0.000000000              -0.001566474               0.999999985               0.000000000              -0.001603354               0.999999985               0.000000000              -0.001641671               0.999999985              -0.000000000              -0.001680535               0.999999985              -0.000000000              -0.001719028               0.999999985               0.000000000              -0.001756458               0.999999985              -0.000000000              -0.001792317               0.999999985              -0.000000000              -0.001826014               0.999999985               0.000000000              -0.001856445               0.999999985               0.000907705               0.000000000               0.999999985               0.000957831              -0.000000000               0.999999985               0.000979549               0.000000000               0.999999985               0.000992240               0.000000000               0.999999985               0.001002614              -0.000000000               0.999999985               0.001013134              -0.000000000               0.999999985               0.001024408               0.000000000               0.999999985               0.001036493              -0.000000000               0.999999985               0.001049108               0.000000000               0.999999985               0.001061788              -0.000000000               0.999999985               0.001074148               0.000000000               0.999999985               0.001085897               0.000000000               0.999999985               0.001096755               0.000000000               0.999999985               0.001106348               0.000000000               0.999999985               0.001114370              -0.000000000               0.999999985               0.001120197               0.000000000               0.999999985               0.001122987               0.000000000               0.999999985               0.000902661              -0.000130467               0.999999985               0.000948499              -0.000103493               0.999999985               0.000967383              -0.000091227               0.999999985               0.000978241              -0.000086112               0.999999985               0.000987367              -0.000084450               0.999999985               0.000996850              -0.000084297               0.999999985               0.001007149              -0.000084733               0.999999985               0.001018166              -0.000084891               0.999999985               0.001029624              -0.000084269               0.999999985               0.001041004              -0.000082372               0.999999985               0.001051867              -0.000079123               0.999999985               0.001061959              -0.000074151               0.999999985               0.001070891              -0.000067297               0.999999985               0.001078298              -0.000058001               0.999999985               0.001083865              -0.000045807               0.999999985               0.001087143              -0.000029579               0.999999985               0.001087560              -0.000007819               0.999999985               0.000887620              -0.000259659               0.999999985               0.000920932              -0.000206548               0.999999985               0.000932009              -0.000183305               0.999999985               0.000937817              -0.000174231               0.999999985               0.000943450              -0.000171727               0.999999985               0.000950135              -0.000172133               0.999999985               0.000957769              -0.000173305               0.999999985               0.000966020              -0.000173945               0.999999985               0.000974382              -0.000172879               0.999999985               0.000982147              -0.000169403               0.999999985               0.000988868              -0.000163107               0.999999985               0.000994112              -0.000153713               0.999999985               0.000997517              -0.000140507               0.999999985               0.000998845              -0.000123021               0.999999985               0.000997872              -0.000100543               0.999999985               0.000994519              -0.000071603               0.999999985               0.000988715              -0.000034189               0.999999985               0.000862810              -0.000386432               0.999999985               0.000876503              -0.000308904               0.999999985               0.000876383              -0.000277097               0.999999985               0.000875395              -0.000265906               0.999999985               0.000876402              -0.000263995               0.999999985               0.000879349              -0.000265789               0.999999985               0.000883424              -0.000268388               0.999999985               0.000887825              -0.000269679               0.999999985               0.000891596              -0.000268485               0.999999985               0.000894066              -0.000263641               0.999999985               0.000894693              -0.000254767               0.999999985               0.000892922              -0.000241296               0.999999985               0.000888516              -0.000222884               0.999999985               0.000881471              -0.000199213               0.999999985               0.000871924              -0.000169613               0.999999985               0.000859959              -0.000132914               0.999999985               0.000846001              -0.000088221               0.999999985               0.000828590              -0.000509734               0.999999985               0.000817374              -0.000410613               0.999999985               0.000804711              -0.000373206               0.999999985               0.000796998              -0.000362018               0.999999985               0.000793794              -0.000361913               0.999999985               0.000793201              -0.000365881               0.999999985               0.000793610              -0.000370120               0.999999985               0.000793540              -0.000372350               0.999999985               0.000791953              -0.000370984               0.999999985               0.000787994              -0.000365034               0.999999985               0.000781076              -0.000353869               0.999999985               0.000770834              -0.000337112               0.999999985               0.000757382              -0.000314939               0.999999985               0.000741036              -0.000287344               0.999999985               0.000722093              -0.000254038               0.999999985               0.000701021              -0.000214731               0.999999985               0.000678552              -0.000169838               0.999999985               0.000785745              -0.000628331               0.999999985               0.000746569              -0.000511870               0.999999985               0.000722409              -0.000471819               0.999999985               0.000709768              -0.000462265               0.999999985               0.000703628              -0.000464729               0.999999985               0.000700300              -0.000471063               0.999999985               0.000697233              -0.000476989               0.999999985               0.000692556              -0.000479977               0.999999985               0.000685009              -0.000478315               0.999999985               0.000673768              -0.000471124               0.999999985               0.000658443              -0.000457763               0.999999985               0.000639163              -0.000438723               0.999999985               0.000616316              -0.000414274               0.999999985               0.000590391              -0.000384859               0.999999985               0.000561985              -0.000350680               0.999999985               0.000531791              -0.000312082               0.999999985               0.000500537              -0.000270367               0.999999985               0.000735148              -0.000741030               0.999999985               0.000667830              -0.000612700               0.999999985               0.000635081              -0.000572592               0.999999985               0.000619925              -0.000565594               0.999999985               0.000612508              -0.000570790               0.999999985               0.000607281              -0.000579271               0.999999985               0.000600955              -0.000586570               0.999999985               0.000591298              -0.000589883               0.999999985               0.000577138              -0.000587542               0.999999985               0.000557977              -0.000578865               0.999999985               0.000533649              -0.000563954               0.999999985               0.000504791              -0.000543508               0.999999985               0.000472126              -0.000518160               0.999999985               0.000436341              -0.000488446               0.999999985               0.000398061              -0.000454988               0.999999985               0.000358188              -0.000418609               0.999999985               0.000317424              -0.000380831               0.999999985               0.000677949              -0.000846711               0.999999985               0.000585025              -0.000712807               0.999999985               0.000547511              -0.000674588               0.999999985               0.000532569              -0.000670201               0.999999985               0.000525196              -0.000677850               0.999999985               0.000518570              -0.000688121               0.999999985               0.000508859              -0.000696310               0.999999985               0.000493719              -0.000699392               0.999999985               0.000472198              -0.000696078               0.999999985               0.000444080              -0.000686193               0.999999985               0.000409922              -0.000670182               0.999999985               0.000370733              -0.000649091               0.999999985               0.000327423              -0.000623691               0.999999985               0.000280756              -0.000594646               0.999999985               0.000231693              -0.000562872               0.999999985               0.000181425              -0.000529535               0.999999985               0.000130639              -0.000495765               0.999999985               0.000616112              -0.000943499               0.999999985               0.000500904              -0.000812108               0.999999985               0.000464018              -0.000776164               0.999999985               0.000451231              -0.000773945               0.999999985               0.000444772              -0.000783612               0.999999985               0.000436769              -0.000795312               0.999999985               0.000423050              -0.000803844               0.999999985               0.000401517              -0.000806451               0.999999985               0.000371503              -0.000802158               0.999999985               0.000333340              -0.000791203               0.999999985               0.000288408              -0.000774462               0.999999985               0.000237748              -0.000753168               0.999999985               0.000182475              -0.000728174               0.999999985               0.000123929              -0.000700540               0.999999985               0.000063695              -0.000671408               0.999999985               0.000002944              -0.000641695               0.999999985              -0.000057891              -0.000612161               0.999999985               0.000552176              -0.001035235               0.999999985               0.000430230              -0.000923607               0.999999985               0.000390814              -0.000884122               0.999999985               0.000377510              -0.000877439               0.999999985               0.000371798              -0.000884634               0.999999985               0.000365877              -0.000896528               0.999999985               0.000355573              -0.000907860               0.999999985               0.000338561              -0.000915719               0.999999985               0.000313849              -0.000918697               0.999999985               0.000280993              -0.000916310               0.999999985               0.000240884              -0.000908908               0.999999985               0.000194424              -0.000897184               0.999999985               0.000142386              -0.000881888               0.999999985               0.000085943              -0.000863898               0.999999985               0.000026301              -0.000843980               0.999999985              -0.000035320              -0.000823204               0.999999985              -0.000097457              -0.000802209               0.999999985               0.000482552              -0.001118906               0.999999985               0.000362295              -0.001031585               0.999999985               0.000320482              -0.000994958               0.999999985               0.000305818              -0.000986054               0.999999985               0.000299899              -0.000991777               0.999999985               0.000295264              -0.001003997               0.999999985               0.000287625              -0.001017926               0.999999985               0.000274483              -0.001030490               0.999999985               0.000254439              -0.001040119               0.999999985               0.000226963              -0.001045880               0.999999985               0.000192198              -0.001047443               0.999999985               0.000150675              -0.001045033               0.999999985               0.000102851              -0.001039009               0.999999985               0.000049308              -0.001030133               0.999999985              -0.000009162              -0.001019128               0.999999985              -0.000071252              -0.001006759               0.999999985              -0.000135274              -0.000993849               0.999999985               0.000408644              -0.001192431               0.999999985               0.000297006              -0.001132759               0.999999985               0.000254715              -0.001103657               0.999999985               0.000238457              -0.001095853               0.999999985               0.000231850              -0.001101367               0.999999985               0.000227635              -0.001114451               0.999999985               0.000221785              -0.001130959               0.999999985               0.000211724              -0.001148078               0.999999985               0.000195899              -0.001163976               0.999999985               0.000173501              -0.001177461               0.999999985               0.000144410              -0.001187804               0.999999985               0.000108719              -0.001194622               0.999999985               0.000066024              -0.001198047               0.999999985               0.000016373              -0.001198502               0.999999985              -0.000039516              -0.001196432               0.999999985              -0.000101056              -0.001192573               0.999999985              -0.000166989              -0.001187656               0.999999985               0.000331214              -0.001254368               0.999999985               0.000234329              -0.001222876               0.999999985               0.000194432              -0.001204632               0.999999985               0.000177570              -0.001200848               0.999999985               0.000170185              -0.001208003               0.999999985               0.000165907              -0.001222683               0.999999985               0.000161047              -0.001241938               0.999999985               0.000153360              -0.001263283               0.999999985               0.000141328              -0.001285003               0.999999985               0.000123845              -0.001305718               0.999999985               0.000100701              -0.001324443               0.999999985               0.000071345              -0.001340588               0.999999985               0.000035026              -0.001353670               0.999999985              -0.000008666              -0.001363722               0.999999985              -0.000059887              -0.001370977               0.999999985              -0.000118561              -0.001376037               0.999999985              -0.000184706              -0.001379439               0.999999985               0.000250971              -0.001303523               0.999999985               0.000173948              -0.001297678               0.999999985               0.000139754              -0.001291727               0.999999985               0.000124152              -0.001293921               0.999999985               0.000116700              -0.001304321               0.999999985               0.000112352              -0.001321437               0.999999985               0.000108233              -0.001343444               0.999999985               0.000102480              -0.001368598               0.999999985               0.000093775              -0.001395316               0.999999985               0.000080985              -0.001422422               0.999999985               0.000063581              -0.001448942               0.999999985               0.000041011              -0.001473954               0.999999985               0.000012447              -0.001496835               0.999999985              -0.000023135              -0.001517022               0.999999985              -0.000066507              -0.001534249               0.999999985              -0.000118425              -0.001548761               0.999999985              -0.000179983              -0.001560965               0.999999985               0.000168517              -0.001339181               0.999999985               0.000115198              -0.001353717               0.999999985               0.000090116              -0.001358895               0.999999985               0.000077953              -0.001367378               0.999999985               0.000071726              -0.001381708               0.999999985               0.000068007              -0.001401672               0.999999985               0.000064734              -0.001426425               0.999999985               0.000060741              -0.001454839               0.999999985               0.000055026              -0.001485767               0.999999985               0.000046544              -0.001518053               0.999999985               0.000034855              -0.001550751               0.999999985               0.000019468              -0.001583021               0.999999985              -0.000000267              -0.001614206               0.999999985              -0.000025448              -0.001643530               0.999999985              -0.000057198              -0.001670382               0.999999985              -0.000096715              -0.001694366               0.999999985              -0.000145721              -0.001715385               0.999999985               0.000084608              -0.001360748               0.999999985               0.000057405              -0.001388332               0.999999985               0.000044131              -0.001401391               0.999999985               0.000037420              -0.001414652               0.999999985               0.000033886              -0.001432129               0.999999985               0.000031633              -0.001454439               0.999999985               0.000029840              -0.001481238               0.999999985               0.000027682              -0.001511894               0.999999985               0.000024837              -0.001545586               0.999999985               0.000020505              -0.001581389               0.999999985               0.000014662              -0.001618229               0.999999985               0.000006980              -0.001655256               0.999999985              -0.000003219              -0.001691798               0.999999985              -0.000016384              -0.001727209               0.999999985              -0.000033229              -0.001760880               0.999999985              -0.000054600              -0.001791878               0.999999985              -0.000081767              -0.001819592               0.999999985              -0.000000000              -0.001368004               0.999999985              -0.000000000              -0.001400051               0.999999985              -0.000000000              -0.001415920               0.999999985              -0.000000000              -0.001430949               0.999999985              -0.000000000              -0.001449647               0.999999985              -0.000000000              -0.001472887               0.999999985              -0.000000000              -0.001500453               0.999999985               0.000000000              -0.001531883               0.999999985               0.000000000              -0.001566474               0.999999985               0.000000000              -0.001603354               0.999999985               0.000000000              -0.001641671               0.999999985              -0.000000000              -0.001680535               0.999999985              -0.000000000              -0.001719028               0.999999985               0.000000000              -0.001756458               0.999999985              -0.000000000              -0.001792317               0.999999985              -0.000000000              -0.001826014               0.999999985               0.000000000              -0.001856445               0.999999985               0.000907705               0.000000000               0.999999985               0.000957831              -0.000000000               0.999999985               0.000979549               0.000000000               0.999999985               0.000992240               0.000000000               0.999999985               0.001002614              -0.000000000               0.999999985               0.001013134              -0.000000000               0.999999985               0.001024408               0.000000000               0.999999985               0.001036493              -0.000000000               0.999999985               0.001049108               0.000000000               0.999999985               0.001061788              -0.000000000               0.999999985               0.001074148               0.000000000               0.999999985               0.001085897               0.000000000               0.999999985               0.001096755               0.000000000               0.999999985               0.001106348               0.000000000               0.999999985               0.001114370              -0.000000000               0.999999985               0.001120197               0.000000000               0.999999985               0.001122987               0.000000000               0.999999985               0.000902661               0.000130467               0.999999985               0.000948499               0.000103493               0.999999985               0.000967383               0.000091227               0.999999985               0.000978241               0.000086112               0.999999985               0.000987367               0.000084450               0.999999985               0.000996850               0.000084297               0.999999985               0.001007149               0.000084733               0.999999985               0.001018166               0.000084891               0.999999985               0.001029624               0.000084269               0.999999985               0.001041004               0.000082372               0.999999985               0.001051867               0.000079123               0.999999985               0.001061959               0.000074151               0.999999985               0.001070891               0.000067297               0.999999985               0.001078298               0.000058001               0.999999985               0.001083865               0.000045807               0.999999985               0.001087143               0.000029579               0.999999985               0.001087560               0.000007819               0.999999985               0.000887620               0.000259659               0.999999985               0.000920932               0.000206548               0.999999985               0.000932009               0.000183305               0.999999985               0.000937817               0.000174231               0.999999985               0.000943450               0.000171727               0.999999985               0.000950135               0.000172133               0.999999985               0.000957769               0.000173305               0.999999985               0.000966020               0.000173945               0.999999985               0.000974382               0.000172879               0.999999985               0.000982147               0.000169403               0.999999985               0.000988868               0.000163107               0.999999985               0.000994112               0.000153713               0.999999985               0.000997517               0.000140507               0.999999985               0.000998845               0.000123021               0.999999985               0.000997872               0.000100543               0.999999985               0.000994519               0.000071603               0.999999985               0.000988715               0.000034189               0.999999985               0.000862810               0.000386432               0.999999985               0.000876503               0.000308904               0.999999985               0.000876383               0.000277097               0.999999985               0.000875395               0.000265906               0.999999985               0.000876402               0.000263995               0.999999985               0.000879349               0.000265789               0.999999985               0.000883424               0.000268388               0.999999985               0.000887825               0.000269679               0.999999985               0.000891596               0.000268485               0.999999985               0.000894066               0.000263641               0.999999985               0.000894693               0.000254767               0.999999985               0.000892922               0.000241296               0.999999985               0.000888516               0.000222884               0.999999985               0.000881471               0.000199213               0.999999985               0.000871924               0.000169613               0.999999985               0.000859959               0.000132914               0.999999985               0.000846001               0.000088221               0.999999985               0.000828590               0.000509734               0.999999985               0.000817374               0.000410613               0.999999985               0.000804711               0.000373206               0.999999985               0.000796998               0.000362018               0.999999985               0.000793794               0.000361913               0.999999985               0.000793201               0.000365881               0.999999985               0.000793610               0.000370120               0.999999985               0.000793540               0.000372350               0.999999985               0.000791953               0.000370984               0.999999985               0.000787994               0.000365034               0.999999985               0.000781076               0.000353869               0.999999985               0.000770834               0.000337112               0.999999985               0.000757382               0.000314939               0.999999985               0.000741036               0.000287344               0.999999985               0.000722093               0.000254038               0.999999985               0.000701021               0.000214731               0.999999985               0.000678552               0.000169838               0.999999985               0.000785745               0.000628331               0.999999985               0.000746569               0.000511870               0.999999985               0.000722409               0.000471819               0.999999985               0.000709768               0.000462265               0.999999985               0.000703628               0.000464729               0.999999985               0.000700300               0.000471063               0.999999985               0.000697233               0.000476989               0.999999985               0.000692556               0.000479977               0.999999985               0.000685009               0.000478315               0.999999985               0.000673768               0.000471124               0.999999985               0.000658443               0.000457763               0.999999985               0.000639163               0.000438723               0.999999985               0.000616316               0.000414274               0.999999985               0.000590391               0.000384859               0.999999985               0.000561985               0.000350680               0.999999985               0.000531791               0.000312082               0.999999985               0.000500537               0.000270367               0.999999985               0.000735148               0.000741030               0.999999985               0.000667830               0.000612700               0.999999985               0.000635081               0.000572592               0.999999985               0.000619925               0.000565594               0.999999985               0.000612508               0.000570790               0.999999985               0.000607281               0.000579271               0.999999985               0.000600955               0.000586570               0.999999985               0.000591298               0.000589883               0.999999985               0.000577138               0.000587542               0.999999985               0.000557977               0.000578865               0.999999985               0.000533649               0.000563954               0.999999985               0.000504791               0.000543508               0.999999985               0.000472126               0.000518160               0.999999985               0.000436341               0.000488446               0.999999985               0.000398061               0.000454988               0.999999985               0.000358188               0.000418609               0.999999985               0.000317424               0.000380831               0.999999985               0.000677949               0.000846711               0.999999985               0.000585025               0.000712807               0.999999985               0.000547511               0.000674588               0.999999985               0.000532569               0.000670201               0.999999985               0.000525196               0.000677850               0.999999985               0.000518570               0.000688121               0.999999985               0.000508859               0.000696310               0.999999985               0.000493719               0.000699392               0.999999985               0.000472198               0.000696078               0.999999985               0.000444080               0.000686193               0.999999985               0.000409922               0.000670182               0.999999985               0.000370733               0.000649091               0.999999985               0.000327423               0.000623691               0.999999985               0.000280756               0.000594646               0.999999985               0.000231693               0.000562872               0.999999985               0.000181425               0.000529535               0.999999985               0.000130639               0.000495765               0.999999985               0.000616112               0.000943499               0.999999985               0.000500904               0.000812108               0.999999985               0.000464018               0.000776164               0.999999985               0.000451231               0.000773945               0.999999985               0.000444772               0.000783612               0.999999985               0.000436769               0.000795312               0.999999985               0.000423050               0.000803844               0.999999985               0.000401517               0.000806451               0.999999985               0.000371503               0.000802158               0.999999985               0.000333340               0.000791203               0.999999985               0.000288408               0.000774462               0.999999985               0.000237748               0.000753168               0.999999985               0.000182475               0.000728174               0.999999985               0.000123929               0.000700540               0.999999985               0.000063695               0.000671408               0.999999985               0.000002944               0.000641695               0.999999985              -0.000057891               0.000612161               0.999999985               0.000552176               0.001035235               0.999999985               0.000430230               0.000923607               0.999999985               0.000390814               0.000884122               0.999999985               0.000377510               0.000877439               0.999999985               0.000371798               0.000884634               0.999999985               0.000365877               0.000896528               0.999999985               0.000355573               0.000907860               0.999999985               0.000338561               0.000915719               0.999999985               0.000313849               0.000918697               0.999999985               0.000280993               0.000916310               0.999999985               0.000240884               0.000908908               0.999999985               0.000194424               0.000897184               0.999999985               0.000142386               0.000881888               0.999999985               0.000085943               0.000863898               0.999999985               0.000026301               0.000843980               0.999999985              -0.000035320               0.000823204               0.999999985              -0.000097457               0.000802209               0.999999985               0.000482552               0.001118906               0.999999985               0.000362295               0.001031585               0.999999985               0.000320482               0.000994958               0.999999985               0.000305818               0.000986054               0.999999985               0.000299899               0.000991777               0.999999985               0.000295264               0.001003997               0.999999985               0.000287625               0.001017926               0.999999985               0.000274483               0.001030490               0.999999985               0.000254439               0.001040119               0.999999985               0.000226963               0.001045880               0.999999985               0.000192198               0.001047443               0.999999985               0.000150675               0.001045033               0.999999985               0.000102851               0.001039009               0.999999985               0.000049308               0.001030133               0.999999985              -0.000009162               0.001019128               0.999999985              -0.000071252               0.001006759               0.999999985              -0.000135274               0.000993849               0.999999985               0.000408644               0.001192431               0.999999985               0.000297006               0.001132759               0.999999985               0.000254715               0.001103657               0.999999985               0.000238457               0.001095853               0.999999985               0.000231850               0.001101367               0.999999985               0.000227635               0.001114451               0.999999985               0.000221785               0.001130959               0.999999985               0.000211724               0.001148078               0.999999985               0.000195899               0.001163976               0.999999985               0.000173501               0.001177461               0.999999985               0.000144410               0.001187804               0.999999985               0.000108719               0.001194622               0.999999985               0.000066024               0.001198047               0.999999985               0.000016373               0.001198502               0.999999985              -0.000039516               0.001196432               0.999999985              -0.000101056               0.001192573               0.999999985              -0.000166989               0.001187656               0.999999985               0.000331214               0.001254368               0.999999985               0.000234329               0.001222876               0.999999985               0.000194432               0.001204632               0.999999985               0.000177570               0.001200848               0.999999985               0.000170185               0.001208003               0.999999985               0.000165907               0.001222683               0.999999985               0.000161047               0.001241938               0.999999985               0.000153360               0.001263283               0.999999985               0.000141328               0.001285003               0.999999985               0.000123845               0.001305718               0.999999985               0.000100701               0.001324443               0.999999985               0.000071345               0.001340588               0.999999985               0.000035026               0.001353670               0.999999985              -0.000008666               0.001363722               0.999999985              -0.000059887               0.001370977               0.999999985              -0.000118561               0.001376037               0.999999985              -0.000184706               0.001379439               0.999999985               0.000250971               0.001303523               0.999999985               0.000173948               0.001297678               0.999999985               0.000139754               0.001291727               0.999999985               0.000124152               0.001293921               0.999999985               0.000116700               0.001304321               0.999999985               0.000112352               0.001321437               0.999999985               0.000108233               0.001343444               0.999999985               0.000102480               0.001368598               0.999999985               0.000093775               0.001395316               0.999999985               0.000080985               0.001422422               0.999999985               0.000063581               0.001448942               0.999999985               0.000041011               0.001473954               0.999999985               0.000012447               0.001496835               0.999999985              -0.000023135               0.001517022               0.999999985              -0.000066507               0.001534249               0.999999985              -0.000118425               0.001548761               0.999999985              -0.000179983               0.001560965               0.999999985               0.000168517               0.001339181               0.999999985               0.000115198               0.001353717               0.999999985               0.000090116               0.001358895               0.999999985               0.000077953               0.001367378               0.999999985               0.000071726               0.001381708               0.999999985               0.000068007               0.001401672               0.999999985               0.000064734               0.001426425               0.999999985               0.000060741               0.001454839               0.999999985               0.000055026               0.001485767               0.999999985               0.000046544               0.001518053               0.999999985               0.000034855               0.001550751               0.999999985               0.000019468               0.001583021               0.999999985              -0.000000267               0.001614206               0.999999985              -0.000025448               0.001643530               0.999999985              -0.000057198               0.001670382               0.999999985              -0.000096715               0.001694366               0.999999985              -0.000145721               0.001715385               0.999999985               0.000084608               0.001360748               0.999999985               0.000057405               0.001388332               0.999999985               0.000044131               0.001401391               0.999999985               0.000037420               0.001414652               0.999999985               0.000033886               0.001432129               0.999999985               0.000031633               0.001454439               0.999999985               0.000029840               0.001481238               0.999999985               0.000027682               0.001511894               0.999999985               0.000024837               0.001545586               0.999999985               0.000020505               0.001581389               0.999999985               0.000014662               0.001618229               0.999999985               0.000006980               0.001655256               0.999999985              -0.000003219               0.001691798               0.999999985              -0.000016384               0.001727209               0.999999985              -0.000033229               0.001760880               0.999999985              -0.000054600               0.001791878               0.999999985              -0.000081767               0.001819592               0.999999985               0.000000000               0.001368004               0.999999985              -0.000000000               0.001400051               0.999999985              -0.000000000               0.001415920               0.999999985              -0.000000000               0.001430949               0.999999985               0.000000000               0.001449647               0.999999985               0.000000000               0.001472887               0.999999985              -0.000000000               0.001500453               0.999999985               0.000000000               0.001531883               0.999999985              -0.000000000               0.001566474               0.999999985              -0.000000000               0.001603354               0.999999985              -0.000000000               0.001641671               0.999999985               0.000000000               0.001680535               0.999999985               0.000000000               0.001719028               0.999999985              -0.000000000               0.001756458               0.999999985              -0.000000000               0.001792317               0.999999985               0.000000000               0.001826014               0.999999985              -0.000000000               0.001856445               0.999999985 </DataArray>
<DataArray type="Float64"                                    Name="stress"                                                      NumberOfComponents="10" format="ascii">
              0.002186570               0.023664968               0.000000000              -0.002138152               0.008600961               0.006462809               0.000000000               0.000000000               0.000000000               0.000000000               0.002055336               0.018145049               0.000000000              -0.001497377               0.006547415               0.005050038               0.000000000               0.000000000               0.000000000               0.000000000               0.002600735               0.013663463              -0.000000000              -0.000732655               0.004798661               0.004066005               0.000000000               0.000000000               0.000000000               0.000000000               0.002364028               0.011135421              -0.000000000              -0.000505416               0.003880242               0.003374826               0.000000000               0.000000000               0.000000000               0.000000000               0.001935535               0.009528806               0.000000000              -0.000465274               0.003331328               0.002866054               0.000000000               0.000000000               0.000000000               0.000000000               0.001501518               0.008393523               0.000000000              -0.000486120               0.002959853               0.002473733               0.000000000               0.000000000               0.000000000               0.000000000               0.001123138               0.007520428               0.000000000              -0.000518876               0.002679743               0.002160867               0.000000000               0.000000000               0.000000000               0.000000000               0.000805877               0.006783785               0.000000000              -0.000545768               0.002443162               0.001897394               0.000000000               0.000000000               0.000000000               0.000000000               0.000555974               0.006117657              -0.000000000              -0.000556216               0.002224604               0.001668388               0.000000000               0.000000000               0.000000000               0.000000000               0.000366536               0.005481146              -0.000000000              -0.000547691               0.002009594               0.001461903               0.000000000               0.000000000               0.000000000               0.000000000               0.000219036               0.004854263              -0.000000000              -0.000524643               0.001792952               0.001268309               0.000000000               0.000000000               0.000000000               0.000000000               0.000102480               0.004217996              -0.000000000              -0.000488819               0.001568924               0.001080106               0.000000000               0.000000000               0.000000000               0.000000000               0.000018996               0.003562804               0.000000000              -0.000438226               0.001333665               0.000895439               0.000000000               0.000000000               0.000000000               0.000000000              -0.000038837               0.002867595               0.000000000              -0.000373012               0.001080193               0.000707181               0.000000000               0.000000000               0.000000000               0.000000000              -0.000065298               0.002114509              -0.000000000              -0.000288800               0.000801096               0.000512296               0.000000000               0.000000000               0.000000000               0.000000000              -0.000045241               0.001270736               0.000000000              -0.000175807               0.000482177               0.000306370               0.000000000               0.000000000               0.000000000               0.000000000              -0.000091968               0.000623021               0.000000000              -0.000112366               0.000245127               0.000132761               0.000000000               0.000000000               0.000000000               0.000000000               0.002249981               0.023147065              -0.001553811              -0.002049635               0.008398823               0.006349187               0.000000000               0.000000000               0.000000000               0.000000000               0.001990627               0.017817432              -0.000682751              -0.001480691               0.006432648               0.004951958               0.000000000               0.000000000               0.000000000               0.000000000               0.002397726               0.013533244               0.000175638              -0.000792506               0.004775205               0.003982699               0.000000000               0.000000000               0.000000000               0.000000000               0.002105743               0.011107546               0.000524436              -0.000598788               0.003902075               0.003303286               0.000000000               0.000000000               0.000000000               0.000000000               0.001667346               0.009554773               0.000654431              -0.000569091               0.003374589               0.002805499               0.000000000               0.000000000               0.000000000               0.000000000               0.001248011               0.008451354               0.000691643              -0.000588414               0.003013228               0.002424814               0.000000000               0.000000000               0.000000000               0.000000000               0.000891937               0.007591092               0.000686467              -0.000614409               0.002735141               0.002120733               0.000000000               0.000000000               0.000000000               0.000000000               0.000600135               0.006862301               0.000658413              -0.000632736               0.002498323               0.001865587               0.000000000               0.000000000               0.000000000               0.000000000               0.000375658               0.006200674               0.000618862              -0.000634211               0.002278274               0.001644063               0.000000000               0.000000000               0.000000000               0.000000000               0.000213107               0.005571177               0.000578287              -0.000616481               0.002062534               0.001446053               0.000000000               0.000000000               0.000000000               0.000000000               0.000091002               0.004951356               0.000539087              -0.000584793               0.001845366               0.001260574               0.000000000               0.000000000               0.000000000               0.000000000               0.000002140               0.004329078               0.000498637              -0.000540331               0.001623122               0.001082791               0.000000000               0.000000000               0.000000000               0.000000000              -0.000054235               0.003690725               0.000452850              -0.000481678               0.001390789               0.000909111               0.000000000               0.000000000               0.000000000               0.000000000              -0.000084668               0.003025197               0.000395480              -0.000409899               0.001145022               0.000735123               0.000000000               0.000000000               0.000000000               0.000000000              -0.000088046               0.002320008               0.000312352              -0.000323018               0.000881001               0.000557983               0.000000000               0.000000000               0.000000000               0.000000000              -0.000055918               0.001553682               0.000179957              -0.000215179               0.000589615               0.000374436               0.000000000               0.000000000               0.000000000               0.000000000              -0.000090816               0.000981005               0.000110219              -0.000156681               0.000379226               0.000222544               0.000000000               0.000000000               0.000000000               0.000000000               0.002394839               0.021674231              -0.002863699              -0.001811211               0.007828408               0.006017197               0.000000000               0.000000000               0.000000000               0.000000000               0.001778576               0.016891491              -0.001250959              -0.001444467               0.006111930               0.004667463               0.000000000               0.000000000               0.000000000               0.000000000               0.001812247               0.013171756               0.000321074              -0.000966874               0.004712833               0.003745959               0.000000000               0.000000000               0.000000000               0.000000000               0.001391494               0.011029424               0.000937059              -0.000856866               0.003962060               0.003105194               0.000000000               0.000000000               0.000000000               0.000000000               0.000938214               0.009623089               0.001158070              -0.000851054               0.003491349               0.002640295               0.000000000               0.000000000               0.000000000               0.000000000               0.000561597               0.008596233               0.001212329              -0.000863929               0.003153359               0.002289430               0.000000000               0.000000000               0.000000000               0.000000000               0.000269781               0.007772555               0.001192041              -0.000870400               0.002880959               0.002010559               0.000000000               0.000000000               0.000000000               0.000000000               0.000049787               0.007058466               0.001134645              -0.000863636               0.002640677               0.001777041               0.000000000               0.000000000               0.000000000               0.000000000              -0.000097507               0.006409659               0.001059737              -0.000837771               0.002415788               0.001578018               0.000000000               0.000000000               0.000000000               0.000000000              -0.000184889               0.005795285               0.000982178              -0.000793742               0.002196323               0.001402580               0.000000000               0.000000000               0.000000000               0.000000000              -0.000229859               0.005197282               0.000908216              -0.000735856               0.001977695               0.001241839               0.000000000               0.000000000               0.000000000               0.000000000              -0.000240502               0.004606734               0.000831972              -0.000666029               0.001757572               0.001091543               0.000000000               0.000000000               0.000000000               0.000000000              -0.000227077               0.004018352               0.000746617              -0.000587447               0.001535253               0.000947806               0.000000000               0.000000000               0.000000000               0.000000000              -0.000194138               0.003434496               0.000643826              -0.000502113               0.001312192               0.000810079               0.000000000               0.000000000               0.000000000               0.000000000              -0.000144953               0.002852155               0.000498697              -0.000410876               0.001087667               0.000676791               0.000000000               0.000000000               0.000000000               0.000000000              -0.000081455               0.002273001               0.000282323              -0.000314670               0.000862549               0.000547879               0.000000000               0.000000000               0.000000000               0.000000000              -0.000085183               0.001878692               0.000167535              -0.000266780               0.000715151               0.000448371               0.000000000               0.000000000               0.000000000               0.000000000               0.002492641               0.019454094              -0.003750265              -0.001497020               0.006983639               0.005486619               0.000000000               0.000000000               0.000000000               0.000000000               0.001382492               0.015518111              -0.001629209              -0.001421327               0.005646427               0.004225101               0.000000000               0.000000000               0.000000000               0.000000000               0.000904655               0.012642358               0.000405893              -0.001241046               0.004627759               0.003386713               0.000000000               0.000000000               0.000000000               0.000000000               0.000352893               0.010901700               0.001153748              -0.001230375               0.004043989               0.002813614               0.000000000               0.000000000               0.000000000               0.000000000              -0.000076875               0.009689823               0.001398785              -0.001240053               0.003643260               0.002403206               0.000000000               0.000000000               0.000000000               0.000000000              -0.000369115               0.008755789               0.001442253              -0.001232889               0.003329530               0.002096641               0.000000000               0.000000000               0.000000000               0.000000000              -0.000553682               0.007974436               0.001398369              -0.001204433               0.003059596               0.001855163               0.000000000               0.000000000               0.000000000               0.000000000              -0.000654249               0.007281607               0.001316974              -0.001155542               0.002812358               0.001656817               0.000000000               0.000000000               0.000000000               0.000000000              -0.000684512               0.006647748               0.001218623              -0.001087658               0.002578447               0.001490788               0.000000000               0.000000000               0.000000000               0.000000000              -0.000664607               0.006052923               0.001116188              -0.001005841               0.002352901               0.001347060               0.000000000               0.000000000               0.000000000               0.000000000              -0.000603580               0.005485646               0.001017084              -0.000912046               0.002132546               0.001220499               0.000000000               0.000000000               0.000000000               0.000000000              -0.000515170               0.004940985               0.000917271              -0.000810810               0.001917249               0.001106438               0.000000000               0.000000000               0.000000000               0.000000000              -0.000416441               0.004429030               0.000810462              -0.000709792               0.001712926               0.001003134               0.000000000               0.000000000               0.000000000               0.000000000              -0.000315226               0.003955560               0.000681933              -0.000612653               0.001522725               0.000910071               0.000000000               0.000000000               0.000000000               0.000000000              -0.000209512               0.003528629               0.000508378              -0.000519645               0.001349413               0.000829768               0.000000000               0.000000000               0.000000000               0.000000000              -0.000104211               0.003169070               0.000276609              -0.000435212               0.001201417               0.000766205               0.000000000               0.000000000               0.000000000               0.000000000              -0.000069926               0.002967606               0.000154659              -0.000397172               0.001121583               0.000724411               0.000000000               0.000000000               0.000000000               0.000000000               0.002391988               0.016749543              -0.004135450              -0.001196698               0.005982024               0.004785326               0.000000000               0.000000000               0.000000000               0.000000000               0.000782475               0.013886709              -0.001806795              -0.001442408               0.005109659               0.003667251               0.000000000               0.000000000               0.000000000               0.000000000              -0.000217022               0.012010883               0.000386426              -0.001582740               0.004531167               0.002948428               0.000000000               0.000000000               0.000000000               0.000000000              -0.000836148               0.010704407               0.001125264              -0.001651603               0.004118634               0.002467031               0.000000000               0.000000000               0.000000000               0.000000000              -0.001173366               0.009686052               0.001340235              -0.001650765               0.003778907               0.002128142               0.000000000               0.000000000               0.000000000               0.000000000              -0.001324090               0.008839820               0.001358254              -0.001601508               0.003480413               0.001878905               0.000000000               0.000000000               0.000000000               0.000000000              -0.001354505               0.008098868               0.001298049              -0.001520295               0.003206360               0.001686066               0.000000000               0.000000000               0.000000000               0.000000000              -0.001302660               0.007430710               0.001205918              -0.001417333               0.002949323               0.001531990               0.000000000               0.000000000               0.000000000               0.000000000              -0.001195565               0.006812842               0.001101293              -0.001299939               0.002704237               0.001404298               0.000000000               0.000000000               0.000000000               0.000000000              -0.001048977               0.006241059               0.000993717              -0.001173496               0.002471497               0.001298001               0.000000000               0.000000000               0.000000000               0.000000000              -0.000878056               0.005708939               0.000888212              -0.001042886               0.002250589               0.001207703               0.000000000               0.000000000               0.000000000               0.000000000              -0.000698269               0.005229119               0.000783909              -0.000915489               0.002048185               0.001132696               0.000000000               0.000000000               0.000000000               0.000000000              -0.000529521               0.004805524               0.000675497              -0.000799259               0.001868245               0.001068986               0.000000000               0.000000000               0.000000000               0.000000000              -0.000373731               0.004445817               0.000547719              -0.000695875               0.001713882               0.001018008               0.000000000               0.000000000               0.000000000               0.000000000              -0.000229539               0.004162265               0.000386872              -0.000606359               0.001589527               0.000983168               0.000000000               0.000000000               0.000000000               0.000000000              -0.000105904               0.003974541               0.000198283              -0.000536530               0.001503677               0.000967147               0.000000000               0.000000000               0.000000000               0.000000000              -0.000053104               0.003902762               0.000101651              -0.000507758               0.001470160               0.000962402               0.000000000               0.000000000               0.000000000               0.000000000               0.001979215               0.013840258              -0.004035760              -0.000987827               0.004942648               0.003954821               0.000000000               0.000000000               0.000000000               0.000000000              -0.000005219               0.012172822              -0.001825840              -0.001523557               0.004565419               0.003041862               0.000000000               0.000000000               0.000000000               0.000000000              -0.001414125               0.011326357               0.000222847              -0.001946087               0.004424110               0.002478023               0.000000000               0.000000000               0.000000000               0.000000000              -0.001989464               0.010419886               0.000856869              -0.002048530               0.004156104               0.002107574               0.000000000               0.000000000               0.000000000               0.000000000              -0.002157094               0.009570114               0.001023332              -0.002005170               0.003858396               0.001853226               0.000000000               0.000000000               0.000000000               0.000000000              -0.002120145               0.008797616               0.001027423              -0.001894752               0.003564093               0.001669341               0.000000000               0.000000000               0.000000000               0.000000000              -0.001970014               0.008095845               0.000970645              -0.001750732               0.003282165               0.001531433               0.000000000               0.000000000               0.000000000               0.000000000              -0.001756690               0.007448464               0.000889469              -0.001589813               0.003012734               0.001422921               0.000000000               0.000000000               0.000000000               0.000000000              -0.001510938               0.006848969               0.000799767              -0.001422720               0.002757207               0.001334487               0.000000000               0.000000000               0.000000000               0.000000000              -0.001246627               0.006303130               0.000706085              -0.001255373               0.002519480               0.001264107               0.000000000               0.000000000               0.000000000               0.000000000              -0.000985630               0.005821230               0.000615823              -0.001097262               0.002306145               0.001208882               0.000000000               0.000000000               0.000000000               0.000000000              -0.000744178               0.005413502               0.000528535              -0.000955752               0.002123067               0.001167314               0.000000000               0.000000000               0.000000000               0.000000000              -0.000529548               0.005077642               0.000436644              -0.000833284               0.001970292               0.001137008               0.000000000               0.000000000               0.000000000               0.000000000              -0.000344261               0.004813235               0.000333911              -0.000730750               0.001847979               0.001117229               0.000000000               0.000000000               0.000000000               0.000000000              -0.000193767               0.004625854               0.000215101              -0.000650893               0.001758900               0.001108007               0.000000000               0.000000000               0.000000000               0.000000000              -0.000081620               0.004525008               0.000097208              -0.000596232               0.001707065               0.001110833               0.000000000               0.000000000               0.000000000               0.000000000              -0.000034850               0.004501309               0.000042771              -0.000575731               0.001692332               0.001116601               0.000000000               0.000000000               0.000000000               0.000000000               0.001192809               0.010981229              -0.003545629              -0.000925351               0.003968823               0.003043472               0.000000000               0.000000000               0.000000000               0.000000000              -0.000933943               0.010510842              -0.001745493              -0.001664081               0.004058272               0.002394191               0.000000000               0.000000000               0.000000000               0.000000000              -0.002546480               0.010613355              -0.000081873              -0.002281594               0.004298281               0.002016687               0.000000000               0.000000000               0.000000000               0.000000000              -0.002958867               0.010037218               0.000408323              -0.002364221               0.004133780               0.001769558               0.000000000               0.000000000               0.000000000               0.000000000              -0.002903507               0.009326517               0.000540459              -0.002254624               0.003860349               0.001605725               0.000000000               0.000000000               0.000000000               0.000000000              -0.002657466               0.008623479               0.000555289              -0.002074480               0.003565957               0.001491478               0.000000000               0.000000000               0.000000000               0.000000000              -0.002323021               0.007960270               0.000525755              -0.001866162               0.003275451               0.001409289               0.000000000               0.000000000               0.000000000               0.000000000              -0.001957592               0.007335730               0.000477111              -0.001651059               0.002995572               0.001344512               0.000000000               0.000000000               0.000000000               0.000000000              -0.001595026               0.006762415               0.000420760              -0.001443433               0.002735260               0.001291827               0.000000000               0.000000000               0.000000000               0.000000000              -0.001243611               0.006260432               0.000362729              -0.001248905               0.002503091               0.001254186               0.000000000               0.000000000               0.000000000               0.000000000              -0.000924171               0.005841366               0.000307903              -0.001076732               0.002306013               0.001229281               0.000000000               0.000000000               0.000000000               0.000000000              -0.000656412               0.005499804               0.000255334              -0.000933628               0.002144459               0.001210831               0.000000000               0.000000000               0.000000000               0.000000000              -0.000434259               0.005231540               0.000198157              -0.000816788               0.002016092               0.001199304               0.000000000               0.000000000               0.000000000               0.000000000              -0.000254500               0.005030524               0.000136643              -0.000724251               0.001918242               0.001193990               0.000000000               0.000000000               0.000000000               0.000000000              -0.000127196               0.004894966               0.000073682              -0.000659568               0.001851495               0.001191927               0.000000000               0.000000000               0.000000000               0.000000000              -0.000049404               0.004826565               0.000024467              -0.000621846               0.001816121               0.001194275               0.000000000               0.000000000               0.000000000               0.000000000              -0.000022601               0.004809042               0.000007788              -0.000609604               0.001806199               0.001196595               0.000000000               0.000000000               0.000000000               0.000000000               0.000079230               0.008361378              -0.002786349              -0.001015461               0.003125584               0.002110124               0.000000000               0.000000000               0.000000000               0.000000000              -0.001947521               0.009000166              -0.001614679              -0.001855337               0.003618471               0.001763133               0.000000000               0.000000000               0.000000000               0.000000000              -0.003505961               0.009868163              -0.000500087              -0.002548250               0.004138771               0.001590522               0.000000000               0.000000000               0.000000000               0.000000000              -0.003651592               0.009548034              -0.000140942              -0.002562845               0.004036928               0.001474083               0.000000000               0.000000000               0.000000000               0.000000000              -0.003350447               0.008962789              -0.000008361              -0.002376760               0.003779820               0.001403059               0.000000000               0.000000000               0.000000000               0.000000000              -0.002903992               0.008332624               0.000042904              -0.002130570               0.003487704               0.001357134               0.000000000               0.000000000               0.000000000               0.000000000              -0.002410413               0.007710378               0.000060696              -0.001867698               0.003192666               0.001324969               0.000000000               0.000000000               0.000000000               0.000000000              -0.001919106               0.007122828               0.000060021              -0.001610014               0.002910924               0.001300909               0.000000000               0.000000000               0.000000000               0.000000000              -0.001462765               0.006596662               0.000053628              -0.001373116               0.002656571               0.001283455               0.000000000               0.000000000               0.000000000               0.000000000              -0.001061372               0.006148486               0.000045512              -0.001166572               0.002438332               0.001271760               0.000000000               0.000000000               0.000000000               0.000000000              -0.000727227               0.005782441               0.000037787              -0.000995513               0.002259299               0.001263786               0.000000000               0.000000000               0.000000000               0.000000000              -0.000465430               0.005491359               0.000031643              -0.000860954               0.002117419               0.001256465               0.000000000               0.000000000               0.000000000               0.000000000              -0.000266363               0.005266912               0.000021910              -0.000758248               0.002008369               0.001250121               0.000000000               0.000000000               0.000000000               0.000000000              -0.000125084               0.005106642               0.000008324              -0.000685235               0.001930609               0.001245374               0.000000000               0.000000000               0.000000000               0.000000000              -0.000047710               0.005004626              -0.000005363              -0.000643468               0.001882681               0.001239213               0.000000000               0.000000000               0.000000000               0.000000000              -0.000018665               0.004952578              -0.000009380              -0.000626070               0.001859533               0.001233463               0.000000000               0.000000000               0.000000000               0.000000000              -0.000014094               0.004936206              -0.000006111              -0.000622309               0.001852822               0.001230513               0.000000000               0.000000000               0.000000000               0.000000000              -0.001221048               0.006171381              -0.001876816              -0.001229314               0.002466877               0.001237564               0.000000000               0.000000000               0.000000000               0.000000000              -0.002936349               0.007654988              -0.001473684              -0.002058000               0.003237637               0.001179637               0.000000000               0.000000000               0.000000000               0.000000000              -0.004257238               0.009106759              -0.000992931              -0.002734802               0.003947157               0.001212354               0.000000000               0.000000000               0.000000000               0.000000000              -0.004123056               0.009057181              -0.000716860              -0.002678287               0.003911792               0.001233505               0.000000000               0.000000000               0.000000000               0.000000000              -0.003620495               0.008628553              -0.000555215              -0.002436249               0.003688238               0.001251990               0.000000000               0.000000000               0.000000000               0.000000000              -0.003016514               0.008094171              -0.000452022              -0.002142959               0.003412349               0.001269391               0.000000000               0.000000000               0.000000000               0.000000000              -0.002402487               0.007531753              -0.000377513              -0.001842397               0.003124692               0.001282295               0.000000000               0.000000000               0.000000000               0.000000000              -0.001818356               0.006994982              -0.000321473              -0.001556252               0.002850388               0.001294136               0.000000000               0.000000000               0.000000000               0.000000000              -0.001292922               0.006517054              -0.000273218              -0.001299474               0.002605488               0.001306013               0.000000000               0.000000000               0.000000000               0.000000000              -0.000858587               0.006107510              -0.000229698              -0.001085406               0.002397618               0.001312212               0.000000000               0.000000000               0.000000000               0.000000000              -0.000516657               0.005774554              -0.000189015              -0.000915564               0.002230020               0.001314456               0.000000000               0.000000000               0.000000000               0.000000000              -0.000259915               0.005506310              -0.000145372              -0.000785755               0.002097336               0.001311582               0.000000000               0.000000000               0.000000000               0.000000000              -0.000087723               0.005293503              -0.000103610              -0.000694582               0.001996011               0.001301428               0.000000000               0.000000000               0.000000000               0.000000000               0.000006355               0.005141008              -0.000070050              -0.000640241               0.001927066               0.001286825               0.000000000               0.000000000               0.000000000               0.000000000               0.000030156               0.005044132              -0.000044386              -0.000619206               0.001887763               0.001268556               0.000000000               0.000000000               0.000000000               0.000000000               0.000011766               0.004996698              -0.000021523              -0.000620173               0.001872274               0.001252100               0.000000000               0.000000000               0.000000000               0.000000000              -0.000007381               0.004979878              -0.000007909              -0.000625251               0.001868360               0.001243109               0.000000000               0.000000000               0.000000000               0.000000000              -0.002723085               0.004153729              -0.000929213              -0.001540369               0.001898019               0.000357649               0.000000000               0.000000000               0.000000000               0.000000000              -0.003768862               0.006090610              -0.001321669              -0.002174644               0.002755064               0.000580420               0.000000000               0.000000000               0.000000000               0.000000000              -0.004711796               0.007960038              -0.001505218              -0.002761922               0.003573960               0.000812038               0.000000000               0.000000000               0.000000000               0.000000000              -0.004422784               0.008318112              -0.001315938              -0.002698302               0.003672110               0.000973808               0.000000000               0.000000000               0.000000000               0.000000000              -0.003841917               0.008176884              -0.001123560              -0.002462823               0.003546542               0.001083718               0.000000000               0.000000000               0.000000000               0.000000000              -0.003190528               0.007847164              -0.000967433              -0.002177338               0.003341474               0.001164136               0.000000000               0.000000000               0.000000000               0.000000000              -0.002540867               0.007439655              -0.000837861              -0.001882777               0.003107453               0.001224675               0.000000000               0.000000000               0.000000000               0.000000000              -0.001928063               0.007017965              -0.000726172              -0.001600265               0.002872720               0.001272455               0.000000000               0.000000000               0.000000000               0.000000000              -0.001374509               0.006618799              -0.000623668              -0.001342788               0.002653840               0.001311053               0.000000000               0.000000000               0.000000000               0.000000000              -0.000900867               0.006258002              -0.000530703              -0.001120073               0.002459337               0.001339265               0.000000000               0.000000000               0.000000000               0.000000000              -0.000521420               0.005944407              -0.000445078              -0.000938581               0.002294310               0.001355728               0.000000000               0.000000000               0.000000000               0.000000000              -0.000233839               0.005671914              -0.000355608              -0.000796677               0.002156178               0.001359501               0.000000000               0.000000000               0.000000000               0.000000000              -0.000035102               0.005441366              -0.000263882              -0.000693332               0.002044881               0.001351549               0.000000000               0.000000000               0.000000000               0.000000000               0.000075657               0.005255710              -0.000176891              -0.000628591               0.001961416               0.001332825               0.000000000               0.000000000               0.000000000               0.000000000               0.000103861               0.005119877              -0.000097280              -0.000601035               0.001906954               0.001305919               0.000000000               0.000000000               0.000000000               0.000000000               0.000071290               0.005035777              -0.000035562              -0.000602737               0.001879488               0.001276751               0.000000000               0.000000000               0.000000000               0.000000000               0.000030232               0.004994499              -0.000005870              -0.000612974               0.001869141               0.001256167               0.000000000               0.000000000               0.000000000               0.000000000              -0.004628093               0.002335182              -0.000020995              -0.002027429               0.001454194              -0.000573235               0.000000000               0.000000000               0.000000000               0.000000000              -0.004711640               0.004510970              -0.001108301              -0.002330731               0.002280551              -0.000050180               0.000000000               0.000000000               0.000000000               0.000000000              -0.005084142               0.006600054              -0.001916766              -0.002731554               0.003110513               0.000378960               0.000000000               0.000000000               0.000000000               0.000000000              -0.004657089               0.007340206              -0.001882357              -0.002663928               0.003334686               0.000670758               0.000000000               0.000000000               0.000000000               0.000000000              -0.004030184               0.007519399              -0.001692267              -0.002451238               0.003323520               0.000872282               0.000000000               0.000000000               0.000000000               0.000000000              -0.003366073               0.007437757              -0.001499613              -0.002191992               0.003209891               0.001017899               0.000000000               0.000000000               0.000000000               0.000000000              -0.002709301               0.007228988              -0.001323888              -0.001919607               0.003049507               0.001129900               0.000000000               0.000000000               0.000000000               0.000000000              -0.002084206               0.006964587              -0.001164660              -0.001652147               0.002872221               0.001220074               0.000000000               0.000000000               0.000000000               0.000000000              -0.001508323               0.006682586              -0.001018555              -0.001400941               0.002694487               0.001293545               0.000000000               0.000000000               0.000000000               0.000000000              -0.000993767               0.006397372              -0.000887634              -0.001172331               0.002523213               0.001350882               0.000000000               0.000000000               0.000000000               0.000000000              -0.000554890               0.006121053              -0.000767553              -0.000973213               0.002364735               0.001391522               0.000000000               0.000000000               0.000000000               0.000000000              -0.000200709               0.005857117              -0.000643759              -0.000807404               0.002221487               0.001414084               0.000000000               0.000000000               0.000000000               0.000000000               0.000059690               0.005616246              -0.000507088              -0.000679645               0.002098612               0.001418966               0.000000000               0.000000000               0.000000000               0.000000000               0.000220321               0.005405757              -0.000361672              -0.000593098               0.001999600               0.001406502               0.000000000               0.000000000               0.000000000               0.000000000               0.000286008               0.005229410              -0.000219103              -0.000546422               0.001925260               0.001378838               0.000000000               0.000000000               0.000000000               0.000000000               0.000264709               0.005093933              -0.000095848              -0.000537475               0.001877119               0.001339644               0.000000000               0.000000000               0.000000000               0.000000000               0.000211593               0.005022853              -0.000033784              -0.000548508               0.001857103               0.001308596               0.000000000               0.000000000               0.000000000               0.000000000              -0.006797268               0.000863967               0.000760470              -0.002656969               0.001173637              -0.001483331               0.000000000               0.000000000               0.000000000               0.000000000              -0.005807379               0.003024095              -0.000822864              -0.002555775               0.001859944              -0.000695831               0.000000000               0.000000000               0.000000000               0.000000000              -0.005394077               0.005052011              -0.002119115              -0.002654275               0.002568744              -0.000085531               0.000000000               0.000000000               0.000000000               0.000000000              -0.004742716               0.006050021              -0.002283045              -0.002534766               0.002861575               0.000326809               0.000000000               0.000000000               0.000000000               0.000000000              -0.004051654               0.006519987              -0.002146722              -0.002334364               0.002951428               0.000617064               0.000000000               0.000000000               0.000000000               0.000000000              -0.003378266               0.006703993              -0.001947860              -0.002104844               0.002936256               0.000831412               0.000000000               0.000000000               0.000000000               0.000000000              -0.002730248               0.006721860              -0.001747457              -0.001864071               0.002861954               0.000997883               0.000000000               0.000000000               0.000000000               0.000000000              -0.002106760               0.006645893              -0.001560360              -0.001620768               0.002755531               0.001134763               0.000000000               0.000000000               0.000000000               0.000000000              -0.001515669               0.006513342              -0.001388660              -0.001382540               0.002631939               0.001249398               0.000000000               0.000000000               0.000000000               0.000000000              -0.000972762               0.006338505              -0.001234739              -0.001157096               0.002498513               0.001341416               0.000000000               0.000000000               0.000000000               0.000000000              -0.000485798               0.006135239              -0.001095478              -0.000949077               0.002361418               0.001412341               0.000000000               0.000000000               0.000000000               0.000000000              -0.000068901               0.005916459              -0.000947003              -0.000765394               0.002227264               0.001461871               0.000000000               0.000000000               0.000000000               0.000000000               0.000264582               0.005699779              -0.000774125              -0.000613253               0.002104325               0.001491072               0.000000000               0.000000000               0.000000000               0.000000000               0.000503799               0.005491191              -0.000585812              -0.000497473               0.001996203               0.001498730               0.000000000               0.000000000               0.000000000               0.000000000               0.000643901               0.005300745              -0.000388669              -0.000421129               0.001907274               0.001486145               0.000000000               0.000000000               0.000000000               0.000000000               0.000677049               0.005139431              -0.000190908              -0.000388535               0.001842638               0.001454103               0.000000000               0.000000000               0.000000000               0.000000000               0.000641755               0.005052261              -0.000087258              -0.000390874               0.001814361               0.001423488               0.000000000               0.000000000               0.000000000               0.000000000              -0.009068442              -0.000180687               0.001301824              -0.003378077               0.001065789              -0.002312288               0.000000000               0.000000000               0.000000000               0.000000000              -0.006983135               0.001711491              -0.000511792              -0.002832608               0.001514689              -0.001317919               0.000000000               0.000000000               0.000000000               0.000000000              -0.005670450               0.003444925              -0.002080770              -0.002557030               0.002000638              -0.000556392               0.000000000               0.000000000               0.000000000               0.000000000              -0.004703076               0.004560429              -0.002421000              -0.002333702               0.002298027              -0.000035675               0.000000000               0.000000000               0.000000000               0.000000000              -0.003912409               0.005255847              -0.002370674              -0.002124130               0.002459974               0.000335844               0.000000000               0.000000000               0.000000000               0.000000000              -0.003218585               0.005684846              -0.002200720              -0.001917571               0.002534119               0.000616548               0.000000000               0.000000000               0.000000000               0.000000000              -0.002579167               0.005929899              -0.002004812              -0.001708421               0.002546086               0.000837665               0.000000000               0.000000000               0.000000000               0.000000000              -0.001967941               0.006050671              -0.001815148              -0.001494309               0.002514973               0.001020664               0.000000000               0.000000000               0.000000000               0.000000000              -0.001377301               0.006084872              -0.001636996              -0.001277094               0.002453968               0.001176874               0.000000000               0.000000000               0.000000000               0.000000000              -0.000818337               0.006049091              -0.001477509              -0.001063011               0.002370680               0.001307669               0.000000000               0.000000000               0.000000000               0.000000000              -0.000299973               0.005959925              -0.001332335              -0.000857479               0.002272448               0.001414969               0.000000000               0.000000000               0.000000000               0.000000000               0.000169192               0.005826351              -0.001176350              -0.000664846               0.002163713               0.001498867               0.000000000               0.000000000               0.000000000               0.000000000               0.000584429               0.005664371              -0.000996020              -0.000488885               0.002051066               0.001562182               0.000000000               0.000000000               0.000000000               0.000000000               0.000930244               0.005487617              -0.000789751              -0.000337110               0.001941557               0.001604447               0.000000000               0.000000000               0.000000000               0.000000000               0.001189160               0.005314012              -0.000556354              -0.000218316               0.001844092               0.001625775               0.000000000               0.000000000               0.000000000               0.000000000               0.001343370               0.005153805              -0.000291529              -0.000140462               0.001764738               0.001624277               0.000000000               0.000000000               0.000000000               0.000000000               0.001388253               0.005073129              -0.000150586              -0.000113546               0.001728875               0.001615329               0.000000000               0.000000000               0.000000000               0.000000000              -0.011233502              -0.000814943               0.001493774              -0.004110693               0.001098575              -0.003012117               0.000000000               0.000000000               0.000000000               0.000000000              -0.008135821               0.000656949              -0.000239567              -0.003133048               0.001263324              -0.001869725               0.000000000               0.000000000               0.000000000               0.000000000              -0.005922588               0.001947075              -0.001798800              -0.002464352               0.001470465              -0.000993887               0.000000000               0.000000000               0.000000000               0.000000000              -0.004593254               0.003051343              -0.002231437              -0.002103884               0.001718396              -0.000385488               0.000000000               0.000000000               0.000000000               0.000000000              -0.003662261               0.003886161              -0.002262255              -0.001859114               0.001915078               0.000055963               0.000000000               0.000000000               0.000000000               0.000000000              -0.002925476               0.004502726              -0.002147743              -0.001659891               0.002054190               0.000394299               0.000000000               0.000000000               0.000000000               0.000000000              -0.002284445               0.004947177              -0.001988183              -0.001475061               0.002140729               0.000665668               0.000000000               0.000000000               0.000000000               0.000000000              -0.001687406               0.005256306              -0.001824146              -0.001289813               0.002182022               0.000892208               0.000000000               0.000000000               0.000000000               0.000000000              -0.001111379               0.005460249              -0.001663881              -0.001099296               0.002186497               0.001087200               0.000000000               0.000000000               0.000000000               0.000000000              -0.000553709               0.005580681              -0.001514565              -0.000905224               0.002161950               0.001256725               0.000000000               0.000000000               0.000000000               0.000000000              -0.000020420               0.005625140              -0.001377087              -0.000710799               0.002111961               0.001401162               0.000000000               0.000000000               0.000000000               0.000000000               0.000492389               0.005605581              -0.001235132              -0.000516051               0.002040525               0.001524474               0.000000000               0.000000000               0.000000000               0.000000000               0.000986943               0.005534161              -0.001072120              -0.000321666               0.001951924               0.001630257               0.000000000               0.000000000               0.000000000               0.000000000               0.001448804               0.005416334              -0.000877048              -0.000133741               0.001850007               0.001716266               0.000000000               0.000000000               0.000000000               0.000000000               0.001865151               0.005278137              -0.000642781               0.000039663               0.001746140               0.001785804               0.000000000               0.000000000               0.000000000               0.000000000               0.002218527               0.005139326              -0.000351876               0.000189530               0.001649915               0.001839445               0.000000000               0.000000000               0.000000000               0.000000000               0.002424756               0.005089071              -0.000199608               0.000273147               0.001605291               0.001878438               0.000000000               0.000000000               0.000000000               0.000000000              -0.013043348              -0.001128570               0.001290938              -0.004750181               0.001207195              -0.003542986               0.000000000               0.000000000               0.000000000               0.000000000              -0.009131446              -0.000098155              -0.000062795              -0.003412020               0.001104614              -0.002307406               0.000000000               0.000000000               0.000000000               0.000000000              -0.006142344               0.000731347              -0.001314564              -0.002394795               0.001042040              -0.001352755               0.000000000               0.000000000               0.000000000               0.000000000              -0.004467459               0.001748625              -0.001713135              -0.001893872               0.001214157              -0.000679716               0.000000000               0.000000000               0.000000000               0.000000000              -0.003381742               0.002643912              -0.001784475              -0.001598639               0.001414173              -0.000184466               0.000000000               0.000000000               0.000000000               0.000000000              -0.002584040               0.003379561              -0.001725987              -0.001391457               0.001590328               0.000198870               0.000000000               0.000000000               0.000000000               0.000000000              -0.001926080               0.003972568              -0.001620387              -0.001218849               0.001730458               0.000511610               0.000000000               0.000000000               0.000000000               0.000000000              -0.001338118               0.004437837              -0.001503851              -0.001056522               0.001831438               0.000774916               0.000000000               0.000000000               0.000000000               0.000000000              -0.000779462               0.004790029              -0.001383725              -0.000891050               0.001893677               0.001002626               0.000000000               0.000000000               0.000000000               0.000000000              -0.000234908               0.005040894              -0.001267581              -0.000718201               0.001919681               0.001201480               0.000000000               0.000000000               0.000000000               0.000000000               0.000307355               0.005204165              -0.001159933              -0.000535262               0.001913125               0.001377863               0.000000000               0.000000000               0.000000000               0.000000000               0.000854861               0.005297129              -0.001049359              -0.000341568               0.001879548               0.001537980               0.000000000               0.000000000               0.000000000               0.000000000               0.001409947               0.005324785              -0.000920799              -0.000136868               0.001820533               0.001683665               0.000000000               0.000000000               0.000000000               0.000000000               0.001978935               0.005291987              -0.000763849               0.000080601               0.001737111               0.001817712               0.000000000               0.000000000               0.000000000               0.000000000               0.002563236               0.005214201              -0.000569937               0.000309435               0.001634905               0.001944340               0.000000000               0.000000000               0.000000000               0.000000000               0.003161789               0.005110504              -0.000316632               0.000546852               0.001521200               0.002068053               0.000000000               0.000000000               0.000000000               0.000000000               0.003585135               0.005100411              -0.000187834               0.000706867               0.001464498               0.002171365               0.000000000               0.000000000               0.000000000               0.000000000              -0.014246578              -0.001245707               0.000744467              -0.005186750               0.001313672              -0.003873078               0.000000000               0.000000000               0.000000000               0.000000000              -0.009814154              -0.000541560               0.000004622              -0.003612610               0.001023676              -0.002588934               0.000000000               0.000000000               0.000000000               0.000000000              -0.006303604              -0.000055926              -0.000691747              -0.002356859               0.000766972              -0.001589887               0.000000000               0.000000000               0.000000000               0.000000000              -0.004375628               0.000863575              -0.000930960              -0.001748805               0.000870787              -0.000878018               0.000000000               0.000000000               0.000000000               0.000000000              -0.003167369               0.001771117              -0.000985820              -0.001409151               0.001060082              -0.000349069               0.000000000               0.000000000               0.000000000               0.000000000              -0.002312488               0.002565226              -0.000965693              -0.001187834               0.001251011               0.000063177               0.000000000               0.000000000               0.000000000               0.000000000              -0.001633284               0.003242074              -0.000914651              -0.001017739               0.001419927               0.000402188               0.000000000               0.000000000               0.000000000               0.000000000              -0.001043660               0.003807021              -0.000853935              -0.000867248               0.001558077               0.000690829               0.000000000               0.000000000               0.000000000               0.000000000              -0.000494372               0.004261685              -0.000788064              -0.000718099               0.001659914               0.000941815               0.000000000               0.000000000               0.000000000               0.000000000               0.000045425               0.004606513              -0.000724305              -0.000558779               0.001721748               0.001162970               0.000000000               0.000000000               0.000000000               0.000000000               0.000589054               0.004850506              -0.000668760              -0.000385417               0.001745291               0.001359874               0.000000000               0.000000000               0.000000000               0.000000000               0.001150622               0.005014459              -0.000607590              -0.000195324               0.001736577               0.001541254               0.000000000               0.000000000               0.000000000               0.000000000               0.001744887               0.005112202              -0.000533471               0.000015307               0.001698948               0.001714255               0.000000000               0.000000000               0.000000000               0.000000000               0.002392216               0.005157055              -0.000443776               0.000252446               0.001634852               0.001887299               0.000000000               0.000000000               0.000000000               0.000000000               0.003106633               0.005146446              -0.000332432               0.000521676               0.001541573               0.002063249               0.000000000               0.000000000               0.000000000               0.000000000               0.003904006               0.005083302              -0.000186373               0.000828581               0.001418223               0.002246805               0.000000000               0.000000000               0.000000000               0.000000000               0.004510025               0.005107490              -0.000114707               0.001052813               0.001351542               0.002404355               0.000000000               0.000000000               0.000000000               0.000000000              -0.014668732              -0.001271690              -0.000000000              -0.005341810               0.001356698              -0.003985112               0.000000000               0.000000000               0.000000000               0.000000000              -0.010058982              -0.000687664              -0.000000000              -0.003686158               0.000999491              -0.002686667               0.000000000               0.000000000               0.000000000               0.000000000              -0.006365394              -0.000329873              -0.000000000              -0.002345787               0.000671967              -0.001673820               0.000000000               0.000000000               0.000000000               0.000000000              -0.004343562               0.000548879               0.000000000              -0.001697444               0.000748769              -0.000948675               0.000000000               0.000000000               0.000000000               0.000000000              -0.003089144               0.001456234               0.000000000              -0.001340456               0.000932224              -0.000408232               0.000000000               0.000000000               0.000000000               0.000000000              -0.002208689               0.002267052              -0.000000000              -0.001111637               0.001126222               0.000014584               0.000000000               0.000000000               0.000000000               0.000000000              -0.001522380               0.002968287              -0.000000000              -0.000941926               0.001303394               0.000361468               0.000000000               0.000000000               0.000000000               0.000000000              -0.000929306               0.003566027              -0.000000000              -0.000794241               0.001453411               0.000659169               0.000000000               0.000000000               0.000000000               0.000000000              -0.000382789               0.004054562              -0.000000000              -0.000650365               0.001568295               0.000917931               0.000000000               0.000000000               0.000000000               0.000000000               0.000159065               0.004437315              -0.000000000              -0.000495014               0.001644095               0.001149081               0.000000000               0.000000000               0.000000000               0.000000000               0.000703166               0.004717598               0.000000000              -0.000326012               0.001681187               0.001355176               0.000000000               0.000000000               0.000000000               0.000000000               0.001264743               0.004905353               0.000000000              -0.000138890               0.001681398               0.001542508               0.000000000               0.000000000               0.000000000               0.000000000               0.001872684               0.005021289              -0.000000000               0.000074594               0.001648881               0.001723476               0.000000000               0.000000000               0.000000000               0.000000000               0.002549364               0.005089672               0.000000000               0.000319799               0.001589940               0.001909740               0.000000000               0.000000000               0.000000000               0.000000000               0.003315312               0.005115672               0.000000000               0.000603777               0.001503948               0.002107725               0.000000000               0.000000000               0.000000000               0.000000000               0.004188866               0.005082385               0.000000000               0.000935517               0.001382272               0.002317789               0.000000000               0.000000000               0.000000000               0.000000000               0.004861621               0.005121076               0.000000000               0.001182961               0.001312688               0.002495649               0.000000000               0.000000000               0.000000000               0.000000000               0.000000000               0.000000000               0.000000000               0.000000000               0.000000000               0.000000000               0.000000000               0.000000000               0.000000000               0.000000000               0.000000000               0.000000000               0.000000000               0.000000000               0.000000000               0.000000000               0.000000000               0.000000000               0.000000000               0.000000000               0.000000000               0.000000000               0.000000000               0.000000000               0.000000000               0.000000000               0.000000000               0.000000000               0.000000000               0.000000000               0.000000000               0.000000000               0.000000000               0.000000000               0.000000000               0.000000000               0.000000000               0.000000000               0.000000000               0.000000000               0.000000000               0.000000000               0.000000000               0.000000000               0.000000000               0.000000000               0.000000000               0.000000000               0.000000000               0.000000000               0.000000000               0.000000000               0.000000000               0.000000000               0.000000000               0.000000000               0.000000000               0.000000000               0.000000000               0.000000000               0.000000000               0.000000000               0.000000000               0.000000000               0.000000000               0.000000000               0.000000000               0.000000000               0.000000000               0.000000000               0.000000000               0.000000000               0.000000000               0.000000000               0.000000000               0.000000000               0.000000000               0.000000000               0.000000000               0.000000000               0.000000000               0.000000000               0.000000000               0.000000000               0.000000000               0.000000000               0.000000000               0.000000000               0.000000000               0.000000000               0.000000000               0.000000000               0.000000000               0.000000000               0.000000000               0.000000000               0.000000000               0.000000000               0.000000000               0.000000000               0.000000000               0.000000000               0.000000000               0.000000000               0.000000000               0.000000000               0.000000000               0.000000000               0.000000000               0.000000000               0.000000000               0.000000000               0.000000000               0.000000000               0.000000000               0.000000000               0.000000000               0.000000000               0.000000000               0.000000000               0.000000000               0.000000000               0.000000000               0.000000000               0.000000000               0.000000000               0.000000000               0.000000000               0.000000000               0.000000000               0.000000000               0.000000000               0.000000000               0.000000000               0.000000000               0.000000000               0.000000000               0.000000000               0.000000000               0.000000000               0.000000000               0.000000000               0.000000000               0.000000000               0.000000000               0.000000000               0.000000000               0.000000000               0.000000000               0.000000000               0.000000000               0.000000000               0.000000000               0.000000000               0.000000000               0.000000000               0.000000000               0.000000000               0.000000000               0.000000000               0.000000000               0.000000000               0.000000000               0.000000000               0.000000000               0.000000000               0.000000000               0.000000000               0.000000000               0.000000000               0.002249981               0.023147065               0.001553811              -0.002049635               0.008398823               0.006349187               0.000000000               0.000000000               0.000000000               0.000000000               0.001990627               0.017817432               0.000682751              -0.001480691               0.006432648               0.004951958               0.000000000               0.000000000               0.000000000               0.000000000               0.002397726               0.013533244              -0.000175638              -0.000792506               0.004775205               0.003982699               0.000000000               0.000000000               0.000000000               0.000000000               0.002105743               0.011107546              -0.000524436              -0.000598788               0.003902075               0.003303286               0.000000000               0.000000000               0.000000000               0.000000000               0.001667346               0.009554773              -0.000654431              -0.000569091               0.003374589               0.002805499               0.000000000               0.000000000               0.000000000               0.000000000               0.001248011               0.008451354              -0.000691643              -0.000588414               0.003013228               0.002424814               0.000000000               0.000000000               0.000000000               0.000000000               0.000891937               0.007591092              -0.000686467              -0.000614409               0.002735141               0.002120733               0.000000000               0.000000000               0.000000000               0.000000000               0.000600135               0.006862301              -0.000658413              -0.000632736               0.002498323               0.001865587               0.000000000               0.000000000               0.000000000               0.000000000               0.000375658               0.006200674              -0.000618862              -0.000634211               0.002278274               0.001644063               0.000000000               0.000000000               0.000000000               0.000000000               0.000213107               0.005571177              -0.000578287              -0.000616481               0.002062534               0.001446053               0.000000000               0.000000000               0.000000000               0.000000000               0.000091002               0.004951356              -0.000539087              -0.000584793               0.001845366               0.001260574               0.000000000               0.000000000               0.000000000               0.000000000               0.000002140               0.004329078              -0.000498637              -0.000540331               0.001623122               0.001082791               0.000000000               0.000000000               0.000000000               0.000000000              -0.000054235               0.003690725              -0.000452850              -0.000481678               0.001390789               0.000909111               0.000000000               0.000000000               0.000000000               0.000000000              -0.000084668               0.003025197              -0.000395480              -0.000409899               0.001145022               0.000735123               0.000000000               0.000000000               0.000000000               0.000000000              -0.000088046               0.002320008              -0.000312352              -0.000323018               0.000881001               0.000557983               0.000000000               0.000000000               0.000000000               0.000000000              -0.000055918               0.001553682              -0.000179957              -0.000215179               0.000589615               0.000374436               0.000000000               0.000000000               0.000000000               0.000000000              -0.000090816               0.000981005              -0.000110219              -0.000156681               0.000379226               0.000222544               0.000000000               0.000000000               0.000000000               0.000000000               0.002394839               0.021674231               0.002863699              -0.001811211               0.007828408               0.006017197               0.000000000               0.000000000               0.000000000               0.000000000               0.001778576               0.016891491               0.001250959              -0.001444467               0.006111930               0.004667463               0.000000000               0.000000000               0.000000000               0.000000000               0.001812247               0.013171756              -0.000321074              -0.000966874               0.004712833               0.003745959               0.000000000               0.000000000               0.000000000               0.000000000               0.001391494               0.011029424              -0.000937059              -0.000856866               0.003962060               0.003105194               0.000000000               0.000000000               0.000000000               0.000000000               0.000938214               0.009623089              -0.001158070              -0.000851054               0.003491349               0.002640295               0.000000000               0.000000000               0.000000000               0.000000000               0.000561597               0.008596233              -0.001212329              -0.000863929               0.003153359               0.002289430               0.000000000               0.000000000               0.000000000               0.000000000               0.000269781               0.007772555              -0.001192041              -0.000870400               0.002880959               0.002010559               0.000000000               0.000000000               0.000000000               0.000000000               0.000049787               0.007058466              -0.001134645              -0.000863636               0.002640677               0.001777041               0.000000000               0.000000000               0.000000000               0.000000000              -0.000097507               0.006409659              -0.001059737              -0.000837771               0.002415788               0.001578018               0.000000000               0.000000000               0.000000000               0.000000000              -0.000184889               0.005795285              -0.000982178              -0.000793742               0.002196323               0.001402580               0.000000000               0.000000000               0.000000000               0.000000000              -0.000229859               0.005197282              -0.000908216              -0.000735856               0.001977695               0.001241839               0.000000000               0.000000000               0.000000000               0.000000000              -0.000240502               0.004606734              -0.000831972              -0.000666029               0.001757572               0.001091543               0.000000000               0.000000000               0.000000000               0.000000000              -0.000227077               0.004018352              -0.000746617              -0.000587447               0.001535253               0.000947806               0.000000000               0.000000000               0.000000000               0.000000000              -0.000194138               0.003434496              -0.000643826              -0.000502113               0.001312192               0.000810079               0.000000000               0.000000000               0.000000000               0.000000000              -0.000144953               0.002852155              -0.000498697              -0.000410876               0.001087667               0.000676791               0.000000000               0.000000000               0.000000000               0.000000000              -0.000081455               0.002273001              -0.000282323              -0.000314670               0.000862549               0.000547879               0.000000000               0.000000000               0.000000000               0.000000000              -0.000085183               0.001878692              -0.000167535              -0.000266780               0.000715151               0.000448371               0.000000000               0.000000000               0.000000000               0.000000000               0.002492641               0.019454094               0.003750265              -0.001497020               0.006983639               0.005486619               0.000000000               0.000000000               0.000000000               0.000000000               0.001382492               0.015518111               0.001629209              -0.001421327               0.005646427               0.004225101               0.000000000               0.000000000               0.000000000               0.000000000               0.000904655               0.012642358              -0.000405893              -0.001241046               0.004627759               0.003386713               0.000000000               0.000000000               0.000000000               0.000000000               0.000352893               0.010901700              -0.001153748              -0.001230375               0.004043989               0.002813614               0.000000000               0.000000000               0.000000000               0.000000000              -0.000076875               0.009689823              -0.001398785              -0.001240053               0.003643260               0.002403206               0.000000000               0.000000000               0.000000000               0.000000000              -0.000369115               0.008755789              -0.001442253              -0.001232889               0.003329530               0.002096641               0.000000000               0.000000000               0.000000000               0.000000000              -0.000553682               0.007974436              -0.001398369              -0.001204433               0.003059596               0.001855163               0.000000000               0.000000000               0.000000000               0.000000000              -0.000654249               0.007281607              -0.001316974              -0.001155542               0.002812358               0.001656817               0.000000000               0.000000000               0.000000000               0.000000000              -0.000684512               0.006647748              -0.001218623              -0.001087658               0.002578447               0.001490788               0.000000000               0.000000000               0.000000000               0.000000000              -0.000664607               0.006052923              -0.001116188              -0.001005841               0.002352901               0.001347060               0.000000000               0.000000000               0.000000000               0.000000000              -0.000603580               0.005485646              -0.001017084              -0.000912046               0.002132546               0.001220499               0.000000000               0.000000000               0.000000000               0.000000000              -0.000515170               0.004940985              -0.000917271              -0.000810810               0.001917249               0.001106438               0.000000000               0.000000000               0.000000000               0.000000000              -0.000416441               0.004429030              -0.000810462              -0.000709792               0.001712926               0.001003134               0.000000000               0.000000000               0.000000000               0.000000000              -0.000315226               0.003955560              -0.000681933              -0.000612653               0.001522725               0.000910071               0.000000000               0.000000000               0.000000000               0.000000000              -0.000209512               0.003528629              -0.000508378              -0.000519645               0.001349413               0.000829768               0.000000000               0.000000000               0.000000000               0.000000000              -0.000104211               0.003169070              -0.000276609              -0.000435212               0.001201417               0.000766205               0.000000000               0.000000000               0.000000000               0.000000000              -0.000069926               0.002967606              -0.000154659              -0.000397172               0.001121583               0.000724411               0.000000000               0.000000000               0.000000000               0.000000000               0.002391988               0.016749543               0.004135450              -0.001196698               0.005982024               0.004785326               0.000000000               0.000000000               0.000000000               0.000000000               0.000782475               0.013886709               0.001806795              -0.001442408               0.005109659               0.003667251               0.000000000               0.000000000               0.000000000               0.000000000              -0.000217022               0.012010883              -0.000386426              -0.001582740               0.004531167               0.002948428               0.000000000               0.000000000               0.000000000               0.000000000              -0.000836148               0.010704407              -0.001125264              -0.001651603               0.004118634               0.002467031               0.000000000               0.000000000               0.000000000               0.000000000              -0.001173366               0.009686052              -0.001340235              -0.001650765               0.003778907               0.002128142               0.000000000               0.000000000               0.000000000               0.000000000              -0.001324090               0.008839820              -0.001358254              -0.001601508               0.003480413               0.001878905               0.000000000               0.000000000               0.000000000               0.000000000              -0.001354505               0.008098868              -0.001298049              -0.001520295               0.003206360               0.001686066               0.000000000               0.000000000               0.000000000               0.000000000              -0.001302660               0.007430710              -0.001205918              -0.001417333               0.002949323               0.001531990               0.000000000               0.000000000               0.000000000               0.000000000              -0.001195565               0.006812842              -0.001101293              -0.001299939               0.002704237               0.001404298               0.000000000               0.000000000               0.000000000               0.000000000              -0.001048977               0.006241059              -0.000993717              -0.001173496               0.002471497               0.001298001               0.000000000               0.000000000               0.000000000               0.000000000              -0.000878056               0.005708939              -0.000888212              -0.001042886               0.002250589               0.001207703               0.000000000               0.000000000               0.000000000               0.000000000              -0.000698269               0.005229119              -0.000783909              -0.000915489               0.002048185               0.001132696               0.000000000               0.000000000               0.000000000               0.000000000              -0.000529521               0.004805524              -0.000675497              -0.000799259               0.001868245               0.001068986               0.000000000               0.000000000               0.000000000               0.000000000              -0.000373731               0.004445817              -0.000547719              -0.000695875               0.001713882               0.001018008               0.000000000               0.000000000               0.000000000               0.000000000              -0.000229539               0.004162265              -0.000386872              -0.000606359               0.001589527               0.000983168               0.000000000               0.000000000               0.000000000               0.000000000              -0.000105904               0.003974541              -0.000198283              -0.000536530               0.001503677               0.000967147               0.000000000               0.000000000               0.000000000               0.000000000              -0.000053104               0.003902762              -0.000101651              -0.000507758               0.001470160               0.000962402               0.000000000               0.000000000               0.000000000               0.000000000               0.001979215               0.013840258               0.004035760              -0.000987827               0.004942648               0.003954821               0.000000000               0.000000000               0.000000000               0.000000000              -0.000005219               0.012172822               0.001825840              -0.001523557               0.004565419               0.003041862               0.000000000               0.000000000               0.000000000               0.000000000              -0.001414125               0.011326357              -0.000222847              -0.001946087               0.004424110               0.002478023               0.000000000               0.000000000               0.000000000               0.000000000              -0.001989464               0.010419886              -0.000856869              -0.002048530               0.004156104               0.002107574               0.000000000               0.000000000               0.000000000               0.000000000              -0.002157094               0.009570114              -0.001023332              -0.002005170               0.003858396               0.001853226               0.000000000               0.000000000               0.000000000               0.000000000              -0.002120145               0.008797616              -0.001027423              -0.001894752               0.003564093               0.001669341               0.000000000               0.000000000               0.000000000               0.000000000              -0.001970014               0.008095845              -0.000970645              -0.001750732               0.003282165               0.001531433               0.000000000               0.000000000               0.000000000               0.000000000              -0.001756690               0.007448464              -0.000889469              -0.001589813               0.003012734               0.001422921               0.000000000               0.000000000               0.000000000               0.000000000              -0.001510938               0.006848969              -0.000799767              -0.001422720               0.002757207               0.001334487               0.000000000               0.000000000               0.000000000               0.000000000              -0.001246627               0.006303130              -0.000706085              -0.001255373               0.002519480               0.001264107               0.000000000               0.000000000               0.000000000               0.000000000              -0.000985630               0.005821230              -0.000615823              -0.001097262               0.002306145               0.001208882               0.000000000               0.000000000               0.000000000               0.000000000              -0.000744178               0.005413502              -0.000528535              -0.000955752               0.002123067               0.001167314               0.000000000               0.000000000               0.000000000               0.000000000              -0.000529548               0.005077642              -0.000436644              -0.000833284               0.001970292               0.001137008               0.000000000               0.000000000               0.000000000               0.000000000              -0.000344261               0.004813235              -0.000333911              -0.000730750               0.001847979               0.001117229               0.000000000               0.000000000               0.000000000               0.000000000              -0.000193767               0.004625854              -0.000215101              -0.000650893               0.001758900               0.001108007               0.000000000               0.000000000               0.000000000               0.000000000              -0.000081620               0.004525008              -0.000097208              -0.000596232               0.001707065               0.001110833               0.000000000               0.000000000               0.000000000               0.000000000              -0.000034850               0.004501309              -0.000042771              -0.000575731               0.001692332               0.001116601               0.000000000               0.000000000               0.000000000               0.000000000               0.001192809               0.010981229               0.003545629              -0.000925351               0.003968823               0.003043472               0.000000000               0.000000000               0.000000000               0.000000000              -0.000933943               0.010510842               0.001745493              -0.001664081               0.004058272               0.002394191               0.000000000               0.000000000               0.000000000               0.000000000              -0.002546480               0.010613355               0.000081873              -0.002281594               0.004298281               0.002016687               0.000000000               0.000000000               0.000000000               0.000000000              -0.002958867               0.010037218              -0.000408323              -0.002364221               0.004133780               0.001769558               0.000000000               0.000000000               0.000000000               0.000000000              -0.002903507               0.009326517              -0.000540459              -0.002254624               0.003860349               0.001605725               0.000000000               0.000000000               0.000000000               0.000000000              -0.002657466               0.008623479              -0.000555289              -0.002074480               0.003565957               0.001491478               0.000000000               0.000000000               0.000000000               0.000000000              -0.002323021               0.007960270              -0.000525755              -0.001866162               0.003275451               0.001409289               0.000000000               0.000000000               0.000000000               0.000000000              -0.001957592               0.007335730              -0.000477111              -0.001651059               0.002995572               0.001344512               0.000000000               0.000000000               0.000000000               0.000000000              -0.001595026               0.006762415              -0.000420760              -0.001443433               0.002735260               0.001291827               0.000000000               0.000000000               0.000000000               0.000000000              -0.001243611               0.006260432              -0.000362729              -0.001248905               0.002503091               0.001254186               0.000000000               0.000000000               0.000000000               0.000000000              -0.000924171               0.005841366              -0.000307903              -0.001076732               0.002306013               0.001229281               0.000000000               0.000000000               0.000000000               0.000000000              -0.000656412               0.005499804              -0.000255334              -0.000933628               0.002144459               0.001210831               0.000000000               0.000000000               0.000000000               0.000000000              -0.000434259               0.005231540              -0.000198157              -0.000816788               0.002016092               0.001199304               0.000000000               0.000000000               0.000000000               0.000000000              -0.000254500               0.005030524              -0.000136643              -0.000724251               0.001918242               0.001193990               0.000000000               0.000000000               0.000000000               0.000000000              -0.000127196               0.004894966              -0.000073682              -0.000659568               0.001851495               0.001191927               0.000000000               0.000000000               0.000000000               0.000000000              -0.000049404               0.004826565              -0.000024467              -0.000621846               0.001816121               0.001194275               0.000000000               0.000000000               0.000000000               0.000000000              -0.000022601               0.004809042              -0.000007788              -0.000609604               0.001806199               0.001196595               0.000000000               0.000000000               0.000000000               0.000000000               0.000079230               0.008361378               0.002786349              -0.001015461               0.003125584               0.002110124               0.000000000               0.000000000               0.000000000               0.000000000              -0.001947521               0.009000166               0.001614679              -0.001855337               0.003618471               0.001763133               0.000000000               0.000000000               0.000000000               0.000000000              -0.003505961               0.009868163               0.000500087              -0.002548250               0.004138771               0.001590522               0.000000000               0.000000000               0.000000000               0.000000000              -0.003651592               0.009548034               0.000140942              -0.002562845               0.004036928               0.001474083               0.000000000               0.000000000               0.000000000               0.000000000              -0.003350447               0.008962789               0.000008361              -0.002376760               0.003779820               0.001403059               0.000000000               0.000000000               0.000000000               0.000000000              -0.002903992               0.008332624              -0.000042904              -0.002130570               0.003487704               0.001357134               0.000000000               0.000000000               0.000000000               0.000000000              -0.002410413               0.007710378              -0.000060696              -0.001867698               0.003192666               0.001324969               0.000000000               0.000000000               0.000000000               0.000000000              -0.001919106               0.007122828              -0.000060021              -0.001610014               0.002910924               0.001300909               0.000000000               0.000000000               0.000000000               0.000000000              -0.001462765               0.006596662              -0.000053628              -0.001373116               0.002656571               0.001283455               0.000000000               0.000000000               0.000000000               0.000000000              -0.001061372               0.006148486              -0.000045512              -0.001166572               0.002438332               0.001271760               0.000000000               0.000000000               0.000000000               0.000000000              -0.000727227               0.005782441              -0.000037787              -0.000995513               0.002259299               0.001263786               0.000000000               0.000000000               0.000000000               0.000000000              -0.000465430               0.005491359              -0.000031643              -0.000860954               0.002117419               0.001256465               0.000000000               0.000000000               0.000000000               0.000000000              -0.000266363               0.005266912              -0.000021910              -0.000758248               0.002008369               0.001250121               0.000000000               0.000000000               0.000000000               0.000000000              -0.000125084               0.005106642              -0.000008324              -0.000685235               0.001930609               0.001245374               0.000000000               0.000000000               0.000000000               0.000000000              -0.000047710               0.005004626               0.000005363              -0.000643468               0.001882681               0.001239213               0.000000000               0.000000000               0.000000000               0.000000000              -0.000018665               0.004952578               0.000009380              -0.000626070               0.001859533               0.001233463               0.000000000               0.000000000               0.000000000               0.000000000              -0.000014094               0.004936206               0.000006111              -0.000622309               0.001852822               0.001230513               0.000000000               0.000000000               0.000000000               0.000000000              -0.001221048               0.006171381               0.001876816              -0.001229314               0.002466877               0.001237564               0.000000000               0.000000000               0.000000000               0.000000000              -0.002936349               0.007654988               0.001473684              -0.002058000               0.003237637               0.001179637               0.000000000               0.000000000               0.000000000               0.000000000              -0.004257238               0.009106759               0.000992931              -0.002734802               0.003947157               0.001212354               0.000000000               0.000000000               0.000000000               0.000000000              -0.004123056               0.009057181               0.000716860              -0.002678287               0.003911792               0.001233505               0.000000000               0.000000000               0.000000000               0.000000000              -0.003620495               0.008628553               0.000555215              -0.002436249               0.003688238               0.001251990               0.000000000               0.000000000               0.000000000               0.000000000              -0.003016514               0.008094171               0.000452022              -0.002142959               0.003412349               0.001269391               0.000000000               0.000000000               0.000000000               0.000000000              -0.002402487               0.007531753               0.000377513              -0.001842397               0.003124692               0.001282295               0.000000000               0.000000000               0.000000000               0.000000000              -0.001818356               0.006994982               0.000321473              -0.001556252               0.002850388               0.001294136               0.000000000               0.000000000               0.000000000               0.000000000              -0.001292922               0.006517054               0.000273218              -0.001299474               0.002605488               0.001306013               0.000000000               0.000000000               0.000000000               0.000000000              -0.000858587               0.006107510               0.000229698              -0.001085406               0.002397618               0.001312212               0.000000000               0.000000000               0.000000000               0.000000000              -0.000516657               0.005774554               0.000189015              -0.000915564               0.002230020               0.001314456               0.000000000               0.000000000               0.000000000               0.000000000              -0.000259915               0.005506310               0.000145372              -0.000785755               0.002097336               0.001311582               0.000000000               0.000000000               0.000000000               0.000000000              -0.000087723               0.005293503               0.000103610              -0.000694582               0.001996011               0.001301428               0.000000000               0.000000000               0.000000000               0.000000000               0.000006355               0.005141008               0.000070050              -0.000640241               0.001927066               0.001286825               0.000000000               0.000000000               0.000000000               0.000000000               0.000030156               0.005044132               0.000044386              -0.000619206               0.001887763               0.001268556               0.000000000               0.000000000               0.000000000               0.000000000               0.000011766               0.004996698               0.000021523              -0.000620173               0.001872274               0.001252100               0.000000000               0.000000000               0.000000000               0.000000000              -0.000007381               0.004979878               0.000007909              -0.000625251               0.001868360               0.001243109               0.000000000               0.000000000               0.000000000               0.000000000              -0.002723085               0.004153729               0.000929213              -0.001540369               0.001898019               0.000357649               0.000000000               0.000000000               0.000000000               0.000000000              -0.003768862               0.006090610               0.001321669              -0.002174644               0.002755064               0.000580420               0.000000000               0.000000000               0.000000000               0.000000000              -0.004711796               0.007960038               0.001505218              -0.002761922               0.003573960               0.000812038               0.000000000               0.000000000               0.000000000               0.000000000              -0.004422784               0.008318112               0.001315938              -0.002698302               0.003672110               0.000973808               0.000000000               0.000000000               0.000000000               0.000000000              -0.003841917               0.008176884               0.001123560              -0.002462823               0.003546542               0.001083718               0.000000000               0.000000000               0.000000000               0.000000000              -0.003190528               0.007847164               0.000967433              -0.002177338               0.003341474               0.001164136               0.000000000               0.000000000               0.000000000               0.000000000              -0.002540867               0.007439655               0.000837861              -0.001882777               0.003107453               0.001224675               0.000000000               0.000000000               0.000000000               0.000000000              -0.001928063               0.007017965               0.000726172              -0.001600265               0.002872720               0.001272455               0.000000000               0.000000000               0.000000000               0.000000000              -0.001374509               0.006618799               0.000623668              -0.001342788               0.002653840               0.001311053               0.000000000               0.000000000               0.000000000               0.000000000              -0.000900867               0.006258002               0.000530703              -0.001120073               0.002459337               0.001339265               0.000000000               0.000000000               0.000000000               0.000000000              -0.000521420               0.005944407               0.000445078              -0.000938581               0.002294310               0.001355728               0.000000000               0.000000000               0.000000000               0.000000000              -0.000233839               0.005671914               0.000355608              -0.000796677               0.002156178               0.001359501               0.000000000               0.000000000               0.000000000               0.000000000              -0.000035102               0.005441366               0.000263882              -0.000693332               0.002044881               0.001351549               0.000000000               0.000000000               0.000000000               0.000000000               0.000075657               0.005255710               0.000176891              -0.000628591               0.001961416               0.001332825               0.000000000               0.000000000               0.000000000               0.000000000               0.000103861               0.005119877               0.000097280              -0.000601035               0.001906954               0.001305919               0.000000000               0.000000000               0.000000000               0.000000000               0.000071290               0.005035777               0.000035562              -0.000602737               0.001879488               0.001276751               0.000000000               0.000000000               0.000000000               0.000000000               0.000030232               0.004994499               0.000005870              -0.000612974               0.001869141               0.001256167               0.000000000               0.000000000               0.000000000               0.000000000              -0.004628093               0.002335182               0.000020995              -0.002027429               0.001454194              -0.000573235               0.000000000               0.000000000               0.000000000               0.000000000              -0.004711640               0.004510970               0.001108301              -0.002330731               0.002280551              -0.000050180               0.000000000               0.000000000               0.000000000               0.000000000              -0.005084142               0.006600054               0.001916766              -0.002731554               0.003110513               0.000378960               0.000000000               0.000000000               0.000000000               0.000000000              -0.004657089               0.007340206               0.001882357              -0.002663928               0.003334686               0.000670758               0.000000000               0.000000000               0.000000000               0.000000000              -0.004030184               0.007519399               0.001692267              -0.002451238               0.003323520               0.000872282               0.000000000               0.000000000               0.000000000               0.000000000              -0.003366073               0.007437757               0.001499613              -0.002191992               0.003209891               0.001017899               0.000000000               0.000000000               0.000000000               0.000000000              -0.002709301               0.007228988               0.001323888              -0.001919607               0.003049507               0.001129900               0.000000000               0.000000000               0.000000000               0.000000000              -0.002084206               0.006964587               0.001164660              -0.001652147               0.002872221               0.001220074               0.000000000               0.000000000               0.000000000               0.000000000              -0.001508323               0.006682586               0.001018555              -0.001400941               0.002694487               0.001293545               0.000000000               0.000000000               0.000000000               0.000000000              -0.000993767               0.006397372               0.000887634              -0.001172331               0.002523213               0.001350882               0.000000000               0.000000000               0.000000000               0.000000000              -0.000554890               0.006121053               0.000767553              -0.000973213               0.002364735               0.001391522               0.000000000               0.000000000               0.000000000               0.000000000              -0.000200709               0.005857117               0.000643759              -0.000807404               0.002221487               0.001414084               0.000000000               0.000000000               0.000000000               0.000000000               0.000059690               0.005616246               0.000507088              -0.000679645               0.002098612               0.001418966               0.000000000               0.000000000               0.000000000               0.000000000               0.000220321               0.005405757               0.000361672              -0.000593098               0.001999600               0.001406502               0.000000000               0.000000000               0.000000000               0.000000000               0.000286008               0.005229410               0.000219103              -0.000546422               0.001925260               0.001378838               0.000000000               0.000000000               0.000000000               0.000000000               0.000264709               0.005093933               0.000095848              -0.000537475               0.001877119               0.001339644               0.000000000               0.000000000               0.000000000               0.000000000               0.000211593               0.005022853               0.000033784              -0.000548508               0.001857103               0.001308596               0.000000000               0.000000000               0.000000000               0.000000000              -0.006797268               0.000863967              -0.000760470              -0.002656969               0.001173637              -0.001483331               0.000000000               0.000000000               0.000000000               0.000000000              -0.005807379               0.003024095               0.000822864              -0.002555775               0.001859944              -0.000695831               0.000000000               0.000000000               0.000000000               0.000000000              -0.005394077               0.005052011               0.002119115              -0.002654275               0.002568744              -0.000085531               0.000000000               0.000000000               0.000000000               0.000000000              -0.004742716               0.006050021               0.002283045              -0.002534766               0.002861575               0.000326809               0.000000000               0.000000000               0.000000000               0.000000000              -0.004051654               0.006519987               0.002146722              -0.002334364               0.002951428               0.000617064               0.000000000               0.000000000               0.000000000               0.000000000              -0.003378266               0.006703993               0.001947860              -0.002104844               0.002936256               0.000831412               0.000000000               0.000000000               0.000000000               0.000000000              -0.002730248               0.006721860               0.001747457              -0.001864071               0.002861954               0.000997883               0.000000000               0.000000000               0.000000000               0.000000000              -0.002106760               0.006645893               0.001560360              -0.001620768               0.002755531               0.001134763               0.000000000               0.000000000               0.000000000               0.000000000              -0.001515669               0.006513342               0.001388660              -0.001382540               0.002631939               0.001249398               0.000000000               0.000000000               0.000000000               0.000000000              -0.000972762               0.006338505               0.001234739              -0.001157096               0.002498513               0.001341416               0.000000000               0.000000000               0.000000000               0.000000000              -0.000485798               0.006135239               0.001095478              -0.000949077               0.002361418               0.001412341               0.000000000               0.000000000               0.000000000               0.000000000              -0.000068901               0.005916459               0.000947003              -0.000765394               0.002227264               0.001461871               0.000000000               0.000000000               0.000000000               0.000000000               0.000264582               0.005699779               0.000774125              -0.000613253               0.002104325               0.001491072               0.000000000               0.000000000               0.000000000               0.000000000               0.000503799               0.005491191               0.000585812              -0.000497473               0.001996203               0.001498730               0.000000000               0.000000000               0.000000000               0.000000000               0.000643901               0.005300745               0.000388669              -0.000421129               0.001907274               0.001486145               0.000000000               0.000000000               0.000000000               0.000000000               0.000677049               0.005139431               0.000190908              -0.000388535               0.001842638               0.001454103               0.000000000               0.000000000               0.000000000               0.000000000               0.000641755               0.005052261               0.000087258              -0.000390874               0.001814361               0.001423488               0.000000000               0.000000000               0.000000000               0.000000000              -0.009068442              -0.000180687              -0.001301824              -0.003378077               0.001065789              -0.002312288               0.000000000               0.000000000               0.000000000               0.000000000              -0.006983135               0.001711491               0.000511792              -0.002832608               0.001514689              -0.001317919               0.000000000               0.000000000               0.000000000               0.000000000              -0.005670450               0.003444925               0.002080770              -0.002557030               0.002000638              -0.000556392               0.000000000               0.000000000               0.000000000               0.000000000              -0.004703076               0.004560429               0.002421000              -0.002333702               0.002298027              -0.000035675               0.000000000               0.000000000               0.000000000               0.000000000              -0.003912409               0.005255847               0.002370674              -0.002124130               0.002459974               0.000335844               0.000000000               0.000000000               0.000000000               0.000000000              -0.003218585               0.005684846               0.002200720              -0.001917571               0.002534119               0.000616548               0.000000000               0.000000000               0.000000000               0.000000000              -0.002579167               0.005929899               0.002004812              -0.001708421               0.002546086               0.000837665               0.000000000               0.000000000               0.000000000               0.000000000              -0.001967941               0.006050671               0.001815148              -0.001494309               0.002514973               0.001020664               0.000000000               0.000000000               0.000000000               0.000000000              -0.001377301               0.006084872               0.001636996              -0.001277094               0.002453968               0.001176874               0.000000000               0.000000000               0.000000000               0.000000000              -0.000818337               0.006049091               0.001477509              -0.001063011               0.002370680               0.001307669               0.000000000               0.000000000               0.000000000               0.000000000              -0.000299973               0.005959925               0.001332335              -0.000857479               0.002272448               0.001414969               0.000000000               0.000000000               0.000000000               0.000000000               0.000169192               0.005826351               0.001176350              -0.000664846               0.002163713               0.001498867               0.000000000               0.000000000               0.000000000               0.000000000               0.000584429               0.005664371               0.000996020              -0.000488885               0.002051066               0.001562182               0.000000000               0.000000000               0.000000000               0.000000000               0.000930244               0.005487617               0.000789751              -0.000337110               0.001941557               0.001604447               0.000000000               0.000000000               0.000000000               0.000000000               0.001189160               0.005314012               0.000556354              -0.000218316               0.001844092               0.001625775               0.000000000               0.000000000               0.000000000               0.000000000               0.001343370               0.005153805               0.000291529              -0.000140462               0.001764738               0.001624277               0.000000000               0.000000000               0.000000000               0.000000000               0.001388253               0.005073129               0.000150586              -0.000113546               0.001728875               0.001615329               0.000000000               0.000000000               0.000000000               0.000000000              -0.011233502              -0.000814943              -0.001493774              -0.004110693               0.001098575              -0.003012117               0.000000000               0.000000000               0.000000000               0.000000000              -0.008135821               0.000656949               0.000239567              -0.003133048               0.001263324              -0.001869725               0.000000000               0.000000000               0.000000000               0.000000000              -0.005922588               0.001947075               0.001798800              -0.002464352               0.001470465              -0.000993887               0.000000000               0.000000000               0.000000000               0.000000000              -0.004593254               0.003051343               0.002231437              -0.002103884               0.001718396              -0.000385488               0.000000000               0.000000000               0.000000000               0.000000000              -0.003662261               0.003886161               0.002262255              -0.001859114               0.001915078               0.000055963               0.000000000               0.000000000               0.000000000               0.000000000              -0.002925476               0.004502726               0.002147743              -0.001659891               0.002054190               0.000394299               0.000000000               0.000000000               0.000000000               0.000000000              -0.002284445               0.004947177               0.001988183              -0.001475061               0.002140729               0.000665668               0.000000000               0.000000000               0.000000000               0.000000000              -0.001687406               0.005256306               0.001824146              -0.001289813               0.002182022               0.000892208               0.000000000               0.000000000               0.000000000               0.000000000              -0.001111379               0.005460249               0.001663881              -0.001099296               0.002186497               0.001087200               0.000000000               0.000000000               0.000000000               0.000000000              -0.000553709               0.005580681               0.001514565              -0.000905224               0.002161950               0.001256725               0.000000000               0.000000000               0.000000000               0.000000000              -0.000020420               0.005625140               0.001377087              -0.000710799               0.002111961               0.001401162               0.000000000               0.000000000               0.000000000               0.000000000               0.000492389               0.005605581               0.001235132              -0.000516051               0.002040525               0.001524474               0.000000000               0.000000000               0.000000000               0.000000000               0.000986943               0.005534161               0.001072120              -0.000321666               0.001951924               0.001630257               0.000000000               0.000000000               0.000000000               0.000000000               0.001448804               0.005416334               0.000877048              -0.000133741               0.001850007               0.001716266               0.000000000               0.000000000               0.000000000               0.000000000               0.001865151               0.005278137               0.000642781               0.000039663               0.001746140               0.001785804               0.000000000               0.000000000               0.000000000               0.000000000               0.002218527               0.005139326               0.000351876               0.000189530               0.001649915               0.001839445               0.000000000               0.000000000               0.000000000               0.000000000               0.002424756               0.005089071               0.000199608               0.000273147               0.001605291               0.001878438               0.000000000               0.000000000               0.000000000               0.000000000              -0.013043348              -0.001128570              -0.001290938              -0.004750181               0.001207195              -0.003542986               0.000000000               0.000000000               0.000000000               0.000000000              -0.009131446              -0.000098155               0.000062795              -0.003412020               0.001104614              -0.002307406               0.000000000               0.000000000               0.000000000               0.000000000              -0.006142344               0.000731347               0.001314564              -0.002394795               0.001042040              -0.001352755               0.000000000               0.000000000               0.000000000               0.000000000              -0.004467459               0.001748625               0.001713135              -0.001893872               0.001214157              -0.000679716               0.000000000               0.000000000               0.000000000               0.000000000              -0.003381742               0.002643912               0.001784475              -0.001598639               0.001414173              -0.000184466               0.000000000               0.000000000               0.000000000               0.000000000              -0.002584040               0.003379561               0.001725987              -0.001391457               0.001590328               0.000198870               0.000000000               0.000000000               0.000000000               0.000000000              -0.001926080               0.003972568               0.001620387              -0.001218849               0.001730458               0.000511610               0.000000000               0.000000000               0.000000000               0.000000000              -0.001338118               0.004437837               0.001503851              -0.001056522               0.001831438               0.000774916               0.000000000               0.000000000               0.000000000               0.000000000              -0.000779462               0.004790029               0.001383725              -0.000891050               0.001893677               0.001002626               0.000000000               0.000000000               0.000000000               0.000000000              -0.000234908               0.005040894               0.001267581              -0.000718201               0.001919681               0.001201480               0.000000000               0.000000000               0.000000000               0.000000000               0.000307355               0.005204165               0.001159933              -0.000535262               0.001913125               0.001377863               0.000000000               0.000000000               0.000000000               0.000000000               0.000854861               0.005297129               0.001049359              -0.000341568               0.001879548               0.001537980               0.000000000               0.000000000               0.000000000               0.000000000               0.001409947               0.005324785               0.000920799              -0.000136868               0.001820533               0.001683665               0.000000000               0.000000000               0.000000000               0.000000000               0.001978935               0.005291987               0.000763849               0.000080601               0.001737111               0.001817712               0.000000000               0.000000000               0.000000000               0.000000000               0.002563236               0.005214201               0.000569937               0.000309435               0.001634905               0.001944340               0.000000000               0.000000000               0.000000000               0.000000000               0.003161789               0.005110504               0.000316632               0.000546852               0.001521200               0.002068053               0.000000000               0.000000000               0.000000000               0.000000000               0.003585135               0.005100411               0.000187834               0.000706867               0.001464498               0.002171365               0.000000000               0.000000000               0.000000000               0.000000000              -0.014246578              -0.001245707              -0.000744467              -0.005186750               0.001313672              -0.003873078               0.000000000               0.000000000               0.000000000               0.000000000              -0.009814154              -0.000541560              -0.000004622              -0.003612610               0.001023676              -0.002588934               0.000000000               0.000000000               0.000000000               0.000000000              -0.006303604              -0.000055926               0.000691747              -0.002356859               0.000766972              -0.001589887               0.000000000               0.000000000               0.000000000               0.000000000              -0.004375628               0.000863575               0.000930960              -0.001748805               0.000870787              -0.000878018               0.000000000               0.000000000               0.000000000               0.000000000              -0.003167369               0.001771117               0.000985820              -0.001409151               0.001060082              -0.000349069               0.000000000               0.000000000               0.000000000               0.000000000              -0.002312488               0.002565226               0.000965693              -0.001187834               0.001251011               0.000063177               0.000000000               0.000000000               0.000000000               0.000000000              -0.001633284               0.003242074               0.000914651              -0.001017739               0.001419927               0.000402188               0.000000000               0.000000000               0.000000000               0.000000000              -0.001043660               0.003807021               0.000853935              -0.000867248               0.001558077               0.000690829               0.000000000               0.000000000               0.000000000               0.000000000              -0.000494372               0.004261685               0.000788064              -0.000718099               0.001659914               0.000941815               0.000000000               0.000000000               0.000000000               0.000000000               0.000045425               0.004606513               0.000724305              -0.000558779               0.001721748               0.001162970               0.000000000               0.000000000               0.000000000               0.000000000               0.000589054               0.004850506               0.000668760              -0.000385417               0.001745291               0.001359874               0.000000000               0.000000000               0.000000000               0.000000000               0.001150622               0.005014459               0.000607590              -0.000195324               0.001736577               0.001541254               0.000000000               0.000000000               0.000000000               0.000000000               0.001744887               0.005112202               0.000533471               0.000015307               0.001698948               0.001714255               0.000000000               0.000000000               0.000000000               0.000000000               0.002392216               0.005157055               0.000443776               0.000252446               0.001634852               0.001887299               0.000000000               0.000000000               0.000000000               0.000000000               0.003106633               0.005146446               0.000332432               0.000521676               0.001541573               0.002063249               0.000000000               0.000000000               0.000000000               0.000000000               0.003904006               0.005083302               0.000186373               0.000828581               0.001418223               0.002246805               0.000000000               0.000000000               0.000000000               0.000000000               0.004510025               0.005107490               0.000114707               0.001052813               0.001351542               0.002404355               0.000000000               0.000000000               0.000000000               0.000000000              -0.014668732              -0.001271690               0.000000000              -0.005341810               0.001356698              -0.003985112               0.000000000               0.000000000               0.000000000               0.000000000              -0.010058982              -0.000687664              -0.000000000              -0.003686158               0.000999491              -0.002686667               0.000000000               0.000000000               0.000000000               0.000000000              -0.006365394              -0.000329873              -0.000000000              -0.002345787               0.000671967              -0.001673820               0.000000000               0.000000000               0.000000000               0.000000000              -0.004343562               0.000548879              -0.000000000              -0.001697444               0.000748769              -0.000948675               0.000000000               0.000000000               0.000000000               0.000000000              -0.003089144               0.001456234               0.000000000              -0.001340456               0.000932224              -0.000408232               0.000000000               0.000000000               0.000000000               0.000000000              -0.002208689               0.002267052              -0.000000000              -0.001111637               0.001126222               0.000014584               0.000000000               0.000000000               0.000000000               0.000000000              -0.001522380               0.002968287              -0.000000000              -0.000941926               0.001303394               0.000361468               0.000000000               0.000000000               0.000000000               0.000000000              -0.000929306               0.003566027              -0.000000000              -0.000794241               0.001453411               0.000659169               0.000000000               0.000000000               0.000000000               0.000000000              -0.000382789               0.004054562              -0.000000000              -0.000650365               0.001568295               0.000917931               0.000000000               0.000000000               0.000000000               0.000000000               0.000159065               0.004437315               0.000000000              -0.000495014               0.001644095               0.001149081               0.000000000               0.000000000               0.000000000               0.000000000               0.000703166               0.004717598               0.000000000              -0.000326012               0.001681187               0.001355176               0.000000000               0.000000000               0.000000000               0.000000000               0.001264743               0.004905353               0.000000000              -0.000138890               0.001681398               0.001542508               0.000000000               0.000000000               0.000000000               0.000000000               0.001872684               0.005021289              -0.000000000               0.000074594               0.001648881               0.001723476               0.000000000               0.000000000               0.000000000               0.000000000               0.002549364               0.005089672               0.000000000               0.000319799               0.001589940               0.001909740               0.000000000               0.000000000               0.000000000               0.000000000               0.003315312               0.005115672               0.000000000               0.000603777               0.001503948               0.002107725               0.000000000               0.000000000               0.000000000               0.000000000               0.004188866               0.005082385               0.000000000               0.000935517               0.001382272               0.002317789               0.000000000               0.000000000               0.000000000               0.000000000               0.004861621               0.005121076               0.000000000               0.001182961               0.001312688               0.002495649               0.000000000               0.000000000               0.000000000               0.000000000               0.002186570               0.023664968               0.000000000              -0.002138152               0.008600961               0.006462809               0.000000000               0.000000000               0.000000000               0.000000000               0.002055336               0.018145049               0.000000000              -0.001497377               0.006547415               0.005050038               0.000000000               0.000000000               0.000000000               0.000000000               0.002600735               0.013663463               0.000000000              -0.000732655               0.004798661               0.004066005               0.000000000               0.000000000               0.000000000               0.000000000               0.002364028               0.011135421               0.000000000              -0.000505416               0.003880242               0.003374826               0.000000000               0.000000000               0.000000000               0.000000000               0.001935535               0.009528806               0.000000000              -0.000465274               0.003331328               0.002866054               0.000000000               0.000000000               0.000000000               0.000000000               0.001501518               0.008393523              -0.000000000              -0.000486120               0.002959853               0.002473733               0.000000000               0.000000000               0.000000000               0.000000000               0.001123138               0.007520428              -0.000000000              -0.000518876               0.002679743               0.002160867               0.000000000               0.000000000               0.000000000               0.000000000               0.000805877               0.006783785              -0.000000000              -0.000545768               0.002443162               0.001897394               0.000000000               0.000000000               0.000000000               0.000000000               0.000555974               0.006117657               0.000000000              -0.000556216               0.002224604               0.001668388               0.000000000               0.000000000               0.000000000               0.000000000               0.000366536               0.005481146              -0.000000000              -0.000547691               0.002009594               0.001461903               0.000000000               0.000000000               0.000000000               0.000000000               0.000219036               0.004854263              -0.000000000              -0.000524643               0.001792952               0.001268309               0.000000000               0.000000000               0.000000000               0.000000000               0.000102480               0.004217996               0.000000000              -0.000488819               0.001568924               0.001080106               0.000000000               0.000000000               0.000000000               0.000000000               0.000018996               0.003562804              -0.000000000              -0.000438226               0.001333665               0.000895439               0.000000000               0.000000000               0.000000000               0.000000000              -0.000038837               0.002867595               0.000000000              -0.000373012               0.001080193               0.000707181               0.000000000               0.000000000               0.000000000               0.000000000              -0.000065298               0.002114509              -0.000000000              -0.000288800               0.000801096               0.000512296               0.000000000               0.000000000               0.000000000               0.000000000              -0.000045241               0.001270736              -0.000000000              -0.000175807               0.000482177               0.000306370               0.000000000               0.000000000               0.000000000               0.000000000              -0.000091968               0.000623021               0.000000000              -0.000112366               0.000245127               0.000132761               0.000000000               0.000000000               0.000000000               0.000000000               0.002249981               0.023147065              -0.001553811              -0.002049635               0.008398823               0.006349187               0.000000000               0.000000000               0.000000000               0.000000000               0.001990627               0.017817432              -0.000682751              -0.001480691               0.006432648               0.004951958               0.000000000               0.000000000               0.000000000               0.000000000               0.002397726               0.013533244               0.000175638              -0.000792506               0.004775205               0.003982699               0.000000000               0.000000000               0.000000000               0.000000000               0.002105743               0.011107546               0.000524436              -0.000598788               0.003902075               0.003303286               0.000000000               0.000000000               0.000000000               0.000000000               0.001667346               0.009554773               0.000654431              -0.000569091               0.003374589               0.002805499               0.000000000               0.000000000               0.000000000               0.000000000               0.001248011               0.008451354               0.000691643              -0.000588414               0.003013228               0.002424814               0.000000000               0.000000000               0.000000000               0.000000000               0.000891937               0.007591092               0.000686467              -0.000614409               0.002735141               0.002120733               0.000000000               0.000000000               0.000000000               0.000000000               0.000600135               0.006862301               0.000658413              -0.000632736               0.002498323               0.001865587               0.000000000               0.000000000               0.000000000               0.000000000               0.000375658               0.006200674               0.000618862              -0.000634211               0.002278274               0.001644063               0.000000000               0.000000000               0.000000000               0.000000000               0.000213107               0.005571177               0.000578287              -0.000616481               0.002062534               0.001446053               0.000000000               0.000000000               0.000000000               0.000000000               0.000091002               0.004951356               0.000539087              -0.000584793               0.001845366               0.001260574               0.000000000               0.000000000               0.000000000               0.000000000               0.000002140               0.004329078               0.000498637              -0.000540331               0.001623122               0.001082791               0.000000000               0.000000000               0.000000000               0.000000000              -0.000054235               0.003690725               0.000452850              -0.000481678               0.001390789               0.000909111               0.000000000               0.000000000               0.000000000               0.000000000              -0.000084668               0.003025197               0.000395480              -0.000409899               0.001145022               0.000735123               0.000000000               0.000000000               0.000000000               0.000000000              -0.000088046               0.002320008               0.000312352              -0.000323018               0.000881001               0.000557983               0.000000000               0.000000000               0.000000000               0.000000000              -0.000055918               0.001553682               0.000179957              -0.000215179               0.000589615               0.000374436               0.000000000               0.000000000               0.000000000               0.000000000              -0.000090816               0.000981005               0.000110219              -0.000156681               0.000379226               0.000222544               0.000000000               0.000000000               0.000000000               0.000000000               0.002394839               0.021674231              -0.002863699              -0.001811211               0.007828408               0.006017197               0.000000000               0.000000000               0.000000000               0.000000000               0.001778576               0.016891491              -0.001250959              -0.001444467               0.006111930               0.004667463               0.000000000               0.000000000               0.000000000               0.000000000               0.001812247               0.013171756               0.000321074              -0.000966874               0.004712833               0.003745959               0.000000000               0.000000000               0.000000000               0.000000000               0.001391494               0.011029424               0.000937059              -0.000856866               0.003962060               0.003105194               0.000000000               0.000000000               0.000000000               0.000000000               0.000938214               0.009623089               0.001158070              -0.000851054               0.003491349               0.002640295               0.000000000               0.000000000               0.000000000               0.000000000               0.000561597               0.008596233               0.001212329              -0.000863929               0.003153359               0.002289430               0.000000000               0.000000000               0.000000000               0.000000000               0.000269781               0.007772555               0.001192041              -0.000870400               0.002880959               0.002010559               0.000000000               0.000000000               0.000000000               0.000000000               0.000049787               0.007058466               0.001134645              -0.000863636               0.002640677               0.001777041               0.000000000               0.000000000               0.000000000               0.000000000              -0.000097507               0.006409659               0.001059737              -0.000837771               0.002415788               0.001578018               0.000000000               0.000000000               0.000000000               0.000000000              -0.000184889               0.005795285               0.000982178              -0.000793742               0.002196323               0.001402580               0.000000000               0.000000000               0.000000000               0.000000000              -0.000229859               0.005197282               0.000908216              -0.000735856               0.001977695               0.001241839               0.000000000               0.000000000               0.000000000               0.000000000              -0.000240502               0.004606734               0.000831972              -0.000666029               0.001757572               0.001091543               0.000000000               0.000000000               0.000000000               0.000000000              -0.000227077               0.004018352               0.000746617              -0.000587447               0.001535253               0.000947806               0.000000000               0.000000000               0.000000000               0.000000000              -0.000194138               0.003434496               0.000643826              -0.000502113               0.001312192               0.000810079               0.000000000               0.000000000               0.000000000               0.000000000              -0.000144953               0.002852155               0.000498697              -0.000410876               0.001087667               0.000676791               0.000000000               0.000000000               0.000000000               0.000000000              -0.000081455               0.002273001               0.000282323              -0.000314670               0.000862549               0.000547879               0.000000000               0.000000000               0.000000000               0.000000000              -0.000085183               0.001878692               0.000167535              -0.000266780               0.000715151               0.000448371               0.000000000               0.000000000               0.000000000               0.000000000               0.002492641               0.019454094              -0.003750265              -0.001497020               0.006983639               0.005486619               0.000000000               0.000000000               0.000000000               0.000000000               0.001382492               0.015518111              -0.001629209              -0.001421327               0.005646427               0.004225101               0.000000000               0.000000000               0.000000000               0.000000000               0.000904655               0.012642358               0.000405893              -0.001241046               0.004627759               0.003386713               0.000000000               0.000000000               0.000000000               0.000000000               0.000352893               0.010901700               0.001153748              -0.001230375               0.004043989               0.002813614               0.000000000               0.000000000               0.000000000               0.000000000              -0.000076875               0.009689823               0.001398785              -0.001240053               0.003643260               0.002403206               0.000000000               0.000000000               0.000000000               0.000000000              -0.000369115               0.008755789               0.001442253              -0.001232889               0.003329530               0.002096641               0.000000000               0.000000000               0.000000000               0.000000000              -0.000553682               0.007974436               0.001398369              -0.001204433               0.003059596               0.001855163               0.000000000               0.000000000               0.000000000               0.000000000              -0.000654249               0.007281607               0.001316974              -0.001155542               0.002812358               0.001656817               0.000000000               0.000000000               0.000000000               0.000000000              -0.000684512               0.006647748               0.001218623              -0.001087658               0.002578447               0.001490788               0.000000000               0.000000000               0.000000000               0.000000000              -0.000664607               0.006052923               0.001116188              -0.001005841               0.002352901               0.001347060               0.000000000               0.000000000               0.000000000               0.000000000              -0.000603580               0.005485646               0.001017084              -0.000912046               0.002132546               0.001220499               0.000000000               0.000000000               0.000000000               0.000000000              -0.000515170               0.004940985               0.000917271              -0.000810810               0.001917249               0.001106438               0.000000000               0.000000000               0.000000000               0.000000000              -0.000416441               0.004429030               0.000810462              -0.000709792               0.001712926               0.001003134               0.000000000               0.000000000               0.000000000               0.000000000              -0.000315226               0.003955560               0.000681933              -0.000612653               0.001522725               0.000910071               0.000000000               0.000000000               0.000000000               0.000000000              -0.000209512               0.003528629               0.000508378              -0.000519645               0.001349413               0.000829768               0.000000000               0.000000000               0.000000000               0.000000000              -0.000104211               0.003169070               0.000276609              -0.000435212               0.001201417               0.000766205               0.000000000               0.000000000               0.000000000               0.000000000              -0.000069926               0.002967606               0.000154659              -0.000397172               0.001121583               0.000724411               0.000000000               0.000000000               0.000000000               0.000000000               0.002391988               0.016749543              -0.004135450              -0.001196698               0.005982024               0.004785326               0.000000000               0.000000000               0.000000000               0.000000000               0.000782475               0.013886709              -0.001806795              -0.001442408               0.005109659               0.003667251               0.000000000               0.000000000               0.000000000               0.000000000              -0.000217022               0.012010883               0.000386426              -0.001582740               0.004531167               0.002948428               0.000000000               0.000000000               0.000000000               0.000000000              -0.000836148               0.010704407               0.001125264              -0.001651603               0.004118634               0.002467031               0.000000000               0.000000000               0.000000000               0.000000000              -0.001173366               0.009686052               0.001340235              -0.001650765               0.003778907               0.002128142               0.000000000               0.000000000               0.000000000               0.000000000              -0.001324090               0.008839820               0.001358254              -0.001601508               0.003480413               0.001878905               0.000000000               0.000000000               0.000000000               0.000000000              -0.001354505               0.008098868               0.001298049              -0.001520295               0.003206360               0.001686066               0.000000000               0.000000000               0.000000000               0.000000000              -0.001302660               0.007430710               0.001205918              -0.001417333               0.002949323               0.001531990               0.000000000               0.000000000               0.000000000               0.000000000              -0.001195565               0.006812842               0.001101293              -0.001299939               0.002704237               0.001404298               0.000000000               0.000000000               0.000000000               0.000000000              -0.001048977               0.006241059               0.000993717              -0.001173496               0.002471497               0.001298001               0.000000000               0.000000000               0.000000000               0.000000000              -0.000878056               0.005708939               0.000888212              -0.001042886               0.002250589               0.001207703               0.000000000               0.000000000               0.000000000               0.000000000              -0.000698269               0.005229119               0.000783909              -0.000915489               0.002048185               0.001132696               0.000000000               0.000000000               0.000000000               0.000000000              -0.000529521               0.004805524               0.000675497              -0.000799259               0.001868245               0.001068986               0.000000000               0.000000000               0.000000000               0.000000000              -0.000373731               0.004445817               0.000547719              -0.000695875               0.001713882               0.001018008               0.000000000               0.000000000               0.000000000               0.000000000              -0.000229539               0.004162265               0.000386872              -0.000606359               0.001589527               0.000983168               0.000000000               0.000000000               0.000000000               0.000000000              -0.000105904               0.003974541               0.000198283              -0.000536530               0.001503677               0.000967147               0.000000000               0.000000000               0.000000000               0.000000000              -0.000053104               0.003902762               0.000101651              -0.000507758               0.001470160               0.000962402               0.000000000               0.000000000               0.000000000               0.000000000               0.001979215               0.013840258              -0.004035760              -0.000987827               0.004942648               0.003954821               0.000000000               0.000000000               0.000000000               0.000000000              -0.000005219               0.012172822              -0.001825840              -0.001523557               0.004565419               0.003041862               0.000000000               0.000000000               0.000000000               0.000000000              -0.001414125               0.011326357               0.000222847              -0.001946087               0.004424110               0.002478023               0.000000000               0.000000000               0.000000000               0.000000000              -0.001989464               0.010419886               0.000856869              -0.002048530               0.004156104               0.002107574               0.000000000               0.000000000               0.000000000               0.000000000              -0.002157094               0.009570114               0.001023332              -0.002005170               0.003858396               0.001853226               0.000000000               0.000000000               0.000000000               0.000000000              -0.002120145               0.008797616               0.001027423              -0.001894752               0.003564093               0.001669341               0.000000000               0.000000000               0.000000000               0.000000000              -0.001970014               0.008095845               0.000970645              -0.001750732               0.003282165               0.001531433               0.000000000               0.000000000               0.000000000               0.000000000              -0.001756690               0.007448464               0.000889469              -0.001589813               0.003012734               0.001422921               0.000000000               0.000000000               0.000000000               0.000000000              -0.001510938               0.006848969               0.000799767              -0.001422720               0.002757207               0.001334487               0.000000000               0.000000000               0.000000000               0.000000000              -0.001246627               0.006303130               0.000706085              -0.001255373               0.002519480               0.001264107               0.000000000               0.000000000               0.000000000               0.000000000              -0.000985630               0.005821230               0.000615823              -0.001097262               0.002306145               0.001208882               0.000000000               0.000000000               0.000000000               0.000000000              -0.000744178               0.005413502               0.000528535              -0.000955752               0.002123067               0.001167314               0.000000000               0.000000000               0.000000000               0.000000000              -0.000529548               0.005077642               0.000436644              -0.000833284               0.001970292               0.001137008               0.000000000               0.000000000               0.000000000               0.000000000              -0.000344261               0.004813235               0.000333911              -0.000730750               0.001847979               0.001117229               0.000000000               0.000000000               0.000000000               0.000000000              -0.000193767               0.004625854               0.000215101              -0.000650893               0.001758900               0.001108007               0.000000000               0.000000000               0.000000000               0.000000000              -0.000081620               0.004525008               0.000097208              -0.000596232               0.001707065               0.001110833               0.000000000               0.000000000               0.000000000               0.000000000              -0.000034850               0.004501309               0.000042771              -0.000575731               0.001692332               0.001116601               0.000000000               0.000000000               0.000000000               0.000000000               0.001192809               0.010981229              -0.003545629              -0.000925351               0.003968823               0.003043472               0.000000000               0.000000000               0.000000000               0.000000000              -0.000933943               0.010510842              -0.001745493              -0.001664081               0.004058272               0.002394191               0.000000000               0.000000000               0.000000000               0.000000000              -0.002546480               0.010613355              -0.000081873              -0.002281594               0.004298281               0.002016687               0.000000000               0.000000000               0.000000000               0.000000000              -0.002958867               0.010037218               0.000408323              -0.002364221               0.004133780               0.001769558               0.000000000               0.000000000               0.000000000               0.000000000              -0.002903507               0.009326517               0.000540459              -0.002254624               0.003860349               0.001605725               0.000000000               0.000000000               0.000000000               0.000000000              -0.002657466               0.008623479               0.000555289              -0.002074480               0.003565957               0.001491478               0.000000000               0.000000000               0.000000000               0.000000000              -0.002323021               0.007960270               0.000525755              -0.001866162               0.003275451               0.001409289               0.000000000               0.000000000               0.000000000               0.000000000              -0.001957592               0.007335730               0.000477111              -0.001651059               0.002995572               0.001344512               0.000000000               0.000000000               0.000000000               0.000000000              -0.001595026               0.006762415               0.000420760              -0.001443433               0.002735260               0.001291827               0.000000000               0.000000000               0.000000000               0.000000000              -0.001243611               0.006260432               0.000362729              -0.001248905               0.002503091               0.001254186               0.000000000               0.000000000               0.000000000               0.000000000              -0.000924171               0.005841366               0.000307903              -0.001076732               0.002306013               0.001229281               0.000000000               0.000000000               0.000000000               0.000000000              -0.000656412               0.005499804               0.000255334              -0.000933628               0.002144459               0.001210831               0.000000000               0.000000000               0.000000000               0.000000000              -0.000434259               0.005231540               0.000198157              -0.000816788               0.002016092               0.001199304               0.000000000               0.000000000               0.000000000               0.000000000              -0.000254500               0.005030524               0.000136643              -0.000724251               0.001918242               0.001193990               0.000000000               0.000000000               0.000000000               0.000000000              -0.000127196               0.004894966               0.000073682              -0.000659568               0.001851495               0.001191927               0.000000000               0.000000000               0.000000000               0.000000000              -0.000049404               0.004826565               0.000024467              -0.000621846               0.001816121               0.001194275               0.000000000               0.000000000               0.000000000               0.000000000              -0.000022601               0.004809042               0.000007788              -0.000609604               0.001806199               0.001196595               0.000000000               0.000000000               0.000000000               0.000000000               0.000079230               0.008361378              -0.002786349              -0.001015461               0.003125584               0.002110124               0.000000000               0.000000000               0.000000000               0.000000000              -0.001947521               0.009000166              -0.001614679              -0.001855337               0.003618471               0.001763133               0.000000000               0.000000000               0.000000000               0.000000000              -0.003505961               0.009868163              -0.000500087              -0.002548250               0.004138771               0.001590522               0.000000000               0.000000000               0.000000000               0.000000000              -0.003651592               0.009548034              -0.000140942              -0.002562845               0.004036928               0.001474083               0.000000000               0.000000000               0.000000000               0.000000000              -0.003350447               0.008962789              -0.000008361              -0.002376760               0.003779820               0.001403059               0.000000000               0.000000000               0.000000000               0.000000000              -0.002903992               0.008332624               0.000042904              -0.002130570               0.003487704               0.001357134               0.000000000               0.000000000               0.000000000               0.000000000              -0.002410413               0.007710378               0.000060696              -0.001867698               0.003192666               0.001324969               0.000000000               0.000000000               0.000000000               0.000000000              -0.001919106               0.007122828               0.000060021              -0.001610014               0.002910924               0.001300909               0.000000000               0.000000000               0.000000000               0.000000000              -0.001462765               0.006596662               0.000053628              -0.001373116               0.002656571               0.001283455               0.000000000               0.000000000               0.000000000               0.000000000              -0.001061372               0.006148486               0.000045512              -0.001166572               0.002438332               0.001271760               0.000000000               0.000000000               0.000000000               0.000000000              -0.000727227               0.005782441               0.000037787              -0.000995513               0.002259299               0.001263786               0.000000000               0.000000000               0.000000000               0.000000000              -0.000465430               0.005491359               0.000031643              -0.000860954               0.002117419               0.001256465               0.000000000               0.000000000               0.000000000               0.000000000              -0.000266363               0.005266912               0.000021910              -0.000758248               0.002008369               0.001250121               0.000000000               0.000000000               0.000000000               0.000000000              -0.000125084               0.005106642               0.000008324              -0.000685235               0.001930609               0.001245374               0.000000000               0.000000000               0.000000000               0.000000000              -0.000047710               0.005004626              -0.000005363              -0.000643468               0.001882681               0.001239213               0.000000000               0.000000000               0.000000000               0.000000000              -0.000018665               0.004952578              -0.000009380              -0.000626070               0.001859533               0.001233463               0.000000000               0.000000000               0.000000000               0.000000000              -0.000014094               0.004936206              -0.000006111              -0.000622309               0.001852822               0.001230513               0.000000000               0.000000000               0.000000000               0.000000000              -0.001221048               0.006171381              -0.001876816              -0.001229314               0.002466877               0.001237564               0.000000000               0.000000000               0.000000000               0.000000000              -0.002936349               0.007654988              -0.001473684              -0.002058000               0.003237637               0.001179637               0.000000000               0.000000000               0.000000000               0.000000000              -0.004257238               0.009106759              -0.000992931              -0.002734802               0.003947157               0.001212354               0.000000000               0.000000000               0.000000000               0.000000000              -0.004123056               0.009057181              -0.000716860              -0.002678287               0.003911792               0.001233505               0.000000000               0.000000000               0.000000000               0.000000000              -0.003620495               0.008628553              -0.000555215              -0.002436249               0.003688238               0.001251990               0.000000000               0.000000000               0.000000000               0.000000000              -0.003016514               0.008094171              -0.000452022              -0.002142959               0.003412349               0.001269391               0.000000000               0.000000000               0.000000000               0.000000000              -0.002402487               0.007531753              -0.000377513              -0.001842397               0.003124692               0.001282295               0.000000000               0.000000000               0.000000000               0.000000000              -0.001818356               0.006994982              -0.000321473              -0.001556252               0.002850388               0.001294136               0.000000000               0.000000000               0.000000000               0.000000000              -0.001292922               0.006517054              -0.000273218              -0.001299474               0.002605488               0.001306013               0.000000000               0.000000000               0.000000000               0.000000000              -0.000858587               0.006107510              -0.000229698              -0.001085406               0.002397618               0.001312212               0.000000000               0.000000000               0.000000000               0.000000000              -0.000516657               0.005774554              -0.000189015              -0.000915564               0.002230020               0.001314456               0.000000000               0.000000000               0.000000000               0.000000000              -0.000259915               0.005506310              -0.000145372              -0.000785755               0.002097336               0.001311582               0.000000000               0.000000000               0.000000000               0.000000000              -0.000087723               0.005293503              -0.000103610              -0.000694582               0.001996011               0.001301428               0.000000000               0.000000000               0.000000000               0.000000000               0.000006355               0.005141008              -0.000070050              -0.000640241               0.001927066               0.001286825               0.000000000               0.000000000               0.000000000               0.000000000               0.000030156               0.005044132              -0.000044386              -0.000619206               0.001887763               0.001268556               0.000000000               0.000000000               0.000000000               0.000000000               0.000011766               0.004996698              -0.000021523              -0.000620173               0.001872274               0.001252100               0.000000000               0.000000000               0.000000000               0.000000000              -0.000007381               0.004979878              -0.000007909              -0.000625251               0.001868360               0.001243109               0.000000000               0.000000000               0.000000000               0.000000000              -0.002723085               0.004153729              -0.000929213              -0.001540369               0.001898019               0.000357649               0.000000000               0.000000000               0.000000000               0.000000000              -0.003768862               0.006090610              -0.001321669              -0.002174644               0.002755064               0.000580420               0.000000000               0.000000000               0.000000000               0.000000000              -0.004711796               0.007960038              -0.001505218              -0.002761922               0.003573960               0.000812038               0.000000000               0.000000000               0.000000000               0.000000000              -0.004422784               0.008318112              -0.001315938              -0.002698302               0.003672110               0.000973808               0.000000000               0.000000000               0.000000000               0.000000000              -0.003841917               0.008176884              -0.001123560              -0.002462823               0.003546542               0.001083718               0.000000000               0.000000000               0.000000000               0.000000000              -0.003190528               0.007847164              -0.000967433              -0.002177338               0.003341474               0.001164136               0.000000000               0.000000000               0.000000000               0.000000000              -0.002540867               0.007439655              -0.000837861              -0.001882777               0.003107453               0.001224675               0.000000000               0.000000000               0.000000000               0.000000000              -0.001928063               0.007017965              -0.000726172              -0.001600265               0.002872720               0.001272455               0.000000000               0.000000000               0.000000000               0.000000000              -0.001374509               0.006618799              -0.000623668              -0.001342788               0.002653840               0.001311053               0.000000000               0.000000000               0.000000000               0.000000000              -0.000900867               0.006258002              -0.000530703              -0.001120073               0.002459337               0.001339265               0.000000000               0.000000000               0.000000000               0.000000000              -0.000521420               0.005944407              -0.000445078              -0.000938581               0.002294310               0.001355728               0.000000000               0.000000000               0.000000000               0.000000000              -0.000233839               0.005671914              -0.000355608              -0.000796677               0.002156178               0.001359501               0.000000000               0.000000000               0.000000000               0.000000000              -0.000035102               0.005441366              -0.000263882              -0.000693332               0.002044881               0.001351549               0.000000000               0.000000000               0.000000000               0.000000000               0.000075657               0.005255710              -0.000176891              -0.000628591               0.001961416               0.001332825               0.000000000               0.000000000               0.000000000               0.000000000               0.000103861               0.005119877              -0.000097280              -0.000601035               0.001906954               0.001305919               0.000000000               0.000000000               0.000000000               0.000000000               0.000071290               0.005035777              -0.000035562              -0.000602737               0.001879488               0.001276751               0.000000000               0.000000000               0.000000000               0.000000000               0.000030232               0.004994499              -0.000005870              -0.000612974               0.001869141               0.001256167               0.000000000               0.000000000               0.000000000               0.000000000              -0.004628093               0.002335182              -0.000020995              -0.002027429               0.001454194              -0.000573235               0.000000000               0.000000000               0.000000000               0.000000000              -0.004711640               0.004510970              -0.001108301              -0.002330731               0.002280551              -0.000050180               0.000000000               0.000000000               0.000000000               0.000000000              -0.005084142               0.006600054              -0.001916766              -0.002731554               0.003110513               0.000378960               0.000000000               0.000000000               0.000000000               0.000000000              -0.004657089               0.007340206              -0.001882357              -0.002663928               0.003334686               0.000670758               0.000000000               0.000000000               0.000000000               0.000000000              -0.004030184               0.007519399              -0.001692267              -0.002451238               0.003323520               0.000872282               0.000000000               0.000000000               0.000000000               0.000000000              -0.003366073               0.007437757              -0.001499613              -0.002191992               0.003209891               0.001017899               0.000000000               0.000000000               0.000000000               0.000000000              -0.002709301               0.007228988              -0.001323888              -0.001919607               0.003049507               0.001129900               0.000000000               0.000000000               0.000000000               0.000000000              -0.002084206               0.006964587              -0.001164660              -0.001652147               0.002872221               0.001220074               0.000000000               0.000000000               0.000000000               0.000000000              -0.001508323               0.006682586              -0.001018555              -0.001400941               0.002694487               0.001293545               0.000000000               0.000000000               0.000000000               0.000000000              -0.000993767               0.006397372              -0.000887634              -0.001172331               0.002523213               0.001350882               0.000000000               0.000000000               0.000000000               0.000000000              -0.000554890               0.006121053              -0.000767553              -0.000973213               0.002364735               0.001391522               0.000000000               0.000000000               0.000000000               0.000000000              -0.000200709               0.005857117              -0.000643759              -0.000807404               0.002221487               0.001414084               0.000000000               0.000000000               0.000000000               0.000000000               0.000059690               0.005616246              -0.000507088              -0.000679645               0.002098612               0.001418966               0.000000000               0.000000000               0.000000000               0.000000000               0.000220321               0.005405757              -0.000361672              -0.000593098               0.001999600               0.001406502               0.000000000               0.000000000               0.000000000               0.000000000               0.000286008               0.005229410              -0.000219103              -0.000546422               0.001925260               0.001378838               0.000000000               0.000000000               0.000000000               0.000000000               0.000264709               0.005093933              -0.000095848              -0.000537475               0.001877119               0.001339644               0.000000000               0.000000000               0.000000000               0.000000000               0.000211593               0.005022853              -0.000033784              -0.000548508               0.001857103               0.001308596               0.000000000               0.000000000               0.000000000               0.000000000              -0.006797268               0.000863967               0.000760470              -0.002656969               0.001173637              -0.001483331               0.000000000               0.000000000               0.000000000               0.000000000              -0.005807379               0.003024095              -0.000822864              -0.002555775               0.001859944              -0.000695831               0.000000000               0.000000000               0.000000000               0.000000000              -0.005394077               0.005052011              -0.002119115              -0.002654275               0.002568744              -0.000085531               0.000000000               0.000000000               0.000000000               0.000000000              -0.004742716               0.006050021              -0.002283045              -0.002534766               0.002861575               0.000326809               0.000000000               0.000000000               0.000000000               0.000000000              -0.004051654               0.006519987              -0.002146722              -0.002334364               0.002951428               0.000617064               0.000000000               0.000000000               0.000000000               0.000000000              -0.003378266               0.006703993              -0.001947860              -0.002104844               0.002936256               0.000831412               0.000000000               0.000000000               0.000000000               0.000000000              -0.002730248               0.006721860              -0.001747457              -0.001864071               0.002861954               0.000997883               0.000000000               0.000000000               0.000000000               0.000000000              -0.002106760               0.006645893              -0.001560360              -0.001620768               0.002755531               0.001134763               0.000000000               0.000000000               0.000000000               0.000000000              -0.001515669               0.006513342              -0.001388660              -0.001382540               0.002631939               0.001249398               0.000000000               0.000000000               0.000000000               0.000000000              -0.000972762               0.006338505              -0.001234739              -0.001157096               0.002498513               0.001341416               0.000000000               0.000000000               0.000000000               0.000000000              -0.000485798               0.006135239              -0.001095478              -0.000949077               0.002361418               0.001412341               0.000000000               0.000000000               0.000000000               0.000000000              -0.000068901               0.005916459              -0.000947003              -0.000765394               0.002227264               0.001461871               0.000000000               0.000000000               0.000000000               0.000000000               0.000264582               0.005699779              -0.000774125              -0.000613253               0.002104325               0.001491072               0.000000000               0.000000000               0.000000000               0.000000000               0.000503799               0.005491191              -0.000585812              -0.000497473               0.001996203               0.001498730               0.000000000               0.000000000               0.000000000               0.000000000               0.000643901               0.005300745              -0.000388669              -0.000421129               0.001907274               0.001486145               0.000000000               0.000000000               0.000000000               0.000000000               0.000677049               0.005139431              -0.000190908              -0.000388535               0.001842638               0.001454103               0.000000000               0.000000000               0.000000000               0.000000000               0.000641755               0.005052261              -0.000087258              -0.000390874               0.001814361               0.001423488               0.000000000               0.000000000               0.000000000               0.000000000              -0.009068442              -0.000180687               0.001301824              -0.003378077               0.001065789              -0.002312288               0.000000000               0.000000000               0.000000000               0.000000000              -0.006983135               0.001711491              -0.000511792              -0.002832608               0.001514689              -0.001317919               0.000000000               0.000000000               0.000000000               0.000000000              -0.005670450               0.003444925              -0.002080770              -0.002557030               0.002000638              -0.000556392               0.000000000               0.000000000               0.000000000               0.000000000              -0.004703076               0.004560429              -0.002421000              -0.002333702               0.002298027              -0.000035675               0.000000000               0.000000000               0.000000000               0.000000000              -0.003912409               0.005255847              -0.002370674              -0.002124130               0.002459974               0.000335844               0.000000000               0.000000000               0.000000000               0.000000000              -0.003218585               0.005684846              -0.002200720              -0.001917571               0.002534119               0.000616548               0.000000000               0.000000000               0.000000000               0.000000000              -0.002579167               0.005929899              -0.002004812              -0.001708421               0.002546086               0.000837665               0.000000000               0.000000000               0.000000000               0.000000000              -0.001967941               0.006050671              -0.001815148              -0.001494309               0.002514973               0.001020664               0.000000000               0.000000000               0.000000000               0.000000000              -0.001377301               0.006084872              -0.001636996              -0.001277094               0.002453968               0.001176874               0.000000000               0.000000000               0.000000000               0.000000000              -0.000818337               0.006049091              -0.001477509              -0.001063011               0.002370680               0.001307669               0.000000000               0.000000000               0.000000000               0.000000000              -0.000299973               0.005959925              -0.001332335              -0.000857479               0.002272448               0.001414969               0.000000000               0.000000000               0.000000000               0.000000000               0.000169192               0.005826351              -0.001176350              -0.000664846               0.002163713               0.001498867               0.000000000               0.000000000               0.000000000               0.000000000               0.000584429               0.005664371              -0.000996020              -0.000488885               0.002051066               0.001562182               0.000000000               0.000000000               0.000000000               0.000000000               0.000930244               0.005487617              -0.000789751              -0.000337110               0.001941557               0.001604447               0.000000000               0.000000000               0.000000000               0.000000000               0.001189160               0.005314012              -0.000556354              -0.000218316               0.001844092               0.001625775               0.000000000               0.000000000               0.000000000               0.000000000               0.001343370               0.005153805              -0.000291529              -0.000140462               0.001764738               0.001624277               0.000000000               0.000000000               0.000000000               0.000000000               0.001388253               0.005073129              -0.000150586              -0.000113546               0.001728875               0.001615329               0.000000000               0.000000000               0.000000000               0.000000000              -0.011233502              -0.000814943               0.001493774              -0.004110693               0.001098575              -0.003012117               0.000000000               0.000000000               0.000000000               0.000000000              -0.008135821               0.000656949              -0.000239567              -0.003133048               0.001263324              -0.001869725               0.000000000               0.000000000               0.000000000               0.000000000              -0.005922588               0.001947075              -0.001798800              -0.002464352               0.001470465              -0.000993887               0.000000000               0.000000000               0.000000000               0.000000000              -0.004593254               0.003051343              -0.002231437              -0.002103884               0.001718396              -0.000385488               0.000000000               0.000000000               0.000000000               0.000000000              -0.003662261               0.003886161              -0.002262255              -0.001859114               0.001915078               0.000055963               0.000000000               0.000000000               0.000000000               0.000000000              -0.002925476               0.004502726              -0.002147743              -0.001659891               0.002054190               0.000394299               0.000000000               0.000000000               0.000000000               0.000000000              -0.002284445               0.004947177              -0.001988183              -0.001475061               0.002140729               0.000665668               0.000000000               0.000000000               0.000000000               0.000000000              -0.001687406               0.005256306              -0.001824146              -0.001289813               0.002182022               0.000892208               0.000000000               0.000000000               0.000000000               0.000000000              -0.001111379               0.005460249              -0.001663881              -0.001099296               0.002186497               0.001087200               0.000000000               0.000000000               0.000000000               0.000000000              -0.000553709               0.005580681              -0.001514565              -0.000905224               0.002161950               0.001256725               0.000000000               0.000000000               0.000000000               0.000000000              -0.000020420               0.005625140              -0.001377087              -0.000710799               0.002111961               0.001401162               0.000000000               0.000000000               0.000000000               0.000000000               0.000492389               0.005605581              -0.001235132              -0.000516051               0.002040525               0.001524474               0.000000000               0.000000000               0.000000000               0.000000000               0.000986943               0.005534161              -0.001072120              -0.000321666               0.001951924               0.001630257               0.000000000               0.000000000               0.000000000               0.000000000               0.001448804               0.005416334              -0.000877048              -0.000133741               0.001850007               0.001716266               0.000000000               0.000000000               0.000000000               0.000000000               0.001865151               0.005278137              -0.000642781               0.000039663               0.001746140               0.001785804               0.000000000               0.000000000               0.000000000               0.000000000               0.002218527               0.005139326              -0.000351876               0.000189530               0.001649915               0.001839445               0.000000000               0.000000000               0.000000000               0.000000000               0.002424756               0.005089071              -0.000199608               0.000273147               0.001605291               0.001878438               0.000000000               0.000000000               0.000000000               0.000000000              -0.013043348              -0.001128570               0.001290938              -0.004750181               0.001207195              -0.003542986               0.000000000               0.000000000               0.000000000               0.000000000              -0.009131446              -0.000098155              -0.000062795              -0.003412020               0.001104614              -0.002307406               0.000000000               0.000000000               0.000000000               0.000000000              -0.006142344               0.000731347              -0.001314564              -0.002394795               0.001042040              -0.001352755               0.000000000               0.000000000               0.000000000               0.000000000              -0.004467459               0.001748625              -0.001713135              -0.001893872               0.001214157              -0.000679716               0.000000000               0.000000000               0.000000000               0.000000000              -0.003381742               0.002643912              -0.001784475              -0.001598639               0.001414173              -0.000184466               0.000000000               0.000000000               0.000000000               0.000000000              -0.002584040               0.003379561              -0.001725987              -0.001391457               0.001590328               0.000198870               0.000000000               0.000000000               0.000000000               0.000000000              -0.001926080               0.003972568              -0.001620387              -0.001218849               0.001730458               0.000511610               0.000000000               0.000000000               0.000000000               0.000000000              -0.001338118               0.004437837              -0.001503851              -0.001056522               0.001831438               0.000774916               0.000000000               0.000000000               0.000000000               0.000000000              -0.000779462               0.004790029              -0.001383725              -0.000891050               0.001893677               0.001002626               0.000000000               0.000000000               0.000000000               0.000000000              -0.000234908               0.005040894              -0.001267581              -0.000718201               0.001919681               0.001201480               0.000000000               0.000000000               0.000000000               0.000000000               0.000307355               0.005204165              -0.001159933              -0.000535262               0.001913125               0.001377863               0.000000000               0.000000000               0.000000000               0.000000000               0.000854861               0.005297129              -0.001049359              -0.000341568               0.001879548               0.001537980               0.000000000               0.000000000               0.000000000               0.000000000               0.001409947               0.005324785              -0.000920799              -0.000136868               0.001820533               0.001683665               0.000000000               0.000000000               0.000000000               0.000000000               0.001978935               0.005291987              -0.000763849               0.000080601               0.001737111               0.001817712               0.000000000               0.000000000               0.000000000               0.000000000               0.002563236               0.005214201              -0.000569937               0.000309435               0.001634905               0.001944340               0.000000000               0.000000000               0.000000000               0.000000000               0.003161789               0.005110504              -0.000316632               0.000546852               0.001521200               0.002068053               0.000000000               0.000000000               0.000000000               0.000000000               0.003585135               0.005100411              -0.000187834               0.000706867               0.001464498               0.002171365               0.000000000               0.000000000               0.000000000               0.000000000              -0.014246578              -0.001245707               0.000744467              -0.005186750               0.001313672              -0.003873078               0.000000000               0.000000000               0.000000000               0.000000000              -0.009814154              -0.000541560               0.000004622              -0.003612610               0.001023676              -0.002588934               0.000000000               0.000000000               0.000000000               0.000000000              -0.006303604              -0.000055926              -0.000691747              -0.002356859               0.000766972              -0.001589887               0.000000000               0.000000000               0.000000000               0.000000000              -0.004375628               0.000863575              -0.000930960              -0.001748805               0.000870787              -0.000878018               0.000000000               0.000000000               0.000000000               0.000000000              -0.003167369               0.001771117              -0.000985820              -0.001409151               0.001060082              -0.000349069               0.000000000               0.000000000               0.000000000               0.000000000              -0.002312488               0.002565226              -0.000965693              -0.001187834               0.001251011               0.000063177               0.000000000               0.000000000               0.000000000               0.000000000              -0.001633284               0.003242074              -0.000914651              -0.001017739               0.001419927               0.000402188               0.000000000               0.000000000               0.000000000               0.000000000              -0.001043660               0.003807021              -0.000853935              -0.000867248               0.001558077               0.000690829               0.000000000               0.000000000               0.000000000               0.000000000              -0.000494372               0.004261685              -0.000788064              -0.000718099               0.001659914               0.000941815               0.000000000               0.000000000               0.000000000               0.000000000               0.000045425               0.004606513              -0.000724305              -0.000558779               0.001721748               0.001162970               0.000000000               0.000000000               0.000000000               0.000000000               0.000589054               0.004850506              -0.000668760              -0.000385417               0.001745291               0.001359874               0.000000000               0.000000000               0.000000000               0.000000000               0.001150622               0.005014459              -0.000607590              -0.000195324               0.001736577               0.001541254               0.000000000               0.000000000               0.000000000               0.000000000               0.001744887               0.005112202              -0.000533471               0.000015307               0.001698948               0.001714255               0.000000000               0.000000000               0.000000000               0.000000000               0.002392216               0.005157055              -0.000443776               0.000252446               0.001634852               0.001887299               0.000000000               0.000000000               0.000000000               0.000000000               0.003106633               0.005146446              -0.000332432               0.000521676               0.001541573               0.002063249               0.000000000               0.000000000               0.000000000               0.000000000               0.003904006               0.005083302              -0.000186373               0.000828581               0.001418223               0.002246805               0.000000000               0.000000000               0.000000000               0.000000000               0.004510025               0.005107490              -0.000114707               0.001052813               0.001351542               0.002404355               0.000000000               0.000000000               0.000000000               0.000000000               0.000000000               0.000000000               0.000000000               0.000000000               0.000000000               0.000000000               0.000000000               0.000000000               0.000000000               0.000000000               0.000000000               0.000000000               0.000000000               0.000000000               0.000000000               0.000000000               0.000000000               0.000000000               0.000000000               0.000000000               0.000000000               0.000000000               0.000000000               0.000000000               0.000000000               0.000000000               0.000000000               0.000000000               0.000000000               0.000000000               0.000000000               0.000000000               0.000000000               0.000000000               0.000000000               0.000000000               0.000000000               0.000000000               0.000000000               0.000000000               0.000000000               0.000000000               0.000000000               0.000000000               0.000000000               0.000000000               0.000000000               0.000000000               0.000000000               0.000000000               0.000000000               0.000000000               0.000000000               0.000000000               0.000000000               0.000000000               0.000000000               0.000000000               0.000000000               0.000000000               0.000000000               0.000000000               0.000000000               0.000000000               0.000000000               0.000000000               0.000000000               0.000000000               0.000000000               0.000000000               0.000000000               0.000000000               0.000000000               0.000000000               0.000000000               0.000000000               0.000000000               0.000000000               0.000000000               0.000000000               0.000000000               0.000000000               0.000000000               0.000000000               0.000000000               0.000000000               0.000000000               0.000000000               0.000000000               0.000000000               0.000000000               0.000000000               0.000000000               0.000000000               0.000000000               0.000000000               0.000000000               0.000000000               0.000000000               0.000000000               0.000000000               0.000000000               0.000000000               0.000000000               0.000000000               0.000000000               0.000000000               0.000000000               0.000000000               0.000000000               0.000000000               0.000000000               0.000000000               0.000000000               0.000000000               0.000000000               0.000000000               0.000000000               0.000000000               0.000000000               0.000000000               0.000000000               0.000000000               0.000000000               0.000000000               0.000000000               0.000000000               0.000000000               0.000000000               0.000000000               0.000000000               0.000000000               0.000000000               0.000000000               0.000000000               0.000000000               0.000000000               0.000000000               0.000000000               0.000000000               0.000000000               0.000000000               0.000000000               0.000000000               0.000000000               0.000000000               0.000000000               0.000000000               0.000000000               0.000000000               0.000000000               0.000000000               0.000000000               0.000000000               0.000000000               0.000000000               0.000000000               0.000000000               0.000000000               0.000000000               0.000000000               0.000000000               0.000000000               0.000000000               0.000000000               0.000000000               0.000000000               0.000000000               0.000000000               0.000000000               0.000000000               0.000000000               0.000000000               0.000000000               0.000000000               0.000000000               0.000000000               0.000000000               0.000000000               0.000000000               0.000000000               0.000000000               0.000000000               0.000000000               0.000000000               0.000000000               0.000000000               0.000000000               0.000000000               0.000000000               0.000000000               0.000000000               0.000000000               0.000000000               0.000000000               0.000000000               0.000000000               0.000000000               0.000000000               0.000000000               0.000000000               0.000000000               0.000000000               0.000000000               0.000000000               0.000000000               0.000000000               0.000000000               0.000000000               0.000000000               0.000000000               0.000000000               0.000000000               0.000000000               0.000000000               0.000000000               0.000000000               0.000000000               0.000000000               0.000000000               0.000000000               0.000000000               0.000000000               0.000000000               0.000000000               0.000000000               0.000000000               0.000000000               0.000000000               0.000000000               0.000000000               0.000000000               0.000000000               0.000000000               0.000000000               0.000000000               0.000000000               0.000000000               0.000000000               0.000000000               0.000000000               0.000000000               0.000000000               0.000000000               0.000000000               0.000000000               0.000000000               0.000000000               0.000000000               0.000000000               0.000000000               0.000000000               0.000000000               0.000000000               0.000000000               0.000000000               0.000000000               0.000000000               0.000000000               0.000000000               0.000000000               0.000000000               0.000000000               0.000000000               0.000000000               0.000000000               0.000000000               0.000000000               0.000000000               0.000000000               0.000000000               0.000000000               0.000000000               0.000000000               0.000000000               0.000000000               0.000000000               0.000000000               0.000000000               0.000000000               0.000000000               0.000000000               0.000000000               0.000000000               0.000000000               0.000000000               0.000000000               0.000000000               0.000000000               0.000000000               0.000000000               0.000000000               0.000000000               0.000000000               0.000000000               0.000000000               0.000000000               0.000000000               0.000000000               0.000000000               0.000000000               0.000000000               0.000000000               0.000000000               0.000000000               0.000000000               0.000000000               0.000000000               0.000000000               0.000000000               0.000000000               0.000000000               0.000000000               0.000000000               0.000000000               0.000000000               0.000000000               0.000000000               0.000000000               0.000000000               0.000000000               0.000000000               0.000000000               0.000000000               0.000000000               0.000000000               0.000000000               0.000000000               0.000000000               0.000000000               0.000000000               0.000000000               0.000000000               0.000000000               0.000000000               0.000000000               0.000000000               0.000000000               0.000000000               0.000000000               0.002249981               0.023147065               0.001553811              -0.002049635               0.008398823               0.006349187               0.000000000               0.000000000               0.000000000               0.000000000               0.001990627               0.017817432               0.000682751              -0.001480691               0.006432648               0.004951958               0.000000000               0.000000000               0.000000000               0.000000000               0.002397726               0.013533244              -0.000175638              -0.000792506               0.004775205               0.003982699               0.000000000               0.000000000               0.000000000               0.000000000               0.002105743               0.011107546              -0.000524436              -0.000598788               0.003902075               0.003303286               0.000000000               0.000000000               0.000000000               0.000000000               0.001667346               0.009554773              -0.000654431              -0.000569091               0.003374589               0.002805499               0.000000000               0.000000000               0.000000000               0.000000000               0.001248011               0.008451354              -0.000691643              -0.000588414               0.003013228               0.002424814               0.000000000               0.000000000               0.000000000               0.000000000               0.000891937               0.007591092              -0.000686467              -0.000614409               0.002735141               0.002120733               0.000000000               0.000000000               0.000000000               0.000000000               0.000600135               0.006862301              -0.000658413              -0.000632736               0.002498323               0.001865587               0.000000000               0.000000000               0.000000000               0.000000000               0.000375658               0.006200674              -0.000618862              -0.000634211               0.002278274               0.001644063               0.000000000               0.000000000               0.000000000               0.000000000               0.000213107               0.005571177              -0.000578287              -0.000616481               0.002062534               0.001446053               0.000000000               0.000000000               0.000000000               0.000000000               0.000091002               0.004951356              -0.000539087              -0.000584793               0.001845366               0.001260574               0.000000000               0.000000000               0.000000000               0.000000000               0.000002140               0.004329078              -0.000498637              -0.000540331               0.001623122               0.001082791               0.000000000               0.000000000               0.000000000               0.000000000              -0.000054235               0.003690725              -0.000452850              -0.000481678               0.001390789               0.000909111               0.000000000               0.000000000               0.000000000               0.000000000              -0.000084668               0.003025197              -0.000395480              -0.000409899               0.001145022               0.000735123               0.000000000               0.000000000               0.000000000               0.000000000              -0.000088046               0.002320008              -0.000312352              -0.000323018               0.000881001               0.000557983               0.000000000               0.000000000               0.000000000               0.000000000              -0.000055918               0.001553682              -0.000179957              -0.000215179               0.000589615               0.000374436               0.000000000               0.000000000               0.000000000               0.000000000              -0.000090816               0.000981005              -0.000110219              -0.000156681               0.000379226               0.000222544               0.000000000               0.000000000               0.000000000               0.000000000               0.002394839               0.021674231               0.002863699              -0.001811211               0.007828408               0.006017197               0.000000000               0.000000000               0.000000000               0.000000000               0.001778576               0.016891491               0.001250959              -0.001444467               0.006111930               0.004667463               0.000000000               0.000000000               0.000000000               0.000000000               0.001812247               0.013171756              -0.000321074              -0.000966874               0.004712833               0.003745959               0.000000000               0.000000000               0.000000000               0.000000000               0.001391494               0.011029424              -0.000937059              -0.000856866               0.003962060               0.003105194               0.000000000               0.000000000               0.000000000               0.000000000               0.000938214               0.009623089              -0.001158070              -0.000851054               0.003491349               0.002640295               0.000000000               0.000000000               0.000000000               0.000000000               0.000561597               0.008596233              -0.001212329              -0.000863929               0.003153359               0.002289430               0.000000000               0.000000000               0.000000000               0.000000000               0.000269781               0.007772555              -0.001192041              -0.000870400               0.002880959               0.002010559               0.000000000               0.000000000               0.000000000               0.000000000               0.000049787               0.007058466              -0.001134645              -0.000863636               0.002640677               0.001777041               0.000000000               0.000000000               0.000000000               0.000000000              -0.000097507               0.006409659              -0.001059737              -0.000837771               0.002415788               0.001578018               0.000000000               0.000000000               0.000000000               0.000000000              -0.000184889               0.005795285              -0.000982178              -0.000793742               0.002196323               0.001402580               0.000000000               0.000000000               0.000000000               0.000000000              -0.000229859               0.005197282              -0.000908216              -0.000735856               0.001977695               0.001241839               0.000000000               0.000000000               0.000000000               0.000000000              -0.000240502               0.004606734              -0.000831972              -0.000666029               0.001757572               0.001091543               0.000000000               0.000000000               0.000000000               0.000000000              -0.000227077               0.004018352              -0.000746617              -0.000587447               0.001535253               0.000947806               0.000000000               0.000000000               0.000000000               0.000000000              -0.000194138               0.003434496              -0.000643826              -0.000502113               0.001312192               0.000810079               0.000000000               0.000000000               0.000000000               0.000000000              -0.000144953               0.002852155              -0.000498697              -0.000410876               0.001087667               0.000676791               0.000000000               0.000000000               0.000000000               0.000000000              -0.000081455               0.002273001              -0.000282323              -0.000314670               0.000862549               0.000547879               0.000000000               0.000000000               0.000000000               0.000000000              -0.000085183               0.001878692              -0.000167535              -0.000266780               0.000715151               0.000448371               0.000000000               0.000000000               0.000000000               0.000000000               0.002492641               0.019454094               0.003750265              -0.001497020               0.006983639               0.005486619               0.000000000               0.000000000               0.000000000               0.000000000               0.001382492               0.015518111               0.001629209              -0.001421327               0.005646427               0.004225101               0.000000000               0.000000000               0.000000000               0.000000000               0.000904655               0.012642358              -0.000405893              -0.001241046               0.004627759               0.003386713               0.000000000               0.000000000               0.000000000               0.000000000               0.000352893               0.010901700              -0.001153748              -0.001230375               0.004043989               0.002813614               0.000000000               0.000000000               0.000000000               0.000000000              -0.000076875               0.009689823              -0.001398785              -0.001240053               0.003643260               0.002403206               0.000000000               0.000000000               0.000000000               0.000000000              -0.000369115               0.008755789              -0.001442253              -0.001232889               0.003329530               0.002096641               0.000000000               0.000000000               0.000000000               0.000000000              -0.000553682               0.007974436              -0.001398369              -0.001204433               0.003059596               0.001855163               0.000000000               0.000000000               0.000000000               0.000000000              -0.000654249               0.007281607              -0.001316974              -0.001155542               0.002812358               0.001656817               0.000000000               0.000000000               0.000000000               0.000000000              -0.000684512               0.006647748              -0.001218623              -0.001087658               0.002578447               0.001490788               0.000000000               0.000000000               0.000000000               0.000000000              -0.000664607               0.006052923              -0.001116188              -0.001005841               0.002352901               0.001347060               0.000000000               0.000000000               0.000000000               0.000000000              -0.000603580               0.005485646              -0.001017084              -0.000912046               0.002132546               0.001220499               0.000000000               0.000000000               0.000000000               0.000000000              -0.000515170               0.004940985              -0.000917271              -0.000810810               0.001917249               0.001106438               0.000000000               0.000000000               0.000000000               0.000000000              -0.000416441               0.004429030              -0.000810462              -0.000709792               0.001712926               0.001003134               0.000000000               0.000000000               0.000000000               0.000000000              -0.000315226               0.003955560              -0.000681933              -0.000612653               0.001522725               0.000910071               0.000000000               0.000000000               0.000000000               0.000000000              -0.000209512               0.003528629              -0.000508378              -0.000519645               0.001349413               0.000829768               0.000000000               0.000000000               0.000000000               0.000000000              -0.000104211               0.003169070              -0.000276609              -0.000435212               0.001201417               0.000766205               0.000000000               0.000000000               0.000000000               0.000000000              -0.000069926               0.002967606              -0.000154659              -0.000397172               0.001121583               0.000724411               0.000000000               0.000000000               0.000000000               0.000000000               0.002391988               0.016749543               0.004135450              -0.001196698               0.005982024               0.004785326               0.000000000               0.000000000               0.000000000               0.000000000               0.000782475               0.013886709               0.001806795              -0.001442408               0.005109659               0.003667251               0.000000000               0.000000000               0.000000000               0.000000000              -0.000217022               0.012010883              -0.000386426              -0.001582740               0.004531167               0.002948428               0.000000000               0.000000000               0.000000000               0.000000000              -0.000836148               0.010704407              -0.001125264              -0.001651603               0.004118634               0.002467031               0.000000000               0.000000000               0.000000000               0.000000000              -0.001173366               0.009686052              -0.001340235              -0.001650765               0.003778907               0.002128142               0.000000000               0.000000000               0.000000000               0.000000000              -0.001324090               0.008839820              -0.001358254              -0.001601508               0.003480413               0.001878905               0.000000000               0.000000000               0.000000000               0.000000000              -0.001354505               0.008098868              -0.001298049              -0.001520295               0.003206360               0.001686066               0.000000000               0.000000000               0.000000000               0.000000000              -0.001302660               0.007430710              -0.001205918              -0.001417333               0.002949323               0.001531990               0.000000000               0.000000000               0.000000000               0.000000000              -0.001195565               0.006812842              -0.001101293              -0.001299939               0.002704237               0.001404298               0.000000000               0.000000000               0.000000000               0.000000000              -0.001048977               0.006241059              -0.000993717              -0.001173496               0.002471497               0.001298001               0.000000000               0.000000000               0.000000000               0.000000000              -0.000878056               0.005708939              -0.000888212              -0.001042886               0.002250589               0.001207703               0.000000000               0.000000000               0.000000000               0.000000000              -0.000698269               0.005229119              -0.000783909              -0.000915489               0.002048185               0.001132696               0.000000000               0.000000000               0.000000000               0.000000000              -0.000529521               0.004805524              -0.000675497              -0.000799259               0.001868245               0.001068986               0.000000000               0.000000000               0.000000000               0.000000000              -0.000373731               0.004445817              -0.000547719              -0.000695875               0.001713882               0.001018008               0.000000000               0.000000000               0.000000000               0.000000000              -0.000229539               0.004162265              -0.000386872              -0.000606359               0.001589527               0.000983168               0.000000000               0.000000000               0.000000000               0.000000000              -0.000105904               0.003974541              -0.000198283              -0.000536530               0.001503677               0.000967147               0.000000000               0.000000000               0.000000000               0.000000000              -0.000053104               0.003902762              -0.000101651              -0.000507758               0.001470160               0.000962402               0.000000000               0.000000000               0.000000000               0.000000000               0.001979215               0.013840258               0.004035760              -0.000987827               0.004942648               0.003954821               0.000000000               0.000000000               0.000000000               0.000000000              -0.000005219               0.012172822               0.001825840              -0.001523557               0.004565419               0.003041862               0.000000000               0.000000000               0.000000000               0.000000000              -0.001414125               0.011326357              -0.000222847              -0.001946087               0.004424110               0.002478023               0.000000000               0.000000000               0.000000000               0.000000000              -0.001989464               0.010419886              -0.000856869              -0.002048530               0.004156104               0.002107574               0.000000000               0.000000000               0.000000000               0.000000000              -0.002157094               0.009570114              -0.001023332              -0.002005170               0.003858396               0.001853226               0.000000000               0.000000000               0.000000000               0.000000000              -0.002120145               0.008797616              -0.001027423              -0.001894752               0.003564093               0.001669341               0.000000000               0.000000000               0.000000000               0.000000000              -0.001970014               0.008095845              -0.000970645              -0.001750732               0.003282165               0.001531433               0.000000000               0.000000000               0.000000000               0.000000000              -0.001756690               0.007448464              -0.000889469              -0.001589813               0.003012734               0.001422921               0.000000000               0.000000000               0.000000000               0.000000000              -0.001510938               0.006848969              -0.000799767              -0.001422720               0.002757207               0.001334487               0.000000000               0.000000000               0.000000000               0.000000000              -0.001246627               0.006303130              -0.000706085              -0.001255373               0.002519480               0.001264107               0.000000000               0.000000000               0.000000000               0.000000000              -0.000985630               0.005821230              -0.000615823              -0.001097262               0.002306145               0.001208882               0.000000000               0.000000000               0.000000000               0.000000000              -0.000744178               0.005413502              -0.000528535              -0.000955752               0.002123067               0.001167314               0.000000000               0.000000000               0.000000000               0.000000000              -0.000529548               0.005077642              -0.000436644              -0.000833284               0.001970292               0.001137008               0.000000000               0.000000000               0.000000000               0.000000000              -0.000344261               0.004813235              -0.000333911              -0.000730750               0.001847979               0.001117229               0.000000000               0.000000000               0.000000000               0.000000000              -0.000193767               0.004625854              -0.000215101              -0.000650893               0.001758900               0.001108007               0.000000000               0.000000000               0.000000000               0.000000000              -0.000081620               0.004525008              -0.000097208              -0.000596232               0.001707065               0.001110833               0.000000000               0.000000000               0.000000000               0.000000000              -0.000034850               0.004501309              -0.000042771              -0.000575731               0.001692332               0.001116601               0.000000000               0.000000000               0.000000000               0.000000000               0.001192809               0.010981229               0.003545629              -0.000925351               0.003968823               0.003043472               0.000000000               0.000000000               0.000000000               0.000000000              -0.000933943               0.010510842               0.001745493              -0.001664081               0.004058272               0.002394191               0.000000000               0.000000000               0.000000000               0.000000000              -0.002546480               0.010613355               0.000081873              -0.002281594               0.004298281               0.002016687               0.000000000               0.000000000               0.000000000               0.000000000              -0.002958867               0.010037218              -0.000408323              -0.002364221               0.004133780               0.001769558               0.000000000               0.000000000               0.000000000               0.000000000              -0.002903507               0.009326517              -0.000540459              -0.002254624               0.003860349               0.001605725               0.000000000               0.000000000               0.000000000               0.000000000              -0.002657466               0.008623479              -0.000555289              -0.002074480               0.003565957               0.001491478               0.000000000               0.000000000               0.000000000               0.000000000              -0.002323021               0.007960270              -0.000525755              -0.001866162               0.003275451               0.001409289               0.000000000               0.000000000               0.000000000               0.000000000              -0.001957592               0.007335730              -0.000477111              -0.001651059               0.002995572               0.001344512               0.000000000               0.000000000               0.000000000               0.000000000              -0.001595026               0.006762415              -0.000420760              -0.001443433               0.002735260               0.001291827               0.000000000               0.000000000               0.000000000               0.000000000              -0.001243611               0.006260432              -0.000362729              -0.001248905               0.002503091               0.001254186               0.000000000               0.000000000               0.000000000               0.000000000              -0.000924171               0.005841366              -0.000307903              -0.001076732               0.002306013               0.001229281               0.000000000               0.000000000               0.000000000               0.000000000              -0.000656412               0.005499804              -0.000255334              -0.000933628               0.002144459               0.001210831               0.000000000               0.000000000               0.000000000               0.000000000              -0.000434259               0.005231540              -0.000198157              -0.000816788               0.002016092               0.001199304               0.000000000               0.000000000               0.000000000               0.000000000              -0.000254500               0.005030524              -0.000136643              -0.000724251               0.001918242               0.001193990               0.000000000               0.000000000               0.000000000               0.000000000              -0.000127196               0.004894966              -0.000073682              -0.000659568               0.001851495               0.001191927               0.000000000               0.000000000               0.000000000               0.000000000              -0.000049404               0.004826565              -0.000024467              -0.000621846               0.001816121               0.001194275               0.000000000               0.000000000               0.000000000               0.000000000              -0.000022601               0.004809042              -0.000007788              -0.000609604               0.001806199               0.001196595               0.000000000               0.000000000               0.000000000               0.000000000               0.000079230               0.008361378               0.002786349              -0.001015461               0.003125584               0.002110124               0.000000000               0.000000000               0.000000000               0.000000000              -0.001947521               0.009000166               0.001614679              -0.001855337               0.003618471               0.001763133               0.000000000               0.000000000               0.000000000               0.000000000              -0.003505961               0.009868163               0.000500087              -0.002548250               0.004138771               0.001590522               0.000000000               0.000000000               0.000000000               0.000000000              -0.003651592               0.009548034               0.000140942              -0.002562845               0.004036928               0.001474083               0.000000000               0.000000000               0.000000000               0.000000000              -0.003350447               0.008962789               0.000008361              -0.002376760               0.003779820               0.001403059               0.000000000               0.000000000               0.000000000               0.000000000              -0.002903992               0.008332624              -0.000042904              -0.002130570               0.003487704               0.001357134               0.000000000               0.000000000               0.000000000               0.000000000              -0.002410413               0.007710378              -0.000060696              -0.001867698               0.003192666               0.001324969               0.000000000               0.000000000               0.000000000               0.000000000              -0.001919106               0.007122828              -0.000060021              -0.001610014               0.002910924               0.001300909               0.000000000               0.000000000               0.000000000               0.000000000              -0.001462765               0.006596662              -0.000053628              -0.001373116               0.002656571               0.001283455               0.000000000               0.000000000               0.000000000               0.000000000              -0.001061372               0.006148486              -0.000045512              -0.001166572               0.002438332               0.001271760               0.000000000               0.000000000               0.000000000               0.000000000              -0.000727227               0.005782441              -0.000037787              -0.000995513               0.002259299               0.001263786               0.000000000               0.000000000               0.000000000               0.000000000              -0.000465430               0.005491359              -0.000031643              -0.000860954               0.002117419               0.001256465               0.000000000               0.000000000               0.000000000               0.000000000              -0.000266363               0.005266912              -0.000021910              -0.000758248               0.002008369               0.001250121               0.000000000               0.000000000               0.000000000               0.000000000              -0.000125084               0.005106642              -0.000008324              -0.000685235               0.001930609               0.001245374               0.000000000               0.000000000               0.000000000               0.000000000              -0.000047710               0.005004626               0.000005363              -0.000643468               0.001882681               0.001239213               0.000000000               0.000000000               0.000000000               0.000000000              -0.000018665               0.004952578               0.000009380              -0.000626070               0.001859533               0.001233463               0.000000000               0.000000000               0.000000000               0.000000000              -0.000014094               0.004936206               0.000006111              -0.000622309               0.001852822               0.001230513               0.000000000               0.000000000               0.000000000               0.000000000              -0.001221048               0.006171381               0.001876816              -0.001229314               0.002466877               0.001237564               0.000000000               0.000000000               0.000000000               0.000000000              -0.002936349               0.007654988               0.001473684              -0.002058000               0.003237637               0.001179637               0.000000000               0.000000000               0.000000000               0.000000000              -0.004257238               0.009106759               0.000992931              -0.002734802               0.003947157               0.001212354               0.000000000               0.000000000               0.000000000               0.000000000              -0.004123056               0.009057181               0.000716860              -0.002678287               0.003911792               0.001233505               0.000000000               0.000000000               0.000000000               0.000000000              -0.003620495               0.008628553               0.000555215              -0.002436249               0.003688238               0.001251990               0.000000000               0.000000000               0.000000000               0.000000000              -0.003016514               0.008094171               0.000452022              -0.002142959               0.003412349               0.001269391               0.000000000               0.000000000               0.000000000               0.000000000              -0.002402487               0.007531753               0.000377513              -0.001842397               0.003124692               0.001282295               0.000000000               0.000000000               0.000000000               0.000000000              -0.001818356               0.006994982               0.000321473              -0.001556252               0.002850388               0.001294136               0.000000000               0.000000000               0.000000000               0.000000000              -0.001292922               0.006517054               0.000273218              -0.001299474               0.002605488               0.001306013               0.000000000               0.000000000               0.000000000               0.000000000              -0.000858587               0.006107510               0.000229698              -0.001085406               0.002397618               0.001312212               0.000000000               0.000000000               0.000000000               0.000000000              -0.000516657               0.005774554               0.000189015              -0.000915564               0.002230020               0.001314456               0.000000000               0.000000000               0.000000000               0.000000000              -0.000259915               0.005506310               0.000145372              -0.000785755               0.002097336               0.001311582               0.000000000               0.000000000               0.000000000               0.000000000              -0.000087723               0.005293503               0.000103610              -0.000694582               0.001996011               0.001301428               0.000000000               0.000000000               0.000000000               0.000000000               0.000006355               0.005141008               0.000070050              -0.000640241               0.001927066               0.001286825               0.000000000               0.000000000               0.000000000               0.000000000               0.000030156               0.005044132               0.000044386              -0.000619206               0.001887763               0.001268556               0.000000000               0.000000000               0.000000000               0.000000000               0.000011766               0.004996698               0.000021523              -0.000620173               0.001872274               0.001252100               0.000000000               0.000000000               0.000000000               0.000000000              -0.000007381               0.004979878               0.000007909              -0.000625251               0.001868360               0.001243109               0.000000000               0.000000000               0.000000000               0.000000000              -0.002723085               0.004153729               0.000929213              -0.001540369               0.001898019               0.000357649               0.000000000               0.000000000               0.000000000               0.000000000              -0.003768862               0.006090610               0.001321669              -0.002174644               0.002755064               0.000580420               0.000000000               0.000000000               0.000000000               0.000000000              -0.004711796               0.007960038               0.001505218              -0.002761922               0.003573960               0.000812038               0.000000000               0.000000000               0.000000000               0.000000000              -0.004422784               0.008318112               0.001315938              -0.002698302               0.003672110               0.000973808               0.000000000               0.000000000               0.000000000               0.000000000              -0.003841917               0.008176884               0.001123560              -0.002462823               0.003546542               0.001083718               0.000000000               0.000000000               0.000000000               0.000000000              -0.003190528               0.007847164               0.000967433              -0.002177338               0.003341474               0.001164136               0.000000000               0.000000000               0.000000000               0.000000000              -0.002540867               0.007439655               0.000837861              -0.001882777               0.003107453               0.001224675               0.000000000               0.000000000               0.000000000               0.000000000              -0.001928063               0.007017965               0.000726172              -0.001600265               0.002872720               0.001272455               0.000000000               0.000000000               0.000000000               0.000000000              -0.001374509               0.006618799               0.000623668              -0.001342788               0.002653840               0.001311053               0.000000000               0.000000000               0.000000000               0.000000000              -0.000900867               0.006258002               0.000530703              -0.001120073               0.002459337               0.001339265               0.000000000               0.000000000               0.000000000               0.000000000              -0.000521420               0.005944407               0.000445078              -0.000938581               0.002294310               0.001355728               0.000000000               0.000000000               0.000000000               0.000000000              -0.000233839               0.005671914               0.000355608              -0.000796677               0.002156178               0.001359501               0.000000000               0.000000000               0.000000000               0.000000000              -0.000035102               0.005441366               0.000263882              -0.000693332               0.002044881               0.001351549               0.000000000               0.000000000               0.000000000               0.000000000               0.000075657               0.005255710               0.000176891              -0.000628591               0.001961416               0.001332825               0.000000000               0.000000000               0.000000000               0.000000000               0.000103861               0.005119877               0.000097280              -0.000601035               0.001906954               0.001305919               0.000000000               0.000000000               0.000000000               0.000000000               0.000071290               0.005035777               0.000035562              -0.000602737               0.001879488               0.001276751               0.000000000               0.000000000               0.000000000               0.000000000               0.000030232               0.004994499               0.000005870              -0.000612974               0.001869141               0.001256167               0.000000000               0.000000000               0.000000000               0.000000000              -0.004628093               0.002335182               0.000020995              -0.002027429               0.001454194              -0.000573235               0.000000000               0.000000000               0.000000000               0.000000000              -0.004711640               0.004510970               0.001108301              -0.002330731               0.002280551              -0.000050180               0.000000000               0.000000000               0.000000000               0.000000000              -0.005084142               0.006600054               0.001916766              -0.002731554               0.003110513               0.000378960               0.000000000               0.000000000               0.000000000               0.000000000              -0.004657089               0.007340206               0.001882357              -0.002663928               0.003334686               0.000670758               0.000000000               0.000000000               0.000000000               0.000000000              -0.004030184               0.007519399               0.001692267              -0.002451238               0.003323520               0.000872282               0.000000000               0.000000000               0.000000000               0.000000000              -0.003366073               0.007437757               0.001499613              -0.002191992               0.003209891               0.001017899               0.000000000               0.000000000               0.000000000               0.000000000              -0.002709301               0.007228988               0.001323888              -0.001919607               0.003049507               0.001129900               0.000000000               0.000000000               0.000000000               0.000000000              -0.002084206               0.006964587               0.001164660              -0.001652147               0.002872221               0.001220074               0.000000000               0.000000000               0.000000000               0.000000000              -0.001508323               0.006682586               0.001018555              -0.001400941               0.002694487               0.001293545               0.000000000               0.000000000               0.000000000               0.000000000              -0.000993767               0.006397372               0.000887634              -0.001172331               0.002523213               0.001350882               0.000000000               0.000000000               0.000000000               0.000000000              -0.000554890               0.006121053               0.000767553              -0.000973213               0.002364735               0.001391522               0.000000000               0.000000000               0.000000000               0.000000000              -0.000200709               0.005857117               0.000643759              -0.000807404               0.002221487               0.001414084               0.000000000               0.000000000               0.000000000               0.000000000               0.000059690               0.005616246               0.000507088              -0.000679645               0.002098612               0.001418966               0.000000000               0.000000000               0.000000000               0.000000000               0.000220321               0.005405757               0.000361672              -0.000593098               0.001999600               0.001406502               0.000000000               0.000000000               0.000000000               0.000000000               0.000286008               0.005229410               0.000219103              -0.000546422               0.001925260               0.001378838               0.000000000               0.000000000               0.000000000               0.000000000               0.000264709               0.005093933               0.000095848              -0.000537475               0.001877119               0.001339644               0.000000000               0.000000000               0.000000000               0.000000000               0.000211593               0.005022853               0.000033784              -0.000548508               0.001857103               0.001308596               0.000000000               0.000000000               0.000000000               0.000000000              -0.006797268               0.000863967              -0.000760470              -0.002656969               0.001173637              -0.001483331               0.000000000               0.000000000               0.000000000               0.000000000              -0.005807379               0.003024095               0.000822864              -0.002555775               0.001859944              -0.000695831               0.000000000               0.000000000               0.000000000               0.000000000              -0.005394077               0.005052011               0.002119115              -0.002654275               0.002568744              -0.000085531               0.000000000               0.000000000               0.000000000               0.000000000              -0.004742716               0.006050021               0.002283045              -0.002534766               0.002861575               0.000326809               0.000000000               0.000000000               0.000000000               0.000000000              -0.004051654               0.006519987               0.002146722              -0.002334364               0.002951428               0.000617064               0.000000000               0.000000000               0.000000000               0.000000000              -0.003378266               0.006703993               0.001947860              -0.002104844               0.002936256               0.000831412               0.000000000               0.000000000               0.000000000               0.000000000              -0.002730248               0.006721860               0.001747457              -0.001864071               0.002861954               0.000997883               0.000000000               0.000000000               0.000000000               0.000000000              -0.002106760               0.006645893               0.001560360              -0.001620768               0.002755531               0.001134763               0.000000000               0.000000000               0.000000000               0.000000000              -0.001515669               0.006513342               0.001388660              -0.001382540               0.002631939               0.001249398               0.000000000               0.000000000               0.000000000               0.000000000              -0.000972762               0.006338505               0.001234739              -0.001157096               0.002498513               0.001341416               0.000000000               0.000000000               0.000000000               0.000000000              -0.000485798               0.006135239               0.001095478              -0.000949077               0.002361418               0.001412341               0.000000000               0.000000000               0.000000000               0.000000000              -0.000068901               0.005916459               0.000947003              -0.000765394               0.002227264               0.001461871               0.000000000               0.000000000               0.000000000               0.000000000               0.000264582               0.005699779               0.000774125              -0.000613253               0.002104325               0.001491072               0.000000000               0.000000000               0.000000000               0.000000000               0.000503799               0.005491191               0.000585812              -0.000497473               0.001996203               0.001498730               0.000000000               0.000000000               0.000000000               0.000000000               0.000643901               0.005300745               0.000388669              -0.000421129               0.001907274               0.001486145               0.000000000               0.000000000               0.000000000               0.000000000               0.000677049               0.005139431               0.000190908              -0.000388535               0.001842638               0.001454103               0.000000000               0.000000000               0.000000000               0.000000000               0.000641755               0.005052261               0.000087258              -0.000390874               0.001814361               0.001423488               0.000000000               0.000000000               0.000000000               0.000000000              -0.009068442              -0.000180687              -0.001301824              -0.003378077               0.001065789              -0.002312288               0.000000000               0.000000000               0.000000000               0.000000000              -0.006983135               0.001711491               0.000511792              -0.002832608               0.001514689              -0.001317919               0.000000000               0.000000000               0.000000000               0.000000000              -0.005670450               0.003444925               0.002080770              -0.002557030               0.002000638              -0.000556392               0.000000000               0.000000000               0.000000000               0.000000000              -0.004703076               0.004560429               0.002421000              -0.002333702               0.002298027              -0.000035675               0.000000000               0.000000000               0.000000000               0.000000000              -0.003912409               0.005255847               0.002370674              -0.002124130               0.002459974               0.000335844               0.000000000               0.000000000               0.000000000               0.000000000              -0.003218585               0.005684846               0.002200720              -0.001917571               0.002534119               0.000616548               0.000000000               0.000000000               0.000000000               0.000000000              -0.002579167               0.005929899               0.002004812              -0.001708421               0.002546086               0.000837665               0.000000000               0.000000000               0.000000000               0.000000000              -0.001967941               0.006050671               0.001815148              -0.001494309               0.002514973               0.001020664               0.000000000               0.000000000               0.000000000               0.000000000              -0.001377301               0.006084872               0.001636996              -0.001277094               0.002453968               0.001176874               0.000000000               0.000000000               0.000000000               0.000000000              -0.000818337               0.006049091               0.001477509              -0.001063011               0.002370680               0.001307669               0.000000000               0.000000000               0.000000000               0.000000000              -0.000299973               0.005959925               0.001332335              -0.000857479               0.002272448               0.001414969               0.000000000               0.000000000               0.000000000               0.000000000               0.000169192               0.005826351               0.001176350              -0.000664846               0.002163713               0.001498867               0.000000000               0.000000000               0.000000000               0.000000000               0.000584429               0.005664371               0.000996020              -0.000488885               0.002051066               0.001562182               0.000000000               0.000000000               0.000000000               0.000000000               0.000930244               0.005487617               0.000789751              -0.000337110               0.001941557               0.001604447               0.000000000               0.000000000               0.000000000               0.000000000               0.001189160               0.005314012               0.000556354              -0.000218316               0.001844092               0.001625775               0.000000000               0.000000000               0.000000000               0.000000000               0.001343370               0.005153805               0.000291529              -0.000140462               0.001764738               0.001624277               0.000000000               0.000000000               0.000000000               0.000000000               0.001388253               0.005073129               0.000150586              -0.000113546               0.001728875               0.001615329               0.000000000               0.000000000               0.000000000               0.000000000              -0.011233502              -0.000814943              -0.001493774              -0.004110693               0.001098575              -0.003012117               0.000000000               0.000000000               0.000000000               0.000000000              -0.008135821               0.000656949               0.000239567              -0.003133048               0.001263324              -0.001869725               0.000000000               0.000000000               0.000000000               0.000000000              -0.005922588               0.001947075               0.001798800              -0.002464352               0.001470465              -0.000993887               0.000000000               0.000000000               0.000000000               0.000000000              -0.004593254               0.003051343               0.002231437              -0.002103884               0.001718396              -0.000385488               0.000000000               0.000000000               0.000000000               0.000000000              -0.003662261               0.003886161               0.002262255              -0.001859114               0.001915078               0.000055963               0.000000000               0.000000000               0.000000000               0.000000000              -0.002925476               0.004502726               0.002147743              -0.001659891               0.002054190               0.000394299               0.000000000               0.000000000               0.000000000               0.000000000              -0.002284445               0.004947177               0.001988183              -0.001475061               0.002140729               0.000665668               0.000000000               0.000000000               0.000000000               0.000000000              -0.001687406               0.005256306               0.001824146              -0.001289813               0.002182022               0.000892208               0.000000000               0.000000000               0.000000000               0.000000000              -0.001111379               0.005460249               0.001663881              -0.001099296               0.002186497               0.001087200               0.000000000               0.000000000               0.000000000               0.000000000              -0.000553709               0.005580681               0.001514565              -0.000905224               0.002161950               0.001256725               0.000000000               0.000000000               0.000000000               0.000000000              -0.000020420               0.005625140               0.001377087              -0.000710799               0.002111961               0.001401162               0.000000000               0.000000000               0.000000000               0.000000000               0.000492389               0.005605581               0.001235132              -0.000516051               0.002040525               0.001524474               0.000000000               0.000000000               0.000000000               0.000000000               0.000986943               0.005534161               0.001072120              -0.000321666               0.001951924               0.001630257               0.000000000               0.000000000               0.000000000               0.000000000               0.001448804               0.005416334               0.000877048              -0.000133741               0.001850007               0.001716266               0.000000000               0.000000000               0.000000000               0.000000000               0.001865151               0.005278137               0.000642781               0.000039663               0.001746140               0.001785804               0.000000000               0.000000000               0.000000000               0.000000000               0.002218527               0.005139326               0.000351876               0.000189530               0.001649915               0.001839445               0.000000000               0.000000000               0.000000000               0.000000000               0.002424756               0.005089071               0.000199608               0.000273147               0.001605291               0.001878438               0.000000000               0.000000000               0.000000000               0.000000000              -0.013043348              -0.001128570              -0.001290938              -0.004750181               0.001207195              -0.003542986               0.000000000               0.000000000               0.000000000               0.000000000              -0.009131446              -0.000098155               0.000062795              -0.003412020               0.001104614              -0.002307406               0.000000000               0.000000000               0.000000000               0.000000000              -0.006142344               0.000731347               0.001314564              -0.002394795               0.001042040              -0.001352755               0.000000000               0.000000000               0.000000000               0.000000000              -0.004467459               0.001748625               0.001713135              -0.001893872               0.001214157              -0.000679716               0.000000000               0.000000000               0.000000000               0.000000000              -0.003381742               0.002643912               0.001784475              -0.001598639               0.001414173              -0.000184466               0.000000000               0.000000000               0.000000000               0.000000000              -0.002584040               0.003379561               0.001725987              -0.001391457               0.001590328               0.000198870               0.000000000               0.000000000               0.000000000               0.000000000              -0.001926080               0.003972568               0.001620387              -0.001218849               0.001730458               0.000511610               0.000000000               0.000000000               0.000000000               0.000000000              -0.001338118               0.004437837               0.001503851              -0.001056522               0.001831438               0.000774916               0.000000000               0.000000000               0.000000000               0.000000000              -0.000779462               0.004790029               0.001383725              -0.000891050               0.001893677               0.001002626               0.000000000               0.000000000               0.000000000               0.000000000              -0.000234908               0.005040894               0.001267581              -0.000718201               0.001919681               0.001201480               0.000000000               0.000000000               0.000000000               0.000000000               0.000307355               0.005204165               0.001159933              -0.000535262               0.001913125               0.001377863               0.000000000               0.000000000               0.000000000               0.000000000               0.000854861               0.005297129               0.001049359              -0.000341568               0.001879548               0.001537980               0.000000000               0.000000000               0.000000000               0.000000000               0.001409947               0.005324785               0.000920799              -0.000136868               0.001820533               0.001683665               0.000000000               0.000000000               0.000000000               0.000000000               0.001978935               0.005291987               0.000763849               0.000080601               0.001737111               0.001817712               0.000000000               0.000000000               0.000000000               0.000000000               0.002563236               0.005214201               0.000569937               0.000309435               0.001634905               0.001944340               0.000000000               0.000000000               0.000000000               0.000000000               0.003161789               0.005110504               0.000316632               0.000546852               0.001521200               0.002068053               0.000000000               0.000000000               0.000000000               0.000000000               0.003585135               0.005100411               0.000187834               0.000706867               0.001464498               0.002171365               0.000000000               0.000000000               0.000000000               0.000000000              -0.014246578              -0.001245707              -0.000744467              -0.005186750               0.001313672              -0.003873078               0.000000000               0.000000000               0.000000000               0.000000000              -0.009814154              -0.000541560              -0.000004622              -0.003612610               0.001023676              -0.002588934               0.000000000               0.000000000               0.000000000               0.000000000              -0.006303604              -0.000055926               0.000691747              -0.002356859               0.000766972              -0.001589887               0.000000000               0.000000000               0.000000000               0.000000000              -0.004375628               0.000863575               0.000930960              -0.001748805               0.000870787              -0.000878018               0.000000000               0.000000000               0.000000000               0.000000000              -0.003167369               0.001771117               0.000985820              -0.001409151               0.001060082              -0.000349069               0.000000000               0.000000000               0.000000000               0.000000000              -0.002312488               0.002565226               0.000965693              -0.001187834               0.001251011               0.000063177               0.000000000               0.000000000               0.000000000               0.000000000              -0.001633284               0.003242074               0.000914651              -0.001017739               0.001419927               0.000402188               0.000000000               0.000000000               0.000000000               0.000000000              -0.001043660               0.003807021               0.000853935              -0.000867248               0.001558077               0.000690829               0.000000000               0.000000000               0.000000000               0.000000000              -0.000494372               0.004261685               0.000788064              -0.000718099               0.001659914               0.000941815               0.000000000               0.000000000               0.000000000               0.000000000               0.000045425               0.004606513               0.000724305              -0.000558779               0.001721748               0.001162970               0.000000000               0.000000000               0.000000000               0.000000000               0.000589054               0.004850506               0.000668760              -0.000385417               0.001745291               0.001359874               0.000000000               0.000000000               0.000000000               0.000000000               0.001150622               0.005014459               0.000607590              -0.000195324               0.001736577               0.001541254               0.000000000               0.000000000               0.000000000               0.000000000               0.001744887               0.005112202               0.000533471               0.000015307               0.001698948               0.001714255               0.000000000               0.000000000               0.000000000               0.000000000               0.002392216               0.005157055               0.000443776               0.000252446               0.001634852               0.001887299               0.000000000               0.000000000               0.000000000               0.000000000               0.003106633               0.005146446               0.000332432               0.000521676               0.001541573               0.002063249               0.000000000               0.000000000               0.000000000               0.000000000               0.003904006               0.005083302               0.000186373               0.000828581               0.001418223               0.002246805               0.000000000               0.000000000               0.000000000               0.000000000               0.004510025               0.005107490               0.000114707               0.001052813               0.001351542               0.002404355               0.000000000               0.000000000               0.000000000               0.000000000               0.000000000               0.000000000               0.000000000               0.000000000               0.000000000               0.000000000               0.000000000               0.000000000               0.000000000               0.000000000               0.000000000               0.000000000               0.000000000               0.000000000               0.000000000               0.000000000               0.000000000               0.000000000               0.000000000               0.000000000               0.000000000               0.000000000               0.000000000               0.000000000               0.000000000               0.000000000               0.000000000               0.000000000               0.000000000               0.000000000               0.000000000               0.000000000               0.000000000               0.000000000               0.000000000               0.000000000               0.000000000               0.000000000               0.000000000               0.000000000               0.000000000               0.000000000               0.000000000               0.000000000               0.000000000               0.000000000               0.000000000               0.000000000               0.000000000               0.000000000               0.000000000               0.000000000               0.000000000               0.000000000               0.000000000               0.000000000               0.000000000               0.000000000               0.000000000               0.000000000               0.000000000               0.000000000               0.000000000               0.000000000               0.000000000               0.000000000               0.000000000               0.000000000               0.000000000               0.000000000               0.000000000               0.000000000               0.000000000               0.000000000               0.000000000               0.000000000               0.000000000               0.000000000               0.000000000               0.000000000               0.000000000               0.000000000               0.000000000               0.000000000               0.000000000               0.000000000               0.000000000               0.000000000               0.000000000               0.000000000               0.000000000               0.000000000               0.000000000               0.000000000               0.000000000               0.000000000               0.000000000               0.000000000               0.000000000               0.000000000               0.000000000               0.000000000               0.000000000               0.000000000               0.000000000               0.000000000               0.000000000               0.000000000               0.000000000               0.000000000               0.000000000               0.000000000               0.000000000               0.000000000               0.000000000               0.000000000               0.000000000               0.000000000               0.000000000               0.000000000               0.000000000               0.000000000               0.000000000               0.000000000               0.000000000               0.000000000               0.000000000               0.000000000               0.000000000               0.000000000               0.000000000               0.000000000               0.000000000               0.000000000               0.000000000               0.000000000               0.000000000               0.000000000               0.000000000               0.000000000               0.000000000               0.000000000               0.000000000               0.000000000               0.000000000               0.000000000               0.000000000               0.000000000               0.000000000               0.000000000               0.000000000               0.000000000               0.000000000               0.000000000               0.000000000               0.000000000               0.000000000               0.000000000               0.000000000               0.000000000               0.000000000               0.000000000               0.000000000               0.000000000               0.000000000               0.000000000               0.000000000               0.000000000               0.000000000               0.000000000 </DataArray>
</PointData>
</Piece>
</UnstructuredGrid> </VTKFile>
