<?xml version="1.0"?>
<VTKFile type="UnstructuredGrid" version="0.1">
<UnstructuredGrid>
<Piece NumberOfPoints="      1156" NumberOfCells="      1024">
<Points>
<DataArray type="Float64"                                    Name="coordinates"                                                      NumberOfComponents=" 3" format="ascii">
              0.133000000               0.000000000               0.000000000               0.155937500               0.000000000               0.000000000               0.178875000               0.000000000               0.000000000               0.201812500               0.000000000               0.000000000               0.224750000               0.000000000               0.000000000               0.247687500               0.000000000               0.000000000               0.270625000               0.000000000               0.000000000               0.293562500               0.000000000               0.000000000               0.316500000               0.000000000               0.000000000               0.339437500               0.000000000               0.000000000               0.362375000               0.000000000               0.000000000               0.385312500               0.000000000               0.000000000               0.408250000               0.000000000               0.000000000               0.431187500               0.000000000               0.000000000               0.454125000               0.000000000               0.000000000               0.477062500               0.000000000               0.000000000               0.500000000               0.000000000               0.000000000               0.132359569               0.013036280               0.000000000               0.155337096               0.016127762               0.000000000               0.178314623               0.019219245               0.000000000               0.201292150               0.022310727               0.000000000               0.224269676               0.025402210               0.000000000               0.247247203               0.028493692               0.000000000               0.270224730               0.031585175               0.000000000               0.293202257               0.034676657               0.000000000               0.316179784               0.037768140               0.000000000               0.339157311               0.040859622               0.000000000               0.362134838               0.043951105               0.000000000               0.385112365               0.047042587               0.000000000               0.408089892               0.050134070               0.000000000               0.431067419               0.053225552               0.000000000               0.454044946               0.056317035               0.000000000               0.477022473               0.059408517               0.000000000               0.500000000               0.062500000               0.000000000               0.130444442               0.025947013               0.000000000               0.153541665               0.032137825               0.000000000               0.176638887               0.038328636               0.000000000               0.199736109               0.044519448               0.000000000               0.222833332               0.050710260               0.000000000               0.245930554               0.056901071               0.000000000               0.269027776               0.063091883               0.000000000               0.292124999               0.069282695               0.000000000               0.315222221               0.075473506               0.000000000               0.338319444               0.081664318               0.000000000               0.361416666               0.087855130               0.000000000               0.384513888               0.094045942               0.000000000               0.407611111               0.100236753               0.000000000               0.430708333               0.106427565               0.000000000               0.453805555               0.112618377               0.000000000               0.476902778               0.118809188               0.000000000               0.500000000               0.125000000               0.000000000               0.127273065               0.038607862               0.000000000               0.150568498               0.047913621               0.000000000               0.173863932               0.057219379               0.000000000               0.197159365               0.066525138               0.000000000               0.220454798               0.075830897               0.000000000               0.243750232               0.085136655               0.000000000               0.267045665               0.094442414               0.000000000               0.290341099               0.103748172               0.000000000               0.313636532               0.113053931               0.000000000               0.336931966               0.122359690               0.000000000               0.360227399               0.131665448               0.000000000               0.383522833               0.140971207               0.000000000               0.406818266               0.150276966               0.000000000               0.430113700               0.159582724               0.000000000               0.453409133               0.168888483               0.000000000               0.476704567               0.178194241               0.000000000               0.500000000               0.187500000               0.000000000               0.122875978               0.050896897               0.000000000               0.146446229               0.063340840               0.000000000               0.170016481               0.075784784               0.000000000               0.193586732               0.088228728               0.000000000               0.217156983               0.100672672               0.000000000               0.240727235               0.113116616               0.000000000               0.264297486               0.125560560               0.000000000               0.287867738               0.138004504               0.000000000               0.311437989               0.150448448               0.000000000               0.335008240               0.162892392               0.000000000               0.358578492               0.175336336               0.000000000               0.382148743               0.187780280               0.000000000               0.405718994               0.200224224               0.000000000               0.429289246               0.212668168               0.000000000               0.452859497               0.225112112               0.000000000               0.476429749               0.237556056               0.000000000               0.500000000               0.250000000               0.000000000               0.117295528               0.062695766               0.000000000               0.141214558               0.078308531               0.000000000               0.165133587               0.093921295               0.000000000               0.189052617               0.109534060               0.000000000               0.212971646               0.125146824               0.000000000               0.236890676               0.140759589               0.000000000               0.260809705               0.156372354               0.000000000               0.284728735               0.171985118               0.000000000               0.308647764               0.187597883               0.000000000               0.332566794               0.203210648               0.000000000               0.356485823               0.218823412               0.000000000               0.380404853               0.234436177               0.000000000               0.404323882               0.250048941               0.000000000               0.428242912               0.265661706               0.000000000               0.452161941               0.281274471               0.000000000               0.476080971               0.296887235               0.000000000               0.500000000               0.312500000               0.000000000               0.110585458               0.073890841               0.000000000               0.134923867               0.092710163               0.000000000               0.159262276               0.111529486               0.000000000               0.183600685               0.130348808               0.000000000               0.207939094               0.149168131               0.000000000               0.232277503               0.167987453               0.000000000               0.256615912               0.186806776               0.000000000               0.280954320               0.205626098               0.000000000               0.305292729               0.224445420               0.000000000               0.329631138               0.243264743               0.000000000               0.353969547               0.262084065               0.000000000               0.378307956               0.280903388               0.000000000               0.402646365               0.299722710               0.000000000               0.426984773               0.318542033               0.000000000               0.451323182               0.337361355               0.000000000               0.475661591               0.356180678               0.000000000               0.500000000               0.375000000               0.000000000               0.102810390               0.084374307               0.000000000               0.127634741               0.106444663               0.000000000               0.152459092               0.128515018               0.000000000               0.177283442               0.150585374               0.000000000               0.202107793               0.172655730               0.000000000               0.226932143               0.194726086               0.000000000               0.251756494               0.216796442               0.000000000               0.276580845               0.238866798               0.000000000               0.301405195               0.260937153               0.000000000               0.326229546               0.283007509               0.000000000               0.351053896               0.305077865               0.000000000               0.375878247               0.327148221               0.000000000               0.400702598               0.349218577               0.000000000               0.425526948               0.371288933               0.000000000               0.450351299               0.393359288               0.000000000               0.475175649               0.415429644               0.000000000               0.500000000               0.437500000               0.000000000               0.094045202               0.094045202               0.000000000               0.119417377               0.119417377               0.000000000               0.144789552               0.144789552               0.000000000               0.170161727               0.170161727               0.000000000               0.195533901               0.195533901               0.000000000               0.220906076               0.220906076               0.000000000               0.246278251               0.246278251               0.000000000               0.271650426               0.271650426               0.000000000               0.297022601               0.297022601               0.000000000               0.322394776               0.322394776               0.000000000               0.347766951               0.347766951               0.000000000               0.373139126               0.373139126               0.000000000               0.398511300               0.398511300               0.000000000               0.423883475               0.423883475               0.000000000               0.449255650               0.449255650               0.000000000               0.474627825               0.474627825               0.000000000               0.500000000               0.500000000               0.000000000               0.084374307               0.102810390               0.000000000               0.106444663               0.127634741               0.000000000               0.128515018               0.152459092               0.000000000               0.150585374               0.177283442               0.000000000               0.172655730               0.202107793               0.000000000               0.194726086               0.226932143               0.000000000               0.216796442               0.251756494               0.000000000               0.238866798               0.276580845               0.000000000               0.260937153               0.301405195               0.000000000               0.283007509               0.326229546               0.000000000               0.305077865               0.351053896               0.000000000               0.327148221               0.375878247               0.000000000               0.349218577               0.400702598               0.000000000               0.371288933               0.425526948               0.000000000               0.393359288               0.450351299               0.000000000               0.415429644               0.475175649               0.000000000               0.437500000               0.500000000               0.000000000               0.073890841               0.110585458               0.000000000               0.092710163               0.134923867               0.000000000               0.111529486               0.159262276               0.000000000               0.130348808               0.183600685               0.000000000               0.149168131               0.207939094               0.000000000               0.167987453               0.232277503               0.000000000               0.186806776               0.256615912               0.000000000               0.205626098               0.280954320               0.000000000               0.224445420               0.305292729               0.000000000               0.243264743               0.329631138               0.000000000               0.262084065               0.353969547               0.000000000               0.280903388               0.378307956               0.000000000               0.299722710               0.402646365               0.000000000               0.318542033               0.426984773               0.000000000               0.337361355               0.451323182               0.000000000               0.356180678               0.475661591               0.000000000               0.375000000               0.500000000               0.000000000               0.062695766               0.117295528               0.000000000               0.078308531               0.141214558               0.000000000               0.093921295               0.165133587               0.000000000               0.109534060               0.189052617               0.000000000               0.125146824               0.212971646               0.000000000               0.140759589               0.236890676               0.000000000               0.156372354               0.260809705               0.000000000               0.171985118               0.284728735               0.000000000               0.187597883               0.308647764               0.000000000               0.203210648               0.332566794               0.000000000               0.218823412               0.356485823               0.000000000               0.234436177               0.380404853               0.000000000               0.250048941               0.404323882               0.000000000               0.265661706               0.428242912               0.000000000               0.281274471               0.452161941               0.000000000               0.296887235               0.476080971               0.000000000               0.312500000               0.500000000               0.000000000               0.050896897               0.122875978               0.000000000               0.063340840               0.146446229               0.000000000               0.075784784               0.170016481               0.000000000               0.088228728               0.193586732               0.000000000               0.100672672               0.217156983               0.000000000               0.113116616               0.240727235               0.000000000               0.125560560               0.264297486               0.000000000               0.138004504               0.287867738               0.000000000               0.150448448               0.311437989               0.000000000               0.162892392               0.335008240               0.000000000               0.175336336               0.358578492               0.000000000               0.187780280               0.382148743               0.000000000               0.200224224               0.405718994               0.000000000               0.212668168               0.429289246               0.000000000               0.225112112               0.452859497               0.000000000               0.237556056               0.476429749               0.000000000               0.250000000               0.500000000               0.000000000               0.038607862               0.127273065               0.000000000               0.047913621               0.150568498               0.000000000               0.057219379               0.173863932               0.000000000               0.066525138               0.197159365               0.000000000               0.075830897               0.220454798               0.000000000               0.085136655               0.243750232               0.000000000               0.094442414               0.267045665               0.000000000               0.103748172               0.290341099               0.000000000               0.113053931               0.313636532               0.000000000               0.122359690               0.336931966               0.000000000               0.131665448               0.360227399               0.000000000               0.140971207               0.383522833               0.000000000               0.150276966               0.406818266               0.000000000               0.159582724               0.430113700               0.000000000               0.168888483               0.453409133               0.000000000               0.178194241               0.476704567               0.000000000               0.187500000               0.500000000               0.000000000               0.025947013               0.130444442               0.000000000               0.032137825               0.153541665               0.000000000               0.038328636               0.176638887               0.000000000               0.044519448               0.199736109               0.000000000               0.050710260               0.222833332               0.000000000               0.056901071               0.245930554               0.000000000               0.063091883               0.269027776               0.000000000               0.069282695               0.292124999               0.000000000               0.075473506               0.315222221               0.000000000               0.081664318               0.338319444               0.000000000               0.087855130               0.361416666               0.000000000               0.094045942               0.384513888               0.000000000               0.100236753               0.407611111               0.000000000               0.106427565               0.430708333               0.000000000               0.112618377               0.453805555               0.000000000               0.118809188               0.476902778               0.000000000               0.125000000               0.500000000               0.000000000               0.013036280               0.132359569               0.000000000               0.016127762               0.155337096               0.000000000               0.019219245               0.178314623               0.000000000               0.022310727               0.201292150               0.000000000               0.025402210               0.224269676               0.000000000               0.028493692               0.247247203               0.000000000               0.031585175               0.270224730               0.000000000               0.034676657               0.293202257               0.000000000               0.037768140               0.316179784               0.000000000               0.040859622               0.339157311               0.000000000               0.043951105               0.362134838               0.000000000               0.047042587               0.385112365               0.000000000               0.050134070               0.408089892               0.000000000               0.053225552               0.431067419               0.000000000               0.056317035               0.454044946               0.000000000               0.059408517               0.477022473               0.000000000               0.062500000               0.500000000               0.000000000               0.000000000               0.133000000               0.000000000               0.000000000               0.155937500               0.000000000               0.000000000               0.178875000               0.000000000               0.000000000               0.201812500               0.000000000               0.000000000               0.224750000               0.000000000               0.000000000               0.247687500               0.000000000               0.000000000               0.270625000               0.000000000               0.000000000               0.293562500               0.000000000               0.000000000               0.316500000               0.000000000               0.000000000               0.339437500               0.000000000               0.000000000               0.362375000               0.000000000               0.000000000               0.385312500               0.000000000               0.000000000               0.408250000               0.000000000               0.000000000               0.431187500               0.000000000               0.000000000               0.454125000               0.000000000               0.000000000               0.477062500               0.000000000               0.000000000               0.500000000               0.000000000               0.133000000               0.000000000               0.000000000               0.155937500               0.000000000               0.000000000               0.178875000               0.000000000               0.000000000               0.201812500               0.000000000               0.000000000               0.224750000               0.000000000               0.000000000               0.247687500               0.000000000               0.000000000               0.270625000               0.000000000               0.000000000               0.293562500               0.000000000               0.000000000               0.316500000               0.000000000               0.000000000               0.339437500               0.000000000               0.000000000               0.362375000               0.000000000               0.000000000               0.385312500               0.000000000               0.000000000               0.408250000               0.000000000               0.000000000               0.431187500               0.000000000               0.000000000               0.454125000               0.000000000               0.000000000               0.477062500               0.000000000               0.000000000               0.500000000               0.000000000               0.000000000               0.132359569              -0.013036280               0.000000000               0.155337096              -0.016127762               0.000000000               0.178314623              -0.019219245               0.000000000               0.201292150              -0.022310727               0.000000000               0.224269676              -0.025402210               0.000000000               0.247247203              -0.028493692               0.000000000               0.270224730              -0.031585175               0.000000000               0.293202257              -0.034676657               0.000000000               0.316179784              -0.037768140               0.000000000               0.339157311              -0.040859622               0.000000000               0.362134838              -0.043951105               0.000000000               0.385112365              -0.047042587               0.000000000               0.408089892              -0.050134070               0.000000000               0.431067419              -0.053225552               0.000000000               0.454044946              -0.056317035               0.000000000               0.477022473              -0.059408517               0.000000000               0.500000000              -0.062500000               0.000000000               0.130444442              -0.025947013               0.000000000               0.153541665              -0.032137825               0.000000000               0.176638887              -0.038328636               0.000000000               0.199736109              -0.044519448               0.000000000               0.222833332              -0.050710260               0.000000000               0.245930554              -0.056901071               0.000000000               0.269027776              -0.063091883               0.000000000               0.292124999              -0.069282695               0.000000000               0.315222221              -0.075473506               0.000000000               0.338319444              -0.081664318               0.000000000               0.361416666              -0.087855130               0.000000000               0.384513888              -0.094045942               0.000000000               0.407611111              -0.100236753               0.000000000               0.430708333              -0.106427565               0.000000000               0.453805555              -0.112618377               0.000000000               0.476902778              -0.118809188               0.000000000               0.500000000              -0.125000000               0.000000000               0.127273065              -0.038607862               0.000000000               0.150568498              -0.047913621               0.000000000               0.173863932              -0.057219379               0.000000000               0.197159365              -0.066525138               0.000000000               0.220454798              -0.075830897               0.000000000               0.243750232              -0.085136655               0.000000000               0.267045665              -0.094442414               0.000000000               0.290341099              -0.103748172               0.000000000               0.313636532              -0.113053931               0.000000000               0.336931966              -0.122359690               0.000000000               0.360227399              -0.131665448               0.000000000               0.383522833              -0.140971207               0.000000000               0.406818266              -0.150276966               0.000000000               0.430113700              -0.159582724               0.000000000               0.453409133              -0.168888483               0.000000000               0.476704567              -0.178194241               0.000000000               0.500000000              -0.187500000               0.000000000               0.122875978              -0.050896897               0.000000000               0.146446229              -0.063340840               0.000000000               0.170016481              -0.075784784               0.000000000               0.193586732              -0.088228728               0.000000000               0.217156983              -0.100672672               0.000000000               0.240727235              -0.113116616               0.000000000               0.264297486              -0.125560560               0.000000000               0.287867738              -0.138004504               0.000000000               0.311437989              -0.150448448               0.000000000               0.335008240              -0.162892392               0.000000000               0.358578492              -0.175336336               0.000000000               0.382148743              -0.187780280               0.000000000               0.405718994              -0.200224224               0.000000000               0.429289246              -0.212668168               0.000000000               0.452859497              -0.225112112               0.000000000               0.476429749              -0.237556056               0.000000000               0.500000000              -0.250000000               0.000000000               0.117295528              -0.062695766               0.000000000               0.141214558              -0.078308531               0.000000000               0.165133587              -0.093921295               0.000000000               0.189052617              -0.109534060               0.000000000               0.212971646              -0.125146824               0.000000000               0.236890676              -0.140759589               0.000000000               0.260809705              -0.156372354               0.000000000               0.284728735              -0.171985118               0.000000000               0.308647764              -0.187597883               0.000000000               0.332566794              -0.203210648               0.000000000               0.356485823              -0.218823412               0.000000000               0.380404853              -0.234436177               0.000000000               0.404323882              -0.250048941               0.000000000               0.428242912              -0.265661706               0.000000000               0.452161941              -0.281274471               0.000000000               0.476080971              -0.296887235               0.000000000               0.500000000              -0.312500000               0.000000000               0.110585458              -0.073890841               0.000000000               0.134923867              -0.092710163               0.000000000               0.159262276              -0.111529486               0.000000000               0.183600685              -0.130348808               0.000000000               0.207939094              -0.149168131               0.000000000               0.232277503              -0.167987453               0.000000000               0.256615912              -0.186806776               0.000000000               0.280954320              -0.205626098               0.000000000               0.305292729              -0.224445420               0.000000000               0.329631138              -0.243264743               0.000000000               0.353969547              -0.262084065               0.000000000               0.378307956              -0.280903388               0.000000000               0.402646365              -0.299722710               0.000000000               0.426984773              -0.318542033               0.000000000               0.451323182              -0.337361355               0.000000000               0.475661591              -0.356180678               0.000000000               0.500000000              -0.375000000               0.000000000               0.102810390              -0.084374307               0.000000000               0.127634741              -0.106444663               0.000000000               0.152459092              -0.128515018               0.000000000               0.177283442              -0.150585374               0.000000000               0.202107793              -0.172655730               0.000000000               0.226932143              -0.194726086               0.000000000               0.251756494              -0.216796442               0.000000000               0.276580845              -0.238866798               0.000000000               0.301405195              -0.260937153               0.000000000               0.326229546              -0.283007509               0.000000000               0.351053896              -0.305077865               0.000000000               0.375878247              -0.327148221               0.000000000               0.400702598              -0.349218577               0.000000000               0.425526948              -0.371288933               0.000000000               0.450351299              -0.393359288               0.000000000               0.475175649              -0.415429644               0.000000000               0.500000000              -0.437500000               0.000000000               0.094045202              -0.094045202               0.000000000               0.119417377              -0.119417377               0.000000000               0.144789552              -0.144789552               0.000000000               0.170161727              -0.170161727               0.000000000               0.195533901              -0.195533901               0.000000000               0.220906076              -0.220906076               0.000000000               0.246278251              -0.246278251               0.000000000               0.271650426              -0.271650426               0.000000000               0.297022601              -0.297022601               0.000000000               0.322394776              -0.322394776               0.000000000               0.347766951              -0.347766951               0.000000000               0.373139126              -0.373139126               0.000000000               0.398511300              -0.398511300               0.000000000               0.423883475              -0.423883475               0.000000000               0.449255650              -0.449255650               0.000000000               0.474627825              -0.474627825               0.000000000               0.500000000              -0.500000000               0.000000000               0.084374307              -0.102810390               0.000000000               0.106444663              -0.127634741               0.000000000               0.128515018              -0.152459092               0.000000000               0.150585374              -0.177283442               0.000000000               0.172655730              -0.202107793               0.000000000               0.194726086              -0.226932143               0.000000000               0.216796442              -0.251756494               0.000000000               0.238866798              -0.276580845               0.000000000               0.260937153              -0.301405195               0.000000000               0.283007509              -0.326229546               0.000000000               0.305077865              -0.351053896               0.000000000               0.327148221              -0.375878247               0.000000000               0.349218577              -0.400702598               0.000000000               0.371288933              -0.425526948               0.000000000               0.393359288              -0.450351299               0.000000000               0.415429644              -0.475175649               0.000000000               0.437500000              -0.500000000               0.000000000               0.073890841              -0.110585458               0.000000000               0.092710163              -0.134923867               0.000000000               0.111529486              -0.159262276               0.000000000               0.130348808              -0.183600685               0.000000000               0.149168131              -0.207939094               0.000000000               0.167987453              -0.232277503               0.000000000               0.186806776              -0.256615912               0.000000000               0.205626098              -0.280954320               0.000000000               0.224445420              -0.305292729               0.000000000               0.243264743              -0.329631138               0.000000000               0.262084065              -0.353969547               0.000000000               0.280903388              -0.378307956               0.000000000               0.299722710              -0.402646365               0.000000000               0.318542033              -0.426984773               0.000000000               0.337361355              -0.451323182               0.000000000               0.356180678              -0.475661591               0.000000000               0.375000000              -0.500000000               0.000000000               0.062695766              -0.117295528               0.000000000               0.078308531              -0.141214558               0.000000000               0.093921295              -0.165133587               0.000000000               0.109534060              -0.189052617               0.000000000               0.125146824              -0.212971646               0.000000000               0.140759589              -0.236890676               0.000000000               0.156372354              -0.260809705               0.000000000               0.171985118              -0.284728735               0.000000000               0.187597883              -0.308647764               0.000000000               0.203210648              -0.332566794               0.000000000               0.218823412              -0.356485823               0.000000000               0.234436177              -0.380404853               0.000000000               0.250048941              -0.404323882               0.000000000               0.265661706              -0.428242912               0.000000000               0.281274471              -0.452161941               0.000000000               0.296887235              -0.476080971               0.000000000               0.312500000              -0.500000000               0.000000000               0.050896897              -0.122875978               0.000000000               0.063340840              -0.146446229               0.000000000               0.075784784              -0.170016481               0.000000000               0.088228728              -0.193586732               0.000000000               0.100672672              -0.217156983               0.000000000               0.113116616              -0.240727235               0.000000000               0.125560560              -0.264297486               0.000000000               0.138004504              -0.287867738               0.000000000               0.150448448              -0.311437989               0.000000000               0.162892392              -0.335008240               0.000000000               0.175336336              -0.358578492               0.000000000               0.187780280              -0.382148743               0.000000000               0.200224224              -0.405718994               0.000000000               0.212668168              -0.429289246               0.000000000               0.225112112              -0.452859497               0.000000000               0.237556056              -0.476429749               0.000000000               0.250000000              -0.500000000               0.000000000               0.038607862              -0.127273065               0.000000000               0.047913621              -0.150568498               0.000000000               0.057219379              -0.173863932               0.000000000               0.066525138              -0.197159365               0.000000000               0.075830897              -0.220454798               0.000000000               0.085136655              -0.243750232               0.000000000               0.094442414              -0.267045665               0.000000000               0.103748172              -0.290341099               0.000000000               0.113053931              -0.313636532               0.000000000               0.122359690              -0.336931966               0.000000000               0.131665448              -0.360227399               0.000000000               0.140971207              -0.383522833               0.000000000               0.150276966              -0.406818266               0.000000000               0.159582724              -0.430113700               0.000000000               0.168888483              -0.453409133               0.000000000               0.178194241              -0.476704567               0.000000000               0.187500000              -0.500000000               0.000000000               0.025947013              -0.130444442               0.000000000               0.032137825              -0.153541665               0.000000000               0.038328636              -0.176638887               0.000000000               0.044519448              -0.199736109               0.000000000               0.050710260              -0.222833332               0.000000000               0.056901071              -0.245930554               0.000000000               0.063091883              -0.269027776               0.000000000               0.069282695              -0.292124999               0.000000000               0.075473506              -0.315222221               0.000000000               0.081664318              -0.338319444               0.000000000               0.087855130              -0.361416666               0.000000000               0.094045942              -0.384513888               0.000000000               0.100236753              -0.407611111               0.000000000               0.106427565              -0.430708333               0.000000000               0.112618377              -0.453805555               0.000000000               0.118809188              -0.476902778               0.000000000               0.125000000              -0.500000000               0.000000000               0.013036280              -0.132359569               0.000000000               0.016127762              -0.155337096               0.000000000               0.019219245              -0.178314623               0.000000000               0.022310727              -0.201292150               0.000000000               0.025402210              -0.224269676               0.000000000               0.028493692              -0.247247203               0.000000000               0.031585175              -0.270224730               0.000000000               0.034676657              -0.293202257               0.000000000               0.037768140              -0.316179784               0.000000000               0.040859622              -0.339157311               0.000000000               0.043951105              -0.362134838               0.000000000               0.047042587              -0.385112365               0.000000000               0.050134070              -0.408089892               0.000000000               0.053225552              -0.431067419               0.000000000               0.056317035              -0.454044946               0.000000000               0.059408517              -0.477022473               0.000000000               0.062500000              -0.500000000               0.000000000               0.000000000              -0.133000000               0.000000000               0.000000000              -0.155937500               0.000000000               0.000000000              -0.178875000               0.000000000               0.000000000              -0.201812500               0.000000000               0.000000000              -0.224750000               0.000000000               0.000000000              -0.247687500               0.000000000               0.000000000              -0.270625000               0.000000000               0.000000000              -0.293562500               0.000000000               0.000000000              -0.316500000               0.000000000               0.000000000              -0.339437500               0.000000000               0.000000000              -0.362375000               0.000000000               0.000000000              -0.385312500               0.000000000               0.000000000              -0.408250000               0.000000000               0.000000000              -0.431187500               0.000000000               0.000000000              -0.454125000               0.000000000               0.000000000              -0.477062500               0.000000000               0.000000000              -0.500000000               0.000000000              -0.133000000               0.000000000               0.000000000              -0.155937500               0.000000000               0.000000000              -0.178875000               0.000000000               0.000000000              -0.201812500               0.000000000               0.000000000              -0.224750000               0.000000000               0.000000000              -0.247687500               0.000000000               0.000000000              -0.270625000               0.000000000               0.000000000              -0.293562500               0.000000000               0.000000000              -0.316500000               0.000000000               0.000000000              -0.339437500               0.000000000               0.000000000              -0.362375000               0.000000000               0.000000000              -0.385312500               0.000000000               0.000000000              -0.408250000               0.000000000               0.000000000              -0.431187500               0.000000000               0.000000000              -0.454125000               0.000000000               0.000000000              -0.477062500               0.000000000               0.000000000              -0.500000000               0.000000000               0.000000000              -0.132359569              -0.013036280               0.000000000              -0.155337096              -0.016127762               0.000000000              -0.178314623              -0.019219245               0.000000000              -0.201292150              -0.022310727               0.000000000              -0.224269676              -0.025402210               0.000000000              -0.247247203              -0.028493692               0.000000000              -0.270224730              -0.031585175               0.000000000              -0.293202257              -0.034676657               0.000000000              -0.316179784              -0.037768140               0.000000000              -0.339157311              -0.040859622               0.000000000              -0.362134838              -0.043951105               0.000000000              -0.385112365              -0.047042587               0.000000000              -0.408089892              -0.050134070               0.000000000              -0.431067419              -0.053225552               0.000000000              -0.454044946              -0.056317035               0.000000000              -0.477022473              -0.059408517               0.000000000              -0.500000000              -0.062500000               0.000000000              -0.130444442              -0.025947013               0.000000000              -0.153541665              -0.032137825               0.000000000              -0.176638887              -0.038328636               0.000000000              -0.199736109              -0.044519448               0.000000000              -0.222833332              -0.050710260               0.000000000              -0.245930554              -0.056901071               0.000000000              -0.269027776              -0.063091883               0.000000000              -0.292124999              -0.069282695               0.000000000              -0.315222221              -0.075473506               0.000000000              -0.338319444              -0.081664318               0.000000000              -0.361416666              -0.087855130               0.000000000              -0.384513888              -0.094045942               0.000000000              -0.407611111              -0.100236753               0.000000000              -0.430708333              -0.106427565               0.000000000              -0.453805555              -0.112618377               0.000000000              -0.476902778              -0.118809188               0.000000000              -0.500000000              -0.125000000               0.000000000              -0.127273065              -0.038607862               0.000000000              -0.150568498              -0.047913621               0.000000000              -0.173863932              -0.057219379               0.000000000              -0.197159365              -0.066525138               0.000000000              -0.220454798              -0.075830897               0.000000000              -0.243750232              -0.085136655               0.000000000              -0.267045665              -0.094442414               0.000000000              -0.290341099              -0.103748172               0.000000000              -0.313636532              -0.113053931               0.000000000              -0.336931966              -0.122359690               0.000000000              -0.360227399              -0.131665448               0.000000000              -0.383522833              -0.140971207               0.000000000              -0.406818266              -0.150276966               0.000000000              -0.430113700              -0.159582724               0.000000000              -0.453409133              -0.168888483               0.000000000              -0.476704567              -0.178194241               0.000000000              -0.500000000              -0.187500000               0.000000000              -0.122875978              -0.050896897               0.000000000              -0.146446229              -0.063340840               0.000000000              -0.170016481              -0.075784784               0.000000000              -0.193586732              -0.088228728               0.000000000              -0.217156983              -0.100672672               0.000000000              -0.240727235              -0.113116616               0.000000000              -0.264297486              -0.125560560               0.000000000              -0.287867738              -0.138004504               0.000000000              -0.311437989              -0.150448448               0.000000000              -0.335008240              -0.162892392               0.000000000              -0.358578492              -0.175336336               0.000000000              -0.382148743              -0.187780280               0.000000000              -0.405718994              -0.200224224               0.000000000              -0.429289246              -0.212668168               0.000000000              -0.452859497              -0.225112112               0.000000000              -0.476429749              -0.237556056               0.000000000              -0.500000000              -0.250000000               0.000000000              -0.117295528              -0.062695766               0.000000000              -0.141214558              -0.078308531               0.000000000              -0.165133587              -0.093921295               0.000000000              -0.189052617              -0.109534060               0.000000000              -0.212971646              -0.125146824               0.000000000              -0.236890676              -0.140759589               0.000000000              -0.260809705              -0.156372354               0.000000000              -0.284728735              -0.171985118               0.000000000              -0.308647764              -0.187597883               0.000000000              -0.332566794              -0.203210648               0.000000000              -0.356485823              -0.218823412               0.000000000              -0.380404853              -0.234436177               0.000000000              -0.404323882              -0.250048941               0.000000000              -0.428242912              -0.265661706               0.000000000              -0.452161941              -0.281274471               0.000000000              -0.476080971              -0.296887235               0.000000000              -0.500000000              -0.312500000               0.000000000              -0.110585458              -0.073890841               0.000000000              -0.134923867              -0.092710163               0.000000000              -0.159262276              -0.111529486               0.000000000              -0.183600685              -0.130348808               0.000000000              -0.207939094              -0.149168131               0.000000000              -0.232277503              -0.167987453               0.000000000              -0.256615912              -0.186806776               0.000000000              -0.280954320              -0.205626098               0.000000000              -0.305292729              -0.224445420               0.000000000              -0.329631138              -0.243264743               0.000000000              -0.353969547              -0.262084065               0.000000000              -0.378307956              -0.280903388               0.000000000              -0.402646365              -0.299722710               0.000000000              -0.426984773              -0.318542033               0.000000000              -0.451323182              -0.337361355               0.000000000              -0.475661591              -0.356180678               0.000000000              -0.500000000              -0.375000000               0.000000000              -0.102810390              -0.084374307               0.000000000              -0.127634741              -0.106444663               0.000000000              -0.152459092              -0.128515018               0.000000000              -0.177283442              -0.150585374               0.000000000              -0.202107793              -0.172655730               0.000000000              -0.226932143              -0.194726086               0.000000000              -0.251756494              -0.216796442               0.000000000              -0.276580845              -0.238866798               0.000000000              -0.301405195              -0.260937153               0.000000000              -0.326229546              -0.283007509               0.000000000              -0.351053896              -0.305077865               0.000000000              -0.375878247              -0.327148221               0.000000000              -0.400702598              -0.349218577               0.000000000              -0.425526948              -0.371288933               0.000000000              -0.450351299              -0.393359288               0.000000000              -0.475175649              -0.415429644               0.000000000              -0.500000000              -0.437500000               0.000000000              -0.094045202              -0.094045202               0.000000000              -0.119417377              -0.119417377               0.000000000              -0.144789552              -0.144789552               0.000000000              -0.170161727              -0.170161727               0.000000000              -0.195533901              -0.195533901               0.000000000              -0.220906076              -0.220906076               0.000000000              -0.246278251              -0.246278251               0.000000000              -0.271650426              -0.271650426               0.000000000              -0.297022601              -0.297022601               0.000000000              -0.322394776              -0.322394776               0.000000000              -0.347766951              -0.347766951               0.000000000              -0.373139126              -0.373139126               0.000000000              -0.398511300              -0.398511300               0.000000000              -0.423883475              -0.423883475               0.000000000              -0.449255650              -0.449255650               0.000000000              -0.474627825              -0.474627825               0.000000000              -0.500000000              -0.500000000               0.000000000              -0.084374307              -0.102810390               0.000000000              -0.106444663              -0.127634741               0.000000000              -0.128515018              -0.152459092               0.000000000              -0.150585374              -0.177283442               0.000000000              -0.172655730              -0.202107793               0.000000000              -0.194726086              -0.226932143               0.000000000              -0.216796442              -0.251756494               0.000000000              -0.238866798              -0.276580845               0.000000000              -0.260937153              -0.301405195               0.000000000              -0.283007509              -0.326229546               0.000000000              -0.305077865              -0.351053896               0.000000000              -0.327148221              -0.375878247               0.000000000              -0.349218577              -0.400702598               0.000000000              -0.371288933              -0.425526948               0.000000000              -0.393359288              -0.450351299               0.000000000              -0.415429644              -0.475175649               0.000000000              -0.437500000              -0.500000000               0.000000000              -0.073890841              -0.110585458               0.000000000              -0.092710163              -0.134923867               0.000000000              -0.111529486              -0.159262276               0.000000000              -0.130348808              -0.183600685               0.000000000              -0.149168131              -0.207939094               0.000000000              -0.167987453              -0.232277503               0.000000000              -0.186806776              -0.256615912               0.000000000              -0.205626098              -0.280954320               0.000000000              -0.224445420              -0.305292729               0.000000000              -0.243264743              -0.329631138               0.000000000              -0.262084065              -0.353969547               0.000000000              -0.280903388              -0.378307956               0.000000000              -0.299722710              -0.402646365               0.000000000              -0.318542033              -0.426984773               0.000000000              -0.337361355              -0.451323182               0.000000000              -0.356180678              -0.475661591               0.000000000              -0.375000000              -0.500000000               0.000000000              -0.062695766              -0.117295528               0.000000000              -0.078308531              -0.141214558               0.000000000              -0.093921295              -0.165133587               0.000000000              -0.109534060              -0.189052617               0.000000000              -0.125146824              -0.212971646               0.000000000              -0.140759589              -0.236890676               0.000000000              -0.156372354              -0.260809705               0.000000000              -0.171985118              -0.284728735               0.000000000              -0.187597883              -0.308647764               0.000000000              -0.203210648              -0.332566794               0.000000000              -0.218823412              -0.356485823               0.000000000              -0.234436177              -0.380404853               0.000000000              -0.250048941              -0.404323882               0.000000000              -0.265661706              -0.428242912               0.000000000              -0.281274471              -0.452161941               0.000000000              -0.296887235              -0.476080971               0.000000000              -0.312500000              -0.500000000               0.000000000              -0.050896897              -0.122875978               0.000000000              -0.063340840              -0.146446229               0.000000000              -0.075784784              -0.170016481               0.000000000              -0.088228728              -0.193586732               0.000000000              -0.100672672              -0.217156983               0.000000000              -0.113116616              -0.240727235               0.000000000              -0.125560560              -0.264297486               0.000000000              -0.138004504              -0.287867738               0.000000000              -0.150448448              -0.311437989               0.000000000              -0.162892392              -0.335008240               0.000000000              -0.175336336              -0.358578492               0.000000000              -0.187780280              -0.382148743               0.000000000              -0.200224224              -0.405718994               0.000000000              -0.212668168              -0.429289246               0.000000000              -0.225112112              -0.452859497               0.000000000              -0.237556056              -0.476429749               0.000000000              -0.250000000              -0.500000000               0.000000000              -0.038607862              -0.127273065               0.000000000              -0.047913621              -0.150568498               0.000000000              -0.057219379              -0.173863932               0.000000000              -0.066525138              -0.197159365               0.000000000              -0.075830897              -0.220454798               0.000000000              -0.085136655              -0.243750232               0.000000000              -0.094442414              -0.267045665               0.000000000              -0.103748172              -0.290341099               0.000000000              -0.113053931              -0.313636532               0.000000000              -0.122359690              -0.336931966               0.000000000              -0.131665448              -0.360227399               0.000000000              -0.140971207              -0.383522833               0.000000000              -0.150276966              -0.406818266               0.000000000              -0.159582724              -0.430113700               0.000000000              -0.168888483              -0.453409133               0.000000000              -0.178194241              -0.476704567               0.000000000              -0.187500000              -0.500000000               0.000000000              -0.025947013              -0.130444442               0.000000000              -0.032137825              -0.153541665               0.000000000              -0.038328636              -0.176638887               0.000000000              -0.044519448              -0.199736109               0.000000000              -0.050710260              -0.222833332               0.000000000              -0.056901071              -0.245930554               0.000000000              -0.063091883              -0.269027776               0.000000000              -0.069282695              -0.292124999               0.000000000              -0.075473506              -0.315222221               0.000000000              -0.081664318              -0.338319444               0.000000000              -0.087855130              -0.361416666               0.000000000              -0.094045942              -0.384513888               0.000000000              -0.100236753              -0.407611111               0.000000000              -0.106427565              -0.430708333               0.000000000              -0.112618377              -0.453805555               0.000000000              -0.118809188              -0.476902778               0.000000000              -0.125000000              -0.500000000               0.000000000              -0.013036280              -0.132359569               0.000000000              -0.016127762              -0.155337096               0.000000000              -0.019219245              -0.178314623               0.000000000              -0.022310727              -0.201292150               0.000000000              -0.025402210              -0.224269676               0.000000000              -0.028493692              -0.247247203               0.000000000              -0.031585175              -0.270224730               0.000000000              -0.034676657              -0.293202257               0.000000000              -0.037768140              -0.316179784               0.000000000              -0.040859622              -0.339157311               0.000000000              -0.043951105              -0.362134838               0.000000000              -0.047042587              -0.385112365               0.000000000              -0.050134070              -0.408089892               0.000000000              -0.053225552              -0.431067419               0.000000000              -0.056317035              -0.454044946               0.000000000              -0.059408517              -0.477022473               0.000000000              -0.062500000              -0.500000000               0.000000000               0.000000000              -0.133000000               0.000000000               0.000000000              -0.155937500               0.000000000               0.000000000              -0.178875000               0.000000000               0.000000000              -0.201812500               0.000000000               0.000000000              -0.224750000               0.000000000               0.000000000              -0.247687500               0.000000000               0.000000000              -0.270625000               0.000000000               0.000000000              -0.293562500               0.000000000               0.000000000              -0.316500000               0.000000000               0.000000000              -0.339437500               0.000000000               0.000000000              -0.362375000               0.000000000               0.000000000              -0.385312500               0.000000000               0.000000000              -0.408250000               0.000000000               0.000000000              -0.431187500               0.000000000               0.000000000              -0.454125000               0.000000000               0.000000000              -0.477062500               0.000000000               0.000000000              -0.500000000               0.000000000              -0.133000000               0.000000000               0.000000000              -0.155937500               0.000000000               0.000000000              -0.178875000               0.000000000               0.000000000              -0.201812500               0.000000000               0.000000000              -0.224750000               0.000000000               0.000000000              -0.247687500               0.000000000               0.000000000              -0.270625000               0.000000000               0.000000000              -0.293562500               0.000000000               0.000000000              -0.316500000               0.000000000               0.000000000              -0.339437500               0.000000000               0.000000000              -0.362375000               0.000000000               0.000000000              -0.385312500               0.000000000               0.000000000              -0.408250000               0.000000000               0.000000000              -0.431187500               0.000000000               0.000000000              -0.454125000               0.000000000               0.000000000              -0.477062500               0.000000000               0.000000000              -0.500000000               0.000000000               0.000000000              -0.132359569               0.013036280               0.000000000              -0.155337096               0.016127762               0.000000000              -0.178314623               0.019219245               0.000000000              -0.201292150               0.022310727               0.000000000              -0.224269676               0.025402210               0.000000000              -0.247247203               0.028493692               0.000000000              -0.270224730               0.031585175               0.000000000              -0.293202257               0.034676657               0.000000000              -0.316179784               0.037768140               0.000000000              -0.339157311               0.040859622               0.000000000              -0.362134838               0.043951105               0.000000000              -0.385112365               0.047042587               0.000000000              -0.408089892               0.050134070               0.000000000              -0.431067419               0.053225552               0.000000000              -0.454044946               0.056317035               0.000000000              -0.477022473               0.059408517               0.000000000              -0.500000000               0.062500000               0.000000000              -0.130444442               0.025947013               0.000000000              -0.153541665               0.032137825               0.000000000              -0.176638887               0.038328636               0.000000000              -0.199736109               0.044519448               0.000000000              -0.222833332               0.050710260               0.000000000              -0.245930554               0.056901071               0.000000000              -0.269027776               0.063091883               0.000000000              -0.292124999               0.069282695               0.000000000              -0.315222221               0.075473506               0.000000000              -0.338319444               0.081664318               0.000000000              -0.361416666               0.087855130               0.000000000              -0.384513888               0.094045942               0.000000000              -0.407611111               0.100236753               0.000000000              -0.430708333               0.106427565               0.000000000              -0.453805555               0.112618377               0.000000000              -0.476902778               0.118809188               0.000000000              -0.500000000               0.125000000               0.000000000              -0.127273065               0.038607862               0.000000000              -0.150568498               0.047913621               0.000000000              -0.173863932               0.057219379               0.000000000              -0.197159365               0.066525138               0.000000000              -0.220454798               0.075830897               0.000000000              -0.243750232               0.085136655               0.000000000              -0.267045665               0.094442414               0.000000000              -0.290341099               0.103748172               0.000000000              -0.313636532               0.113053931               0.000000000              -0.336931966               0.122359690               0.000000000              -0.360227399               0.131665448               0.000000000              -0.383522833               0.140971207               0.000000000              -0.406818266               0.150276966               0.000000000              -0.430113700               0.159582724               0.000000000              -0.453409133               0.168888483               0.000000000              -0.476704567               0.178194241               0.000000000              -0.500000000               0.187500000               0.000000000              -0.122875978               0.050896897               0.000000000              -0.146446229               0.063340840               0.000000000              -0.170016481               0.075784784               0.000000000              -0.193586732               0.088228728               0.000000000              -0.217156983               0.100672672               0.000000000              -0.240727235               0.113116616               0.000000000              -0.264297486               0.125560560               0.000000000              -0.287867738               0.138004504               0.000000000              -0.311437989               0.150448448               0.000000000              -0.335008240               0.162892392               0.000000000              -0.358578492               0.175336336               0.000000000              -0.382148743               0.187780280               0.000000000              -0.405718994               0.200224224               0.000000000              -0.429289246               0.212668168               0.000000000              -0.452859497               0.225112112               0.000000000              -0.476429749               0.237556056               0.000000000              -0.500000000               0.250000000               0.000000000              -0.117295528               0.062695766               0.000000000              -0.141214558               0.078308531               0.000000000              -0.165133587               0.093921295               0.000000000              -0.189052617               0.109534060               0.000000000              -0.212971646               0.125146824               0.000000000              -0.236890676               0.140759589               0.000000000              -0.260809705               0.156372354               0.000000000              -0.284728735               0.171985118               0.000000000              -0.308647764               0.187597883               0.000000000              -0.332566794               0.203210648               0.000000000              -0.356485823               0.218823412               0.000000000              -0.380404853               0.234436177               0.000000000              -0.404323882               0.250048941               0.000000000              -0.428242912               0.265661706               0.000000000              -0.452161941               0.281274471               0.000000000              -0.476080971               0.296887235               0.000000000              -0.500000000               0.312500000               0.000000000              -0.110585458               0.073890841               0.000000000              -0.134923867               0.092710163               0.000000000              -0.159262276               0.111529486               0.000000000              -0.183600685               0.130348808               0.000000000              -0.207939094               0.149168131               0.000000000              -0.232277503               0.167987453               0.000000000              -0.256615912               0.186806776               0.000000000              -0.280954320               0.205626098               0.000000000              -0.305292729               0.224445420               0.000000000              -0.329631138               0.243264743               0.000000000              -0.353969547               0.262084065               0.000000000              -0.378307956               0.280903388               0.000000000              -0.402646365               0.299722710               0.000000000              -0.426984773               0.318542033               0.000000000              -0.451323182               0.337361355               0.000000000              -0.475661591               0.356180678               0.000000000              -0.500000000               0.375000000               0.000000000              -0.102810390               0.084374307               0.000000000              -0.127634741               0.106444663               0.000000000              -0.152459092               0.128515018               0.000000000              -0.177283442               0.150585374               0.000000000              -0.202107793               0.172655730               0.000000000              -0.226932143               0.194726086               0.000000000              -0.251756494               0.216796442               0.000000000              -0.276580845               0.238866798               0.000000000              -0.301405195               0.260937153               0.000000000              -0.326229546               0.283007509               0.000000000              -0.351053896               0.305077865               0.000000000              -0.375878247               0.327148221               0.000000000              -0.400702598               0.349218577               0.000000000              -0.425526948               0.371288933               0.000000000              -0.450351299               0.393359288               0.000000000              -0.475175649               0.415429644               0.000000000              -0.500000000               0.437500000               0.000000000              -0.094045202               0.094045202               0.000000000              -0.119417377               0.119417377               0.000000000              -0.144789552               0.144789552               0.000000000              -0.170161727               0.170161727               0.000000000              -0.195533901               0.195533901               0.000000000              -0.220906076               0.220906076               0.000000000              -0.246278251               0.246278251               0.000000000              -0.271650426               0.271650426               0.000000000              -0.297022601               0.297022601               0.000000000              -0.322394776               0.322394776               0.000000000              -0.347766951               0.347766951               0.000000000              -0.373139126               0.373139126               0.000000000              -0.398511300               0.398511300               0.000000000              -0.423883475               0.423883475               0.000000000              -0.449255650               0.449255650               0.000000000              -0.474627825               0.474627825               0.000000000              -0.500000000               0.500000000               0.000000000              -0.084374307               0.102810390               0.000000000              -0.106444663               0.127634741               0.000000000              -0.128515018               0.152459092               0.000000000              -0.150585374               0.177283442               0.000000000              -0.172655730               0.202107793               0.000000000              -0.194726086               0.226932143               0.000000000              -0.216796442               0.251756494               0.000000000              -0.238866798               0.276580845               0.000000000              -0.260937153               0.301405195               0.000000000              -0.283007509               0.326229546               0.000000000              -0.305077865               0.351053896               0.000000000              -0.327148221               0.375878247               0.000000000              -0.349218577               0.400702598               0.000000000              -0.371288933               0.425526948               0.000000000              -0.393359288               0.450351299               0.000000000              -0.415429644               0.475175649               0.000000000              -0.437500000               0.500000000               0.000000000              -0.073890841               0.110585458               0.000000000              -0.092710163               0.134923867               0.000000000              -0.111529486               0.159262276               0.000000000              -0.130348808               0.183600685               0.000000000              -0.149168131               0.207939094               0.000000000              -0.167987453               0.232277503               0.000000000              -0.186806776               0.256615912               0.000000000              -0.205626098               0.280954320               0.000000000              -0.224445420               0.305292729               0.000000000              -0.243264743               0.329631138               0.000000000              -0.262084065               0.353969547               0.000000000              -0.280903388               0.378307956               0.000000000              -0.299722710               0.402646365               0.000000000              -0.318542033               0.426984773               0.000000000              -0.337361355               0.451323182               0.000000000              -0.356180678               0.475661591               0.000000000              -0.375000000               0.500000000               0.000000000              -0.062695766               0.117295528               0.000000000              -0.078308531               0.141214558               0.000000000              -0.093921295               0.165133587               0.000000000              -0.109534060               0.189052617               0.000000000              -0.125146824               0.212971646               0.000000000              -0.140759589               0.236890676               0.000000000              -0.156372354               0.260809705               0.000000000              -0.171985118               0.284728735               0.000000000              -0.187597883               0.308647764               0.000000000              -0.203210648               0.332566794               0.000000000              -0.218823412               0.356485823               0.000000000              -0.234436177               0.380404853               0.000000000              -0.250048941               0.404323882               0.000000000              -0.265661706               0.428242912               0.000000000              -0.281274471               0.452161941               0.000000000              -0.296887235               0.476080971               0.000000000              -0.312500000               0.500000000               0.000000000              -0.050896897               0.122875978               0.000000000              -0.063340840               0.146446229               0.000000000              -0.075784784               0.170016481               0.000000000              -0.088228728               0.193586732               0.000000000              -0.100672672               0.217156983               0.000000000              -0.113116616               0.240727235               0.000000000              -0.125560560               0.264297486               0.000000000              -0.138004504               0.287867738               0.000000000              -0.150448448               0.311437989               0.000000000              -0.162892392               0.335008240               0.000000000              -0.175336336               0.358578492               0.000000000              -0.187780280               0.382148743               0.000000000              -0.200224224               0.405718994               0.000000000              -0.212668168               0.429289246               0.000000000              -0.225112112               0.452859497               0.000000000              -0.237556056               0.476429749               0.000000000              -0.250000000               0.500000000               0.000000000              -0.038607862               0.127273065               0.000000000              -0.047913621               0.150568498               0.000000000              -0.057219379               0.173863932               0.000000000              -0.066525138               0.197159365               0.000000000              -0.075830897               0.220454798               0.000000000              -0.085136655               0.243750232               0.000000000              -0.094442414               0.267045665               0.000000000              -0.103748172               0.290341099               0.000000000              -0.113053931               0.313636532               0.000000000              -0.122359690               0.336931966               0.000000000              -0.131665448               0.360227399               0.000000000              -0.140971207               0.383522833               0.000000000              -0.150276966               0.406818266               0.000000000              -0.159582724               0.430113700               0.000000000              -0.168888483               0.453409133               0.000000000              -0.178194241               0.476704567               0.000000000              -0.187500000               0.500000000               0.000000000              -0.025947013               0.130444442               0.000000000              -0.032137825               0.153541665               0.000000000              -0.038328636               0.176638887               0.000000000              -0.044519448               0.199736109               0.000000000              -0.050710260               0.222833332               0.000000000              -0.056901071               0.245930554               0.000000000              -0.063091883               0.269027776               0.000000000              -0.069282695               0.292124999               0.000000000              -0.075473506               0.315222221               0.000000000              -0.081664318               0.338319444               0.000000000              -0.087855130               0.361416666               0.000000000              -0.094045942               0.384513888               0.000000000              -0.100236753               0.407611111               0.000000000              -0.106427565               0.430708333               0.000000000              -0.112618377               0.453805555               0.000000000              -0.118809188               0.476902778               0.000000000              -0.125000000               0.500000000               0.000000000              -0.013036280               0.132359569               0.000000000              -0.016127762               0.155337096               0.000000000              -0.019219245               0.178314623               0.000000000              -0.022310727               0.201292150               0.000000000              -0.025402210               0.224269676               0.000000000              -0.028493692               0.247247203               0.000000000              -0.031585175               0.270224730               0.000000000              -0.034676657               0.293202257               0.000000000              -0.037768140               0.316179784               0.000000000              -0.040859622               0.339157311               0.000000000              -0.043951105               0.362134838               0.000000000              -0.047042587               0.385112365               0.000000000              -0.050134070               0.408089892               0.000000000              -0.053225552               0.431067419               0.000000000              -0.056317035               0.454044946               0.000000000              -0.059408517               0.477022473               0.000000000              -0.062500000               0.500000000               0.000000000               0.000000000               0.133000000               0.000000000               0.000000000               0.155937500               0.000000000               0.000000000               0.178875000               0.000000000               0.000000000               0.201812500               0.000000000               0.000000000               0.224750000               0.000000000               0.000000000               0.247687500               0.000000000               0.000000000               0.270625000               0.000000000               0.000000000               0.293562500               0.000000000               0.000000000               0.316500000               0.000000000               0.000000000               0.339437500               0.000000000               0.000000000               0.362375000               0.000000000               0.000000000               0.385312500               0.000000000               0.000000000               0.408250000               0.000000000               0.000000000               0.431187500               0.000000000               0.000000000               0.454125000               0.000000000               0.000000000               0.477062500               0.000000000               0.000000000               0.500000000               0.000000000 </DataArray>
</Points>
<Cells>
<DataArray type="Int32"                                    Name="connectivity"                                                      NumberOfComponents=" 1" format="ascii">
         0          1         18         17          1          2         19         18          2          3         20         19          3          4         21         20          4          5         22         21          5          6         23         22          6          7         24         23          7          8         25         24          8          9         26         25          9         10         27         26         10         11         28         27         11         12         29         28         12         13         30         29         13         14         31         30         14         15         32         31         15         16         33         32         17         18         35         34         18         19         36         35         19         20         37         36         20         21         38         37         21         22         39         38         22         23         40         39         23         24         41         40         24         25         42         41         25         26         43         42         26         27         44         43         27         28         45         44         28         29         46         45         29         30         47         46         30         31         48         47         31         32         49         48         32         33         50         49         34         35         52         51         35         36         53         52         36         37         54         53         37         38         55         54         38         39         56         55         39         40         57         56         40         41         58         57         41         42         59         58         42         43         60         59         43         44         61         60         44         45         62         61         45         46         63         62         46         47         64         63         47         48         65         64         48         49         66         65         49         50         67         66         51         52         69         68         52         53         70         69         53         54         71         70         54         55         72         71         55         56         73         72         56         57         74         73         57         58         75         74         58         59         76         75         59         60         77         76         60         61         78         77         61         62         79         78         62         63         80         79         63         64         81         80         64         65         82         81         65         66         83         82         66         67         84         83         68         69         86         85         69         70         87         86         70         71         88         87         71         72         89         88         72         73         90         89         73         74         91         90         74         75         92         91         75         76         93         92         76         77         94         93         77         78         95         94         78         79         96         95         79         80         97         96         80         81         98         97         81         82         99         98         82         83        100         99         83         84        101        100         85         86        103        102         86         87        104        103         87         88        105        104         88         89        106        105         89         90        107        106         90         91        108        107         91         92        109        108         92         93        110        109         93         94        111        110         94         95        112        111         95         96        113        112         96         97        114        113         97         98        115        114         98         99        116        115         99        100        117        116        100        101        118        117        102        103        120        119        103        104        121        120        104        105        122        121        105        106        123        122        106        107        124        123        107        108        125        124        108        109        126        125        109        110        127        126        110        111        128        127        111        112        129        128        112        113        130        129        113        114        131        130        114        115        132        131        115        116        133        132        116        117        134        133        117        118        135        134        119        120        137        136        120        121        138        137        121        122        139        138        122        123        140        139        123        124        141        140        124        125        142        141        125        126        143        142        126        127        144        143        127        128        145        144        128        129        146        145        129        130        147        146        130        131        148        147        131        132        149        148        132        133        150        149        133        134        151        150        134        135        152        151        136        137        154        153        137        138        155        154        138        139        156        155        139        140        157        156        140        141        158        157        141        142        159        158        142        143        160        159        143        144        161        160        144        145        162        161        145        146        163        162        146        147        164        163        147        148        165        164        148        149        166        165        149        150        167        166        150        151        168        167        151        152        169        168        153        154        171        170        154        155        172        171        155        156        173        172        156        157        174        173        157        158        175        174        158        159        176        175        159        160        177        176        160        161        178        177        161        162        179        178        162        163        180        179        163        164        181        180        164        165        182        181        165        166        183        182        166        167        184        183        167        168        185        184        168        169        186        185        170        171        188        187        171        172        189        188        172        173        190        189        173        174        191        190        174        175        192        191        175        176        193        192        176        177        194        193        177        178        195        194        178        179        196        195        179        180        197        196        180        181        198        197        181        182        199        198        182        183        200        199        183        184        201        200        184        185        202        201        185        186        203        202        187        188        205        204        188        189        206        205        189        190        207        206        190        191        208        207        191        192        209        208        192        193        210        209        193        194        211        210        194        195        212        211        195        196        213        212        196        197        214        213        197        198        215        214        198        199        216        215        199        200        217        216        200        201        218        217        201        202        219        218        202        203        220        219        204        205        222        221        205        206        223        222        206        207        224        223        207        208        225        224        208        209        226        225        209        210        227        226        210        211        228        227        211        212        229        228        212        213        230        229        213        214        231        230        214        215        232        231        215        216        233        232        216        217        234        233        217        218        235        234        218        219        236        235        219        220        237        236        221        222        239        238        222        223        240        239        223        224        241        240        224        225        242        241        225        226        243        242        226        227        244        243        227        228        245        244        228        229        246        245        229        230        247        246        230        231        248        247        231        232        249        248        232        233        250        249        233        234        251        250        234        235        252        251        235        236        253        252        236        237        254        253        238        239        256        255        239        240        257        256        240        241        258        257        241        242        259        258        242        243        260        259        243        244        261        260        244        245        262        261        245        246        263        262        246        247        264        263        247        248        265        264        248        249        266        265        249        250        267        266        250        251        268        267        251        252        269        268        252        253        270        269        253        254        271        270        255        256        273        272        256        257        274        273        257        258        275        274        258        259        276        275        259        260        277        276        260        261        278        277        261        262        279        278        262        263        280        279        263        264        281        280        264        265        282        281        265        266        283        282        266        267        284        283        267        268        285        284        268        269        286        285        269        270        287        286        270        271        288        287        306        307          1          0        307        308          2          1        308        309          3          2        309        310          4          3        310        311          5          4        311        312          6          5        312        313          7          6        313        314          8          7        314        315          9          8        315        316         10          9        316        317         11         10        317        318         12         11        318        319         13         12        319        320         14         13        320        321         15         14        321        322         16         15        323        324        307        306        324        325        308        307        325        326        309        308        326        327        310        309        327        328        311        310        328        329        312        311        329        330        313        312        330        331        314        313        331        332        315        314        332        333        316        315        333        334        317        316        334        335        318        317        335        336        319        318        336        337        320        319        337        338        321        320        338        339        322        321        340        341        324        323        341        342        325        324        342        343        326        325        343        344        327        326        344        345        328        327        345        346        329        328        346        347        330        329        347        348        331        330        348        349        332        331        349        350        333        332        350        351        334        333        351        352        335        334        352        353        336        335        353        354        337        336        354        355        338        337        355        356        339        338        357        358        341        340        358        359        342        341        359        360        343        342        360        361        344        343        361        362        345        344        362        363        346        345        363        364        347        346        364        365        348        347        365        366        349        348        366        367        350        349        367        368        351        350        368        369        352        351        369        370        353        352        370        371        354        353        371        372        355        354        372        373        356        355        374        375        358        357        375        376        359        358        376        377        360        359        377        378        361        360        378        379        362        361        379        380        363        362        380        381        364        363        381        382        365        364        382        383        366        365        383        384        367        366        384        385        368        367        385        386        369        368        386        387        370        369        387        388        371        370        388        389        372        371        389        390        373        372        391        392        375        374        392        393        376        375        393        394        377        376        394        395        378        377        395        396        379        378        396        397        380        379        397        398        381        380        398        399        382        381        399        400        383        382        400        401        384        383        401        402        385        384        402        403        386        385        403        404        387        386        404        405        388        387        405        406        389        388        406        407        390        389        408        409        392        391        409        410        393        392        410        411        394        393        411        412        395        394        412        413        396        395        413        414        397        396        414        415        398        397        415        416        399        398        416        417        400        399        417        418        401        400        418        419        402        401        419        420        403        402        420        421        404        403        421        422        405        404        422        423        406        405        423        424        407        406        425        426        409        408        426        427        410        409        427        428        411        410        428        429        412        411        429        430        413        412        430        431        414        413        431        432        415        414        432        433        416        415        433        434        417        416        434        435        418        417        435        436        419        418        436        437        420        419        437        438        421        420        438        439        422        421        439        440        423        422        440        441        424        423        442        443        426        425        443        444        427        426        444        445        428        427        445        446        429        428        446        447        430        429        447        448        431        430        448        449        432        431        449        450        433        432        450        451        434        433        451        452        435        434        452        453        436        435        453        454        437        436        454        455        438        437        455        456        439        438        456        457        440        439        457        458        441        440        459        460        443        442        460        461        444        443        461        462        445        444        462        463        446        445        463        464        447        446        464        465        448        447        465        466        449        448        466        467        450        449        467        468        451        450        468        469        452        451        469        470        453        452        470        471        454        453        471        472        455        454        472        473        456        455        473        474        457        456        474        475        458        457        476        477        460        459        477        478        461        460        478        479        462        461        479        480        463        462        480        481        464        463        481        482        465        464        482        483        466        465        483        484        467        466        484        485        468        467        485        486        469        468        486        487        470        469        487        488        471        470        488        489        472        471        489        490        473        472        490        491        474        473        491        492        475        474        493        494        477        476        494        495        478        477        495        496        479        478        496        497        480        479        497        498        481        480        498        499        482        481        499        500        483        482        500        501        484        483        501        502        485        484        502        503        486        485        503        504        487        486        504        505        488        487        505        506        489        488        506        507        490        489        507        508        491        490        508        509        492        491        510        511        494        493        511        512        495        494        512        513        496        495        513        514        497        496        514        515        498        497        515        516        499        498        516        517        500        499        517        518        501        500        518        519        502        501        519        520        503        502        520        521        504        503        521        522        505        504        522        523        506        505        523        524        507        506        524        525        508        507        525        526        509        508        527        528        511        510        528        529        512        511        529        530        513        512        530        531        514        513        531        532        515        514        532        533        516        515        533        534        517        516        534        535        518        517        535        536        519        518        536        537        520        519        537        538        521        520        538        539        522        521        539        540        523        522        540        541        524        523        541        542        525        524        542        543        526        525        544        545        528        527        545        546        529        528        546        547        530        529        547        548        531        530        548        549        532        531        549        550        533        532        550        551        534        533        551        552        535        534        552        553        536        535        553        554        537        536        554        555        538        537        555        556        539        538        556        557        540        539        557        558        541        540        558        559        542        541        559        560        543        542        561        562        545        544        562        563        546        545        563        564        547        546        564        565        548        547        565        566        549        548        566        567        550        549        567        568        551        550        568        569        552        551        569        570        553        552        570        571        554        553        571        572        555        554        572        573        556        555        573        574        557        556        574        575        558        557        575        576        559        558        576        577        560        559        578        579        596        595        579        580        597        596        580        581        598        597        581        582        599        598        582        583        600        599        583        584        601        600        584        585        602        601        585        586        603        602        586        587        604        603        587        588        605        604        588        589        606        605        589        590        607        606        590        591        608        607        591        592        609        608        592        593        610        609        593        594        611        610        595        596        613        612        596        597        614        613        597        598        615        614        598        599        616        615        599        600        617        616        600        601        618        617        601        602        619        618        602        603        620        619        603        604        621        620        604        605        622        621        605        606        623        622        606        607        624        623        607        608        625        624        608        609        626        625        609        610        627        626        610        611        628        627        612        613        630        629        613        614        631        630        614        615        632        631        615        616        633        632        616        617        634        633        617        618        635        634        618        619        636        635        619        620        637        636        620        621        638        637        621        622        639        638        622        623        640        639        623        624        641        640        624        625        642        641        625        626        643        642        626        627        644        643        627        628        645        644        629        630        647        646        630        631        648        647        631        632        649        648        632        633        650        649        633        634        651        650        634        635        652        651        635        636        653        652        636        637        654        653        637        638        655        654        638        639        656        655        639        640        657        656        640        641        658        657        641        642        659        658        642        643        660        659        643        644        661        660        644        645        662        661        646        647        664        663        647        648        665        664        648        649        666        665        649        650        667        666        650        651        668        667        651        652        669        668        652        653        670        669        653        654        671        670        654        655        672        671        655        656        673        672        656        657        674        673        657        658        675        674        658        659        676        675        659        660        677        676        660        661        678        677        661        662        679        678        663        664        681        680        664        665        682        681        665        666        683        682        666        667        684        683        667        668        685        684        668        669        686        685        669        670        687        686        670        671        688        687        671        672        689        688        672        673        690        689        673        674        691        690        674        675        692        691        675        676        693        692        676        677        694        693        677        678        695        694        678        679        696        695        680        681        698        697        681        682        699        698        682        683        700        699        683        684        701        700        684        685        702        701        685        686        703        702        686        687        704        703        687        688        705        704        688        689        706        705        689        690        707        706        690        691        708        707        691        692        709        708        692        693        710        709        693        694        711        710        694        695        712        711        695        696        713        712        697        698        715        714        698        699        716        715        699        700        717        716        700        701        718        717        701        702        719        718        702        703        720        719        703        704        721        720        704        705        722        721        705        706        723        722        706        707        724        723        707        708        725        724        708        709        726        725        709        710        727        726        710        711        728        727        711        712        729        728        712        713        730        729        714        715        732        731        715        716        733        732        716        717        734        733        717        718        735        734        718        719        736        735        719        720        737        736        720        721        738        737        721        722        739        738        722        723        740        739        723        724        741        740        724        725        742        741        725        726        743        742        726        727        744        743        727        728        745        744        728        729        746        745        729        730        747        746        731        732        749        748        732        733        750        749        733        734        751        750        734        735        752        751        735        736        753        752        736        737        754        753        737        738        755        754        738        739        756        755        739        740        757        756        740        741        758        757        741        742        759        758        742        743        760        759        743        744        761        760        744        745        762        761        745        746        763        762        746        747        764        763        748        749        766        765        749        750        767        766        750        751        768        767        751        752        769        768        752        753        770        769        753        754        771        770        754        755        772        771        755        756        773        772        756        757        774        773        757        758        775        774        758        759        776        775        759        760        777        776        760        761        778        777        761        762        779        778        762        763        780        779        763        764        781        780        765        766        783        782        766        767        784        783        767        768        785        784        768        769        786        785        769        770        787        786        770        771        788        787        771        772        789        788        772        773        790        789        773        774        791        790        774        775        792        791        775        776        793        792        776        777        794        793        777        778        795        794        778        779        796        795        779        780        797        796        780        781        798        797        782        783        800        799        783        784        801        800        784        785        802        801        785        786        803        802        786        787        804        803        787        788        805        804        788        789        806        805        789        790        807        806        790        791        808        807        791        792        809        808        792        793        810        809        793        794        811        810        794        795        812        811        795        796        813        812        796        797        814        813        797        798        815        814        799        800        817        816        800        801        818        817        801        802        819        818        802        803        820        819        803        804        821        820        804        805        822        821        805        806        823        822        806        807        824        823        807        808        825        824        808        809        826        825        809        810        827        826        810        811        828        827        811        812        829        828        812        813        830        829        813        814        831        830        814        815        832        831        816        817        834        833        817        818        835        834        818        819        836        835        819        820        837        836        820        821        838        837        821        822        839        838        822        823        840        839        823        824        841        840        824        825        842        841        825        826        843        842        826        827        844        843        827        828        845        844        828        829        846        845        829        830        847        846        830        831        848        847        831        832        849        848        833        834        562        561        834        835        563        562        835        836        564        563        836        837        565        564        837        838        566        565        838        839        567        566        839        840        568        567        840        841        569        568        841        842        570        569        842        843        571        570        843        844        572        571        844        845        573        572        845        846        574        573        846        847        575        574        847        848        576        575        848        849        577        576        884        885        579        578        885        886        580        579        886        887        581        580        887        888        582        581        888        889        583        582        889        890        584        583        890        891        585        584        891        892        586        585        892        893        587        586        893        894        588        587        894        895        589        588        895        896        590        589        896        897        591        590        897        898        592        591        898        899        593        592        899        900        594        593        901        902        885        884        902        903        886        885        903        904        887        886        904        905        888        887        905        906        889        888        906        907        890        889        907        908        891        890        908        909        892        891        909        910        893        892        910        911        894        893        911        912        895        894        912        913        896        895        913        914        897        896        914        915        898        897        915        916        899        898        916        917        900        899        918        919        902        901        919        920        903        902        920        921        904        903        921        922        905        904        922        923        906        905        923        924        907        906        924        925        908        907        925        926        909        908        926        927        910        909        927        928        911        910        928        929        912        911        929        930        913        912        930        931        914        913        931        932        915        914        932        933        916        915        933        934        917        916        935        936        919        918        936        937        920        919        937        938        921        920        938        939        922        921        939        940        923        922        940        941        924        923        941        942        925        924        942        943        926        925        943        944        927        926        944        945        928        927        945        946        929        928        946        947        930        929        947        948        931        930        948        949        932        931        949        950        933        932        950        951        934        933        952        953        936        935        953        954        937        936        954        955        938        937        955        956        939        938        956        957        940        939        957        958        941        940        958        959        942        941        959        960        943        942        960        961        944        943        961        962        945        944        962        963        946        945        963        964        947        946        964        965        948        947        965        966        949        948        966        967        950        949        967        968        951        950        969        970        953        952        970        971        954        953        971        972        955        954        972        973        956        955        973        974        957        956        974        975        958        957        975        976        959        958        976        977        960        959        977        978        961        960        978        979        962        961        979        980        963        962        980        981        964        963        981        982        965        964        982        983        966        965        983        984        967        966        984        985        968        967        986        987        970        969        987        988        971        970        988        989        972        971        989        990        973        972        990        991        974        973        991        992        975        974        992        993        976        975        993        994        977        976        994        995        978        977        995        996        979        978        996        997        980        979        997        998        981        980        998        999        982        981        999       1000        983        982       1000       1001        984        983       1001       1002        985        984       1003       1004        987        986       1004       1005        988        987       1005       1006        989        988       1006       1007        990        989       1007       1008        991        990       1008       1009        992        991       1009       1010        993        992       1010       1011        994        993       1011       1012        995        994       1012       1013        996        995       1013       1014        997        996       1014       1015        998        997       1015       1016        999        998       1016       1017       1000        999       1017       1018       1001       1000       1018       1019       1002       1001       1020       1021       1004       1003       1021       1022       1005       1004       1022       1023       1006       1005       1023       1024       1007       1006       1024       1025       1008       1007       1025       1026       1009       1008       1026       1027       1010       1009       1027       1028       1011       1010       1028       1029       1012       1011       1029       1030       1013       1012       1030       1031       1014       1013       1031       1032       1015       1014       1032       1033       1016       1015       1033       1034       1017       1016       1034       1035       1018       1017       1035       1036       1019       1018       1037       1038       1021       1020       1038       1039       1022       1021       1039       1040       1023       1022       1040       1041       1024       1023       1041       1042       1025       1024       1042       1043       1026       1025       1043       1044       1027       1026       1044       1045       1028       1027       1045       1046       1029       1028       1046       1047       1030       1029       1047       1048       1031       1030       1048       1049       1032       1031       1049       1050       1033       1032       1050       1051       1034       1033       1051       1052       1035       1034       1052       1053       1036       1035       1054       1055       1038       1037       1055       1056       1039       1038       1056       1057       1040       1039       1057       1058       1041       1040       1058       1059       1042       1041       1059       1060       1043       1042       1060       1061       1044       1043       1061       1062       1045       1044       1062       1063       1046       1045       1063       1064       1047       1046       1064       1065       1048       1047       1065       1066       1049       1048       1066       1067       1050       1049       1067       1068       1051       1050       1068       1069       1052       1051       1069       1070       1053       1052       1071       1072       1055       1054       1072       1073       1056       1055       1073       1074       1057       1056       1074       1075       1058       1057       1075       1076       1059       1058       1076       1077       1060       1059       1077       1078       1061       1060       1078       1079       1062       1061       1079       1080       1063       1062       1080       1081       1064       1063       1081       1082       1065       1064       1082       1083       1066       1065       1083       1084       1067       1066       1084       1085       1068       1067       1085       1086       1069       1068       1086       1087       1070       1069       1088       1089       1072       1071       1089       1090       1073       1072       1090       1091       1074       1073       1091       1092       1075       1074       1092       1093       1076       1075       1093       1094       1077       1076       1094       1095       1078       1077       1095       1096       1079       1078       1096       1097       1080       1079       1097       1098       1081       1080       1098       1099       1082       1081       1099       1100       1083       1082       1100       1101       1084       1083       1101       1102       1085       1084       1102       1103       1086       1085       1103       1104       1087       1086       1105       1106       1089       1088       1106       1107       1090       1089       1107       1108       1091       1090       1108       1109       1092       1091       1109       1110       1093       1092       1110       1111       1094       1093       1111       1112       1095       1094       1112       1113       1096       1095       1113       1114       1097       1096       1114       1115       1098       1097       1115       1116       1099       1098       1116       1117       1100       1099       1117       1118       1101       1100       1118       1119       1102       1101       1119       1120       1103       1102       1120       1121       1104       1103       1122       1123       1106       1105       1123       1124       1107       1106       1124       1125       1108       1107       1125       1126       1109       1108       1126       1127       1110       1109       1127       1128       1111       1110       1128       1129       1112       1111       1129       1130       1113       1112       1130       1131       1114       1113       1131       1132       1115       1114       1132       1133       1116       1115       1133       1134       1117       1116       1134       1135       1118       1117       1135       1136       1119       1118       1136       1137       1120       1119       1137       1138       1121       1120        272        273       1123       1122        273        274       1124       1123        274        275       1125       1124        275        276       1126       1125        276        277       1127       1126        277        278       1128       1127        278        279       1129       1128        279        280       1130       1129        280        281       1131       1130        281        282       1132       1131        282        283       1133       1132        283        284       1134       1133        284        285       1135       1134        285        286       1136       1135        286        287       1137       1136        287        288       1138       1137 </DataArray>
<DataArray type="Int32"                                    Name="offsets"                                                      NumberOfComponents=" 1" format="ascii">
         4          8         12         16         20         24         28         32         36         40         44         48         52         56         60         64         68         72         76         80         84         88         92         96        100        104        108        112        116        120        124        128        132        136        140        144        148        152        156        160        164        168        172        176        180        184        188        192        196        200        204        208        212        216        220        224        228        232        236        240        244        248        252        256        260        264        268        272        276        280        284        288        292        296        300        304        308        312        316        320        324        328        332        336        340        344        348        352        356        360        364        368        372        376        380        384        388        392        396        400        404        408        412        416        420        424        428        432        436        440        444        448        452        456        460        464        468        472        476        480        484        488        492        496        500        504        508        512        516        520        524        528        532        536        540        544        548        552        556        560        564        568        572        576        580        584        588        592        596        600        604        608        612        616        620        624        628        632        636        640        644        648        652        656        660        664        668        672        676        680        684        688        692        696        700        704        708        712        716        720        724        728        732        736        740        744        748        752        756        760        764        768        772        776        780        784        788        792        796        800        804        808        812        816        820        824        828        832        836        840        844        848        852        856        860        864        868        872        876        880        884        888        892        896        900        904        908        912        916        920        924        928        932        936        940        944        948        952        956        960        964        968        972        976        980        984        988        992        996       1000       1004       1008       1012       1016       1020       1024       1028       1032       1036       1040       1044       1048       1052       1056       1060       1064       1068       1072       1076       1080       1084       1088       1092       1096       1100       1104       1108       1112       1116       1120       1124       1128       1132       1136       1140       1144       1148       1152       1156       1160       1164       1168       1172       1176       1180       1184       1188       1192       1196       1200       1204       1208       1212       1216       1220       1224       1228       1232       1236       1240       1244       1248       1252       1256       1260       1264       1268       1272       1276       1280       1284       1288       1292       1296       1300       1304       1308       1312       1316       1320       1324       1328       1332       1336       1340       1344       1348       1352       1356       1360       1364       1368       1372       1376       1380       1384       1388       1392       1396       1400       1404       1408       1412       1416       1420       1424       1428       1432       1436       1440       1444       1448       1452       1456       1460       1464       1468       1472       1476       1480       1484       1488       1492       1496       1500       1504       1508       1512       1516       1520       1524       1528       1532       1536       1540       1544       1548       1552       1556       1560       1564       1568       1572       1576       1580       1584       1588       1592       1596       1600       1604       1608       1612       1616       1620       1624       1628       1632       1636       1640       1644       1648       1652       1656       1660       1664       1668       1672       1676       1680       1684       1688       1692       1696       1700       1704       1708       1712       1716       1720       1724       1728       1732       1736       1740       1744       1748       1752       1756       1760       1764       1768       1772       1776       1780       1784       1788       1792       1796       1800       1804       1808       1812       1816       1820       1824       1828       1832       1836       1840       1844       1848       1852       1856       1860       1864       1868       1872       1876       1880       1884       1888       1892       1896       1900       1904       1908       1912       1916       1920       1924       1928       1932       1936       1940       1944       1948       1952       1956       1960       1964       1968       1972       1976       1980       1984       1988       1992       1996       2000       2004       2008       2012       2016       2020       2024       2028       2032       2036       2040       2044       2048       2052       2056       2060       2064       2068       2072       2076       2080       2084       2088       2092       2096       2100       2104       2108       2112       2116       2120       2124       2128       2132       2136       2140       2144       2148       2152       2156       2160       2164       2168       2172       2176       2180       2184       2188       2192       2196       2200       2204       2208       2212       2216       2220       2224       2228       2232       2236       2240       2244       2248       2252       2256       2260       2264       2268       2272       2276       2280       2284       2288       2292       2296       2300       2304       2308       2312       2316       2320       2324       2328       2332       2336       2340       2344       2348       2352       2356       2360       2364       2368       2372       2376       2380       2384       2388       2392       2396       2400       2404       2408       2412       2416       2420       2424       2428       2432       2436       2440       2444       2448       2452       2456       2460       2464       2468       2472       2476       2480       2484       2488       2492       2496       2500       2504       2508       2512       2516       2520       2524       2528       2532       2536       2540       2544       2548       2552       2556       2560       2564       2568       2572       2576       2580       2584       2588       2592       2596       2600       2604       2608       2612       2616       2620       2624       2628       2632       2636       2640       2644       2648       2652       2656       2660       2664       2668       2672       2676       2680       2684       2688       2692       2696       2700       2704       2708       2712       2716       2720       2724       2728       2732       2736       2740       2744       2748       2752       2756       2760       2764       2768       2772       2776       2780       2784       2788       2792       2796       2800       2804       2808       2812       2816       2820       2824       2828       2832       2836       2840       2844       2848       2852       2856       2860       2864       2868       2872       2876       2880       2884       2888       2892       2896       2900       2904       2908       2912       2916       2920       2924       2928       2932       2936       2940       2944       2948       2952       2956       2960       2964       2968       2972       2976       2980       2984       2988       2992       2996       3000       3004       3008       3012       3016       3020       3024       3028       3032       3036       3040       3044       3048       3052       3056       3060       3064       3068       3072       3076       3080       3084       3088       3092       3096       3100       3104       3108       3112       3116       3120       3124       3128       3132       3136       3140       3144       3148       3152       3156       3160       3164       3168       3172       3176       3180       3184       3188       3192       3196       3200       3204       3208       3212       3216       3220       3224       3228       3232       3236       3240       3244       3248       3252       3256       3260       3264       3268       3272       3276       3280       3284       3288       3292       3296       3300       3304       3308       3312       3316       3320       3324       3328       3332       3336       3340       3344       3348       3352       3356       3360       3364       3368       3372       3376       3380       3384       3388       3392       3396       3400       3404       3408       3412       3416       3420       3424       3428       3432       3436       3440       3444       3448       3452       3456       3460       3464       3468       3472       3476       3480       3484       3488       3492       3496       3500       3504       3508       3512       3516       3520       3524       3528       3532       3536       3540       3544       3548       3552       3556       3560       3564       3568       3572       3576       3580       3584       3588       3592       3596       3600       3604       3608       3612       3616       3620       3624       3628       3632       3636       3640       3644       3648       3652       3656       3660       3664       3668       3672       3676       3680       3684       3688       3692       3696       3700       3704       3708       3712       3716       3720       3724       3728       3732       3736       3740       3744       3748       3752       3756       3760       3764       3768       3772       3776       3780       3784       3788       3792       3796       3800       3804       3808       3812       3816       3820       3824       3828       3832       3836       3840       3844       3848       3852       3856       3860       3864       3868       3872       3876       3880       3884       3888       3892       3896       3900       3904       3908       3912       3916       3920       3924       3928       3932       3936       3940       3944       3948       3952       3956       3960       3964       3968       3972       3976       3980       3984       3988       3992       3996       4000       4004       4008       4012       4016       4020       4024       4028       4032       4036       4040       4044       4048       4052       4056       4060       4064       4068       4072       4076       4080       4084       4088       4092       4096 </DataArray>
<DataArray type="UInt8"                                    Name="types"                                                      NumberOfComponents=" 1" format="ascii">
         9          9          9          9          9          9          9          9          9          9          9          9          9          9          9          9          9          9          9          9          9          9          9          9          9          9          9          9          9          9          9          9          9          9          9          9          9          9          9          9          9          9          9          9          9          9          9          9          9          9          9          9          9          9          9          9          9          9          9          9          9          9          9          9          9          9          9          9          9          9          9          9          9          9          9          9          9          9          9          9          9          9          9          9          9          9          9          9          9          9          9          9          9          9          9          9          9          9          9          9          9          9          9          9          9          9          9          9          9          9          9          9          9          9          9          9          9          9          9          9          9          9          9          9          9          9          9          9          9          9          9          9          9          9          9          9          9          9          9          9          9          9          9          9          9          9          9          9          9          9          9          9          9          9          9          9          9          9          9          9          9          9          9          9          9          9          9          9          9          9          9          9          9          9          9          9          9          9          9          9          9          9          9          9          9          9          9          9          9          9          9          9          9          9          9          9          9          9          9          9          9          9          9          9          9          9          9          9          9          9          9          9          9          9          9          9          9          9          9          9          9          9          9          9          9          9          9          9          9          9          9          9          9          9          9          9          9          9          9          9          9          9          9          9          9          9          9          9          9          9          9          9          9          9          9          9          9          9          9          9          9          9          9          9          9          9          9          9          9          9          9          9          9          9          9          9          9          9          9          9          9          9          9          9          9          9          9          9          9          9          9          9          9          9          9          9          9          9          9          9          9          9          9          9          9          9          9          9          9          9          9          9          9          9          9          9          9          9          9          9          9          9          9          9          9          9          9          9          9          9          9          9          9          9          9          9          9          9          9          9          9          9          9          9          9          9          9          9          9          9          9          9          9          9          9          9          9          9          9          9          9          9          9          9          9          9          9          9          9          9          9          9          9          9          9          9          9          9          9          9          9          9          9          9          9          9          9          9          9          9          9          9          9          9          9          9          9          9          9          9          9          9          9          9          9          9          9          9          9          9          9          9          9          9          9          9          9          9          9          9          9          9          9          9          9          9          9          9          9          9          9          9          9          9          9          9          9          9          9          9          9          9          9          9          9          9          9          9          9          9          9          9          9          9          9          9          9          9          9          9          9          9          9          9          9          9          9          9          9          9          9          9          9          9          9          9          9          9          9          9          9          9          9          9          9          9          9          9          9          9          9          9          9          9          9          9          9          9          9          9          9          9          9          9          9          9          9          9          9          9          9          9          9          9          9          9          9          9          9          9          9          9          9          9          9          9          9          9          9          9          9          9          9          9          9          9          9          9          9          9          9          9          9          9          9          9          9          9          9          9          9          9          9          9          9          9          9          9          9          9          9          9          9          9          9          9          9          9          9          9          9          9          9          9          9          9          9          9          9          9          9          9          9          9          9          9          9          9          9          9          9          9          9          9          9          9          9          9          9          9          9          9          9          9          9          9          9          9          9          9          9          9          9          9          9          9          9          9          9          9          9          9          9          9          9          9          9          9          9          9          9          9          9          9          9          9          9          9          9          9          9          9          9          9          9          9          9          9          9          9          9          9          9          9          9          9          9          9          9          9          9          9          9          9          9          9          9          9          9          9          9          9          9          9          9          9          9          9          9          9          9          9          9          9          9          9          9          9          9          9          9          9          9          9          9          9          9          9          9          9          9          9          9          9          9          9          9          9          9          9          9          9          9          9          9          9          9          9          9          9          9          9          9          9          9          9          9          9          9          9          9          9          9          9          9          9          9          9          9          9          9          9          9          9          9          9          9          9          9          9          9          9          9          9          9          9          9          9          9          9          9          9          9          9          9          9          9          9          9          9          9          9          9          9          9          9          9          9          9          9          9          9          9          9          9          9          9          9          9          9          9          9          9          9          9          9          9          9          9          9          9          9          9          9          9          9          9          9          9          9          9          9          9          9          9          9          9          9          9          9          9          9          9          9          9          9          9          9          9          9          9          9          9          9          9          9          9          9          9          9          9          9          9          9          9          9          9          9          9          9          9          9          9          9          9          9          9          9          9          9          9          9          9          9          9          9          9          9          9          9          9          9          9          9          9          9          9          9          9          9          9          9          9          9          9          9          9          9          9          9          9          9          9          9          9          9          9          9          9          9          9          9          9          9          9          9          9          9          9          9          9          9          9          9          9          9          9          9          9          9          9          9          9          9          9          9          9          9          9          9          9          9          9          9          9          9          9          9          9          9          9          9          9          9          9          9          9          9          9          9          9          9          9          9          9          9          9          9          9          9          9          9          9          9          9          9          9          9          9          9          9          9          9          9          9          9          9          9          9          9          9          9          9          9          9          9          9          9          9          9          9          9          9          9          9          9          9          9          9          9          9          9          9          9          9          9          9          9          9          9          9          9          9          9          9          9          9          9          9          9          9          9          9          9 </DataArray>
</Cells>
<CellData>
<DataArray type="Int32"                                    Name="material"                                                      NumberOfComponents=" 1" format="ascii">
         1          1          1          1          1          1          1          1          1          1          1          1          1          1          1          1          1          1          1          1          1          1          1          1          1          1          1          1          1          1          1          1          1          1          1          1          1          1          1          1          1          1          1          1          1          1          1          1          1          1          1          1          1          1          1          1          1          1          1          1          1          1          1          1          1          1          1          1          1          1          1          1          1          1          1          1          1          1          1          1          1          1          1          1          1          1          1          1          1          1          1          1          1          1          1          1          1          1          1          1          1          1          1          1          1          1          1          1          1          1          1          1          1          1          1          1          1          1          1          1          1          1          1          1          1          1          1          1          1          1          1          1          1          1          1          1          1          1          1          1          1          1          1          1          1          1          1          1          1          1          1          1          1          1          1          1          1          1          1          1          1          1          1          1          1          1          1          1          1          1          1          1          1          1          1          1          1          1          1          1          1          1          1          1          1          1          1          1          1          1          1          1          1          1          1          1          1          1          1          1          1          1          1          1          1          1          1          1          1          1          1          1          1          1          1          1          1          1          1          1          1          1          1          1          1          1          1          1          1          1          1          1          1          1          1          1          1          1          1          1          1          1          1          1          1          1          1          1          1          1          1          1          1          1          1          1          1          1          1          1          1          1          1          1          1          1          1          1          1          1          1          1          1          1          1          1          1          1          1          1          1          1          1          1          1          1          1          1          1          1          1          1          1          1          1          1          1          1          1          1          1          1          1          1          1          1          1          1          1          1          1          1          1          1          1          1          1          1          1          1          1          1          1          1          1          1          1          1          1          1          1          1          1          1          1          1          1          1          1          1          1          1          1          1          1          1          1          1          1          1          1          1          1          1          1          1          1          1          1          1          1          1          1          1          1          1          1          1          1          1          1          1          1          1          1          1          1          1          1          1          1          1          1          1          1          1          1          1          1          1          1          1          1          1          1          1          1          1          1          1          1          1          1          1          1          1          1          1          1          1          1          1          1          1          1          1          1          1          1          1          1          1          1          1          1          1          1          1          1          1          1          1          1          1          1          1          1          1          1          1          1          1          1          1          1          1          1          1          1          1          1          1          1          1          1          1          1          1          1          1          1          1          1          1          1          1          1          1          1          1          1          1          1          1          1          1          1          1          1          1          1          1          1          1          1          1          1          1          1          1          1          1          1          1          1          1          1          1          1          1          1          1          1          1          1          1          1          1          1          1          1          1          1          1          1          1          1          1          1          1          1          1          1          1          1          1          1          1          1          1          1          1          1          1          1          1          1          1          1          1          1          1          1          1          1          1          1          1          1          1          1          1          1          1          1          1          1          1          1          1          1          1          1          1          1          1          1          1          1          1          1          1          1          1          1          1          1          1          1          1          1          1          1          1          1          1          1          1          1          1          1          1          1          1          1          1          1          1          1          1          1          1          1          1          1          1          1          1          1          1          1          1          1          1          1          1          1          1          1          1          1          1          1          1          1          1          1          1          1          1          1          1          1          1          1          1          1          1          1          1          1          1          1          1          1          1          1          1          1          1          1          1          1          1          1          1          1          1          1          1          1          1          1          1          1          1          1          1          1          1          1          1          1          1          1          1          1          1          1          1          1          1          1          1          1          1          1          1          1          1          1          1          1          1          1          1          1          1          1          1          1          1          1          1          1          1          1          1          1          1          1          1          1          1          1          1          1          1          1          1          1          1          1          1          1          1          1          1          1          1          1          1          1          1          1          1          1          1          1          1          1          1          1          1          1          1          1          1          1          1          1          1          1          1          1          1          1          1          1          1          1          1          1          1          1          1          1          1          1          1          1          1          1          1          1          1          1          1          1          1          1          1          1          1          1          1          1          1          1          1          1          1          1          1          1          1          1          1          1          1          1          1          1          1          1          1          1          1          1          1          1          1          1          1          1          1          1          1          1          1          1          1          1          1          1          1          1          1          1          1          1          1          1          1          1          1          1          1          1          1          1          1          1          1          1          1          1          1          1          1          1          1          1          1          1          1          1          1          1          1          1          1          1          1          1          1          1          1          1          1          1          1          1          1          1          1          1          1          1          1          1          1          1          1          1          1          1          1          1          1          1          1          1          1          1          1          1          1          1          1          1          1          1          1          1          1          1          1          1          1          1          1          1          1          1          1          1          1          1          1          1          1          1          1          1          1          1          1          1          1          1          1          1          1          1          1          1          1          1          1          1          1          1          1          1          1          1          1          1          1          1          1          1          1          1          1          1          1          1          1          1          1          1          1          1          1          1          1          1          1          1          1          1          1          1          1          1          1          1          1          1          1          1          1          1          1          1          1          1          1          1          1          1          1          1          1          1          1          1          1          1          1          1          1          1          1          1          1          1          1          1          1          1          1          1          1          1          1          1          1          1          1          1          1 </DataArray>
</CellData>
<PointData>
<DataArray type="Float64"                                    Name="u"                                                      NumberOfComponents=" 3" format="ascii">
             -0.000058808              -0.000000000               0.999999994              -0.000078177               0.000000000               0.999999994              -0.000087342              -0.000000000               0.999999994              -0.000092691               0.000000000               0.999999994              -0.000096784              -0.000000000               0.999999994              -0.000100705              -0.000000000               0.999999994              -0.000105006               0.000000000               0.999999994              -0.000109957              -0.000000000               0.999999994              -0.000115657              -0.000000000               0.999999994              -0.000122177              -0.000000000               0.999999994              -0.000129517               0.000000000               0.999999994              -0.000137748               0.000000000               0.999999994              -0.000146791               0.000000000               0.999999994              -0.000156558               0.000000000               0.999999994              -0.000166986               0.000000000               0.999999994              -0.000177980               0.000000000               0.999999994              -0.000189400               0.000000000               0.999999994              -0.000058390               0.000048542               0.999999994              -0.000076862               0.000042509               0.999999994              -0.000085512               0.000040825               0.999999994              -0.000090547               0.000041535               0.999999994              -0.000094498               0.000043575               0.999999994              -0.000098414               0.000046459               0.999999994              -0.000102749               0.000049867               0.999999994              -0.000107790               0.000053755               0.999999994              -0.000113627               0.000058008               0.999999994              -0.000120291               0.000062511               0.999999994              -0.000127768               0.000067218               0.999999994              -0.000136049               0.000072065               0.999999994              -0.000145093               0.000076962               0.999999994              -0.000154836               0.000081827               0.999999994              -0.000165202               0.000086516               0.999999994              -0.000176111               0.000090839               0.999999994              -0.000187475               0.000094638               0.999999994              -0.000057178               0.000096565               0.999999994              -0.000073019               0.000084599               0.999999994              -0.000080189               0.000081486               0.999999994              -0.000084488               0.000083083               0.999999994              -0.000088222               0.000087484               0.999999994              -0.000092227               0.000093340               0.999999994              -0.000096818               0.000100307               0.999999994              -0.000102194               0.000108181               0.999999994              -0.000108380               0.000116712               0.999999994              -0.000115391               0.000125773               0.999999994              -0.000123178               0.000135198               0.999999994              -0.000131679               0.000144871               0.999999994              -0.000140843               0.000154673               0.999999994              -0.000150594               0.000164468               0.999999994              -0.000160905               0.000174074               0.999999994              -0.000171793               0.000183314               0.999999994              -0.000183288               0.000191922               0.999999994              -0.000055245               0.000143546               0.999999994              -0.000066884               0.000125853               0.999999994              -0.000071988               0.000121797               0.999999994              -0.000075590               0.000124749               0.999999994              -0.000079277               0.000131733               0.999999994              -0.000083512               0.000140833               0.999999994              -0.000088544               0.000151509               0.999999994              -0.000094456               0.000163502               0.999999994              -0.000101200               0.000176443               0.999999994              -0.000108747               0.000190123               0.999999994              -0.000116993               0.000204306               0.999999994              -0.000125874               0.000218798               0.999999994              -0.000135383               0.000233586               0.999999994              -0.000145484               0.000248482               0.999999994              -0.000156198               0.000263514               0.999999994              -0.000167604               0.000278507               0.999999994              -0.000179751               0.000293342               0.999999994              -0.000052578               0.000188947               0.999999994              -0.000058810               0.000165978               0.999999994              -0.000061776               0.000161587               0.999999994              -0.000064833               0.000166383               0.999999994              -0.000068680               0.000176172               0.999999994              -0.000073524               0.000188805               0.999999994              -0.000079336               0.000203349               0.999999994              -0.000086143               0.000219513               0.999999994              -0.000093831               0.000236856               0.999999994              -0.000102258               0.000255098               0.999999994              -0.000111346               0.000273945               0.999999994              -0.000121163               0.000293309               0.999999994              -0.000131672               0.000313123               0.999999994              -0.000142867               0.000333373               0.999999994              -0.000154760               0.000354031               0.999999994              -0.000167325               0.000375128               0.999999994              -0.000180534               0.000396576               0.999999994              -0.000049332               0.000232215               0.999999994              -0.000049414               0.000204737               0.999999994              -0.000050454               0.000200653               0.999999994              -0.000053358               0.000207642               0.999999994              -0.000057847               0.000220488               0.999999994              -0.000063738               0.000236801               0.999999994              -0.000070873               0.000255314               0.999999994              -0.000079031               0.000275581               0.999999994              -0.000087981               0.000297136               0.999999994              -0.000097691               0.000319794               0.999999994              -0.000108170               0.000343325               0.999999994              -0.000119440               0.000367554               0.999999994              -0.000131463               0.000392381               0.999999994              -0.000144172               0.000417840               0.999999994              -0.000157477               0.000443954               0.999999994              -0.000171259               0.000470664               0.999999994              -0.000185301               0.000497673               0.999999994              -0.000045598               0.000272931               0.999999994              -0.000039293               0.000241985               0.999999994              -0.000038992               0.000238754               0.999999994              -0.000042409               0.000248151               0.999999994              -0.000048129               0.000264153               0.999999994              -0.000055522               0.000284174               0.999999994              -0.000064244               0.000306676               0.999999994              -0.000073928               0.000330941               0.999999994              -0.000084401               0.000356654               0.999999994              -0.000095659               0.000383643               0.999999994              -0.000107732               0.000411803               0.999999994              -0.000120567               0.000440738               0.999999994              -0.000134102               0.000470398               0.999999994              -0.000148180               0.000500750               0.999999994              -0.000162658               0.000531734               0.999999994              -0.000177250               0.000563210               0.999999994              -0.000191778               0.000594620               0.999999994              -0.000041512               0.000310711               0.999999994              -0.000029184               0.000277524               0.999999994              -0.000028290               0.000275578               0.999999994              -0.000032831               0.000287517               0.999999994              -0.000040153               0.000306712               0.999999994              -0.000049252               0.000330299               0.999999994              -0.000059574               0.000356747               0.999999994              -0.000070854               0.000384973               0.999999994              -0.000082920               0.000414787               0.999999994              -0.000095819               0.000446056               0.999999994              -0.000109462               0.000478582               0.999999994              -0.000123806               0.000511992               0.999999994              -0.000138656               0.000546078               0.999999994              -0.000153885               0.000580824               0.999999994              -0.000169313               0.000616108               0.999999994              -0.000184608               0.000651483               0.999999994              -0.000199534               0.000686676               0.999999994              -0.000037422               0.000344905               0.999999994              -0.000019391               0.000311388               0.999999994              -0.000018949               0.000310815               0.999999994              -0.000025081               0.000325196               0.999999994              -0.000034191               0.000347521               0.999999994              -0.000044928               0.000374666               0.999999994              -0.000056850               0.000404893               0.999999994              -0.000069594               0.000437150               0.999999994              -0.000083218               0.000471045               0.999999994              -0.000097623               0.000506534               0.999999994              -0.000112657               0.000543201               0.999999994              -0.000128240               0.000580740               0.999999994              -0.000144221               0.000618932               0.999999994              -0.000160447               0.000657582               0.999999994              -0.000176616               0.000696419               0.999999994              -0.000192602               0.000735103               0.999999994              -0.000208236               0.000773430               0.999999994              -0.000033815               0.000376667               0.999999994              -0.000012211               0.000346633               0.999999994              -0.000010045               0.000343024               0.999999994              -0.000015110               0.000353747               0.999999994              -0.000023349               0.000372584               0.999999994              -0.000032987               0.000396508               0.999999994              -0.000043637               0.000423836               0.999999994              -0.000055002               0.000453436               0.999999994              -0.000067102               0.000484580               0.999999994              -0.000079806               0.000517051               0.999999994              -0.000092982               0.000550754               0.999999994              -0.000106539               0.000585396               0.999999994              -0.000120403               0.000620688               0.999999994              -0.000134464               0.000656474               0.999999994              -0.000148667               0.000692636               0.999999994              -0.000162943               0.000728970               0.999999994              -0.000177161               0.000765224               0.999999994              -0.000029676               0.000405166               0.999999994              -0.000006708               0.000379996               0.999999994              -0.000002809               0.000375258               0.999999994              -0.000006480               0.000383050               0.999999994              -0.000013392               0.000398870               0.999999994              -0.000021750               0.000419889               0.999999994              -0.000031022               0.000444414               0.999999994              -0.000041109               0.000471337               0.999999994              -0.000051725               0.000500013               0.999999994              -0.000062675               0.000530035               0.999999994              -0.000073919               0.000561129               0.999999994              -0.000085496               0.000593113               0.999999994              -0.000097150               0.000625708               0.999999994              -0.000108724               0.000658864               0.999999994              -0.000120270               0.000692424               0.999999994              -0.000131772               0.000726409               0.999999994              -0.000143239               0.000760546               0.999999994              -0.000025235               0.000429815               0.999999994              -0.000002798               0.000410692               0.999999994               0.000002400               0.000406216               0.999999994               0.000000267               0.000412230               0.999999994              -0.000005096               0.000425607               0.999999994              -0.000012089               0.000444099               0.999999994              -0.000019972               0.000466112               0.999999994              -0.000028489               0.000490682               0.999999994              -0.000037512               0.000517187               0.999999994              -0.000046823               0.000545070               0.999999994              -0.000056327               0.000573998               0.999999994              -0.000065847               0.000603709               0.999999994              -0.000075107               0.000634128               0.999999994              -0.000084056               0.000665118               0.999999994              -0.000092586               0.000696525               0.999999994              -0.000100748               0.000728302               0.999999994              -0.000108564               0.000760401               0.999999994              -0.000020599               0.000450212               0.999999994              -0.000000425               0.000437532               0.999999994               0.000005436               0.000434493               0.999999994               0.000004706               0.000439815               0.999999994               0.000000840               0.000451563               0.999999994              -0.000004710               0.000468022               0.999999994              -0.000011023               0.000488016               0.999999994              -0.000017830               0.000510602               0.999999994              -0.000025173               0.000535226               0.999999994              -0.000032878               0.000561323               0.999999994              -0.000040546               0.000588513               0.999999994              -0.000047990               0.000616565               0.999999994              -0.000055051               0.000645381               0.999999994              -0.000061458               0.000674730               0.999999994              -0.000067179               0.000704452               0.999999994              -0.000072118               0.000734481               0.999999994              -0.000076123               0.000764831               0.999999994              -0.000015691               0.000466302               0.999999994               0.000000754               0.000459568               0.999999994               0.000006356               0.000458603               0.999999994               0.000006538               0.000463997               0.999999994               0.000003921               0.000474851               0.999999994              -0.000000074               0.000490052               0.999999994              -0.000004624               0.000508622               0.999999994              -0.000009729               0.000529766               0.999999994              -0.000015390               0.000552887               0.999999994              -0.000021307               0.000577573               0.999999994              -0.000027054               0.000603495               0.999999994              -0.000032483               0.000630454               0.999999994              -0.000037471               0.000658228               0.999999994              -0.000041773               0.000686574               0.999999994              -0.000045298               0.000715260               0.999999994              -0.000047702               0.000744205               0.999999994              -0.000048487               0.000773358               0.999999994              -0.000010574               0.000477850               0.999999994               0.000001029               0.000475909               0.999999994               0.000005401               0.000477012               0.999999994               0.000005967               0.000482953               0.999999994               0.000004425               0.000493575               0.999999994               0.000001840               0.000508148               0.999999994              -0.000001093               0.000525896               0.999999994              -0.000004453               0.000546129               0.999999994              -0.000008213               0.000568367               0.999999994              -0.000012194               0.000592222               0.999999994              -0.000016017               0.000617401               0.999999994              -0.000019505               0.000643661               0.999999994              -0.000022546               0.000670835               0.999999994              -0.000025139               0.000698694               0.999999994              -0.000027063               0.000727043               0.999999994              -0.000027870               0.000755677               0.999999994              -0.000026828               0.000784375               0.999999994              -0.000005330               0.000484786               0.999999994               0.000000688               0.000485952               0.999999994               0.000003079               0.000488592               0.999999994               0.000003540               0.000495043               0.999999994               0.000002775               0.000505715               0.999999994               0.000001515               0.000520141               0.999999994               0.000000115               0.000537568               0.999999994              -0.000001482               0.000557362               0.999999994              -0.000003333               0.000579158               0.999999994              -0.000005346               0.000602638               0.999999994              -0.000007262               0.000627528               0.999999994              -0.000008918               0.000653508               0.999999994              -0.000010357               0.000680379               0.999999994              -0.000011504               0.000707970               0.999999994              -0.000012254               0.000736149               0.999999994              -0.000012392               0.000764731               0.999999994              -0.000011401               0.000793420               0.999999994              -0.000000000               0.000487157               0.999999994               0.000000000               0.000489383               0.999999994              -0.000000000               0.000492568               0.999999994              -0.000000000               0.000499244               0.999999994               0.000000000               0.000509947               0.999999994              -0.000000000               0.000524265               0.999999994               0.000000000               0.000541638               0.999999994               0.000000000               0.000561368               0.999999994               0.000000000               0.000583008               0.999999994               0.000000000               0.000606427               0.999999994               0.000000000               0.000631264               0.999999994               0.000000000               0.000657155               0.999999994               0.000000000               0.000683916               0.999999994               0.000000000               0.000711348               0.999999994              -0.000000000               0.000739339               0.999999994              -0.000000000               0.000767770               0.999999994              -0.000000000               0.000796419               0.999999994              -0.000058808              -0.000000000               0.999999994              -0.000078177               0.000000000               0.999999994              -0.000087342              -0.000000000               0.999999994              -0.000092691               0.000000000               0.999999994              -0.000096784              -0.000000000               0.999999994              -0.000100705              -0.000000000               0.999999994              -0.000105006               0.000000000               0.999999994              -0.000109957              -0.000000000               0.999999994              -0.000115657              -0.000000000               0.999999994              -0.000122177              -0.000000000               0.999999994              -0.000129517               0.000000000               0.999999994              -0.000137748               0.000000000               0.999999994              -0.000146791               0.000000000               0.999999994              -0.000156558               0.000000000               0.999999994              -0.000166986               0.000000000               0.999999994              -0.000177980               0.000000000               0.999999994              -0.000189400               0.000000000               0.999999994              -0.000058390              -0.000048542               0.999999994              -0.000076862              -0.000042509               0.999999994              -0.000085512              -0.000040825               0.999999994              -0.000090547              -0.000041535               0.999999994              -0.000094498              -0.000043575               0.999999994              -0.000098414              -0.000046459               0.999999994              -0.000102749              -0.000049867               0.999999994              -0.000107790              -0.000053755               0.999999994              -0.000113627              -0.000058008               0.999999994              -0.000120291              -0.000062511               0.999999994              -0.000127768              -0.000067218               0.999999994              -0.000136049              -0.000072065               0.999999994              -0.000145093              -0.000076962               0.999999994              -0.000154836              -0.000081827               0.999999994              -0.000165202              -0.000086516               0.999999994              -0.000176111              -0.000090839               0.999999994              -0.000187475              -0.000094638               0.999999994              -0.000057178              -0.000096565               0.999999994              -0.000073019              -0.000084599               0.999999994              -0.000080189              -0.000081486               0.999999994              -0.000084488              -0.000083083               0.999999994              -0.000088222              -0.000087484               0.999999994              -0.000092227              -0.000093340               0.999999994              -0.000096818              -0.000100307               0.999999994              -0.000102194              -0.000108181               0.999999994              -0.000108380              -0.000116712               0.999999994              -0.000115391              -0.000125773               0.999999994              -0.000123178              -0.000135198               0.999999994              -0.000131679              -0.000144871               0.999999994              -0.000140843              -0.000154673               0.999999994              -0.000150594              -0.000164468               0.999999994              -0.000160905              -0.000174074               0.999999994              -0.000171793              -0.000183314               0.999999994              -0.000183288              -0.000191922               0.999999994              -0.000055245              -0.000143546               0.999999994              -0.000066884              -0.000125853               0.999999994              -0.000071988              -0.000121797               0.999999994              -0.000075590              -0.000124749               0.999999994              -0.000079277              -0.000131733               0.999999994              -0.000083512              -0.000140833               0.999999994              -0.000088544              -0.000151509               0.999999994              -0.000094456              -0.000163502               0.999999994              -0.000101200              -0.000176443               0.999999994              -0.000108747              -0.000190123               0.999999994              -0.000116993              -0.000204306               0.999999994              -0.000125874              -0.000218798               0.999999994              -0.000135383              -0.000233586               0.999999994              -0.000145484              -0.000248482               0.999999994              -0.000156198              -0.000263514               0.999999994              -0.000167604              -0.000278507               0.999999994              -0.000179751              -0.000293342               0.999999994              -0.000052578              -0.000188947               0.999999994              -0.000058810              -0.000165978               0.999999994              -0.000061776              -0.000161587               0.999999994              -0.000064833              -0.000166383               0.999999994              -0.000068680              -0.000176172               0.999999994              -0.000073524              -0.000188805               0.999999994              -0.000079336              -0.000203349               0.999999994              -0.000086143              -0.000219513               0.999999994              -0.000093831              -0.000236856               0.999999994              -0.000102258              -0.000255098               0.999999994              -0.000111346              -0.000273945               0.999999994              -0.000121163              -0.000293309               0.999999994              -0.000131672              -0.000313123               0.999999994              -0.000142867              -0.000333373               0.999999994              -0.000154760              -0.000354031               0.999999994              -0.000167325              -0.000375128               0.999999994              -0.000180534              -0.000396576               0.999999994              -0.000049332              -0.000232215               0.999999994              -0.000049414              -0.000204737               0.999999994              -0.000050454              -0.000200653               0.999999994              -0.000053358              -0.000207642               0.999999994              -0.000057847              -0.000220488               0.999999994              -0.000063738              -0.000236801               0.999999994              -0.000070873              -0.000255314               0.999999994              -0.000079031              -0.000275581               0.999999994              -0.000087981              -0.000297136               0.999999994              -0.000097691              -0.000319794               0.999999994              -0.000108170              -0.000343325               0.999999994              -0.000119440              -0.000367554               0.999999994              -0.000131463              -0.000392381               0.999999994              -0.000144172              -0.000417840               0.999999994              -0.000157477              -0.000443954               0.999999994              -0.000171259              -0.000470664               0.999999994              -0.000185301              -0.000497673               0.999999994              -0.000045598              -0.000272931               0.999999994              -0.000039293              -0.000241985               0.999999994              -0.000038992              -0.000238754               0.999999994              -0.000042409              -0.000248151               0.999999994              -0.000048129              -0.000264153               0.999999994              -0.000055522              -0.000284174               0.999999994              -0.000064244              -0.000306676               0.999999994              -0.000073928              -0.000330941               0.999999994              -0.000084401              -0.000356654               0.999999994              -0.000095659              -0.000383643               0.999999994              -0.000107732              -0.000411803               0.999999994              -0.000120567              -0.000440738               0.999999994              -0.000134102              -0.000470398               0.999999994              -0.000148180              -0.000500750               0.999999994              -0.000162658              -0.000531734               0.999999994              -0.000177250              -0.000563210               0.999999994              -0.000191778              -0.000594620               0.999999994              -0.000041512              -0.000310711               0.999999994              -0.000029184              -0.000277524               0.999999994              -0.000028290              -0.000275578               0.999999994              -0.000032831              -0.000287517               0.999999994              -0.000040153              -0.000306712               0.999999994              -0.000049252              -0.000330299               0.999999994              -0.000059574              -0.000356747               0.999999994              -0.000070854              -0.000384973               0.999999994              -0.000082920              -0.000414787               0.999999994              -0.000095819              -0.000446056               0.999999994              -0.000109462              -0.000478582               0.999999994              -0.000123806              -0.000511992               0.999999994              -0.000138656              -0.000546078               0.999999994              -0.000153885              -0.000580824               0.999999994              -0.000169313              -0.000616108               0.999999994              -0.000184608              -0.000651483               0.999999994              -0.000199534              -0.000686676               0.999999994              -0.000037422              -0.000344905               0.999999994              -0.000019391              -0.000311388               0.999999994              -0.000018949              -0.000310815               0.999999994              -0.000025081              -0.000325196               0.999999994              -0.000034191              -0.000347521               0.999999994              -0.000044928              -0.000374666               0.999999994              -0.000056850              -0.000404893               0.999999994              -0.000069594              -0.000437150               0.999999994              -0.000083218              -0.000471045               0.999999994              -0.000097623              -0.000506534               0.999999994              -0.000112657              -0.000543201               0.999999994              -0.000128240              -0.000580740               0.999999994              -0.000144221              -0.000618932               0.999999994              -0.000160447              -0.000657582               0.999999994              -0.000176616              -0.000696419               0.999999994              -0.000192602              -0.000735103               0.999999994              -0.000208236              -0.000773430               0.999999994              -0.000033815              -0.000376667               0.999999994              -0.000012211              -0.000346633               0.999999994              -0.000010045              -0.000343024               0.999999994              -0.000015110              -0.000353747               0.999999994              -0.000023349              -0.000372584               0.999999994              -0.000032987              -0.000396508               0.999999994              -0.000043637              -0.000423836               0.999999994              -0.000055002              -0.000453436               0.999999994              -0.000067102              -0.000484580               0.999999994              -0.000079806              -0.000517051               0.999999994              -0.000092982              -0.000550754               0.999999994              -0.000106539              -0.000585396               0.999999994              -0.000120403              -0.000620688               0.999999994              -0.000134464              -0.000656474               0.999999994              -0.000148667              -0.000692636               0.999999994              -0.000162943              -0.000728970               0.999999994              -0.000177161              -0.000765224               0.999999994              -0.000029676              -0.000405166               0.999999994              -0.000006708              -0.000379996               0.999999994              -0.000002809              -0.000375258               0.999999994              -0.000006480              -0.000383050               0.999999994              -0.000013392              -0.000398870               0.999999994              -0.000021750              -0.000419889               0.999999994              -0.000031022              -0.000444414               0.999999994              -0.000041109              -0.000471337               0.999999994              -0.000051725              -0.000500013               0.999999994              -0.000062675              -0.000530035               0.999999994              -0.000073919              -0.000561129               0.999999994              -0.000085496              -0.000593113               0.999999994              -0.000097150              -0.000625708               0.999999994              -0.000108724              -0.000658864               0.999999994              -0.000120270              -0.000692424               0.999999994              -0.000131772              -0.000726409               0.999999994              -0.000143239              -0.000760546               0.999999994              -0.000025235              -0.000429815               0.999999994              -0.000002798              -0.000410692               0.999999994               0.000002400              -0.000406216               0.999999994               0.000000267              -0.000412230               0.999999994              -0.000005096              -0.000425607               0.999999994              -0.000012089              -0.000444099               0.999999994              -0.000019972              -0.000466112               0.999999994              -0.000028489              -0.000490682               0.999999994              -0.000037512              -0.000517187               0.999999994              -0.000046823              -0.000545070               0.999999994              -0.000056327              -0.000573998               0.999999994              -0.000065847              -0.000603709               0.999999994              -0.000075107              -0.000634128               0.999999994              -0.000084056              -0.000665118               0.999999994              -0.000092586              -0.000696525               0.999999994              -0.000100748              -0.000728302               0.999999994              -0.000108564              -0.000760401               0.999999994              -0.000020599              -0.000450212               0.999999994              -0.000000425              -0.000437532               0.999999994               0.000005436              -0.000434493               0.999999994               0.000004706              -0.000439815               0.999999994               0.000000840              -0.000451563               0.999999994              -0.000004710              -0.000468022               0.999999994              -0.000011023              -0.000488016               0.999999994              -0.000017830              -0.000510602               0.999999994              -0.000025173              -0.000535226               0.999999994              -0.000032878              -0.000561323               0.999999994              -0.000040546              -0.000588513               0.999999994              -0.000047990              -0.000616565               0.999999994              -0.000055051              -0.000645381               0.999999994              -0.000061458              -0.000674730               0.999999994              -0.000067179              -0.000704452               0.999999994              -0.000072118              -0.000734481               0.999999994              -0.000076123              -0.000764831               0.999999994              -0.000015691              -0.000466302               0.999999994               0.000000754              -0.000459568               0.999999994               0.000006356              -0.000458603               0.999999994               0.000006538              -0.000463997               0.999999994               0.000003921              -0.000474851               0.999999994              -0.000000074              -0.000490052               0.999999994              -0.000004624              -0.000508622               0.999999994              -0.000009729              -0.000529766               0.999999994              -0.000015390              -0.000552887               0.999999994              -0.000021307              -0.000577573               0.999999994              -0.000027054              -0.000603495               0.999999994              -0.000032483              -0.000630454               0.999999994              -0.000037471              -0.000658228               0.999999994              -0.000041773              -0.000686574               0.999999994              -0.000045298              -0.000715260               0.999999994              -0.000047702              -0.000744205               0.999999994              -0.000048487              -0.000773358               0.999999994              -0.000010574              -0.000477850               0.999999994               0.000001029              -0.000475909               0.999999994               0.000005401              -0.000477012               0.999999994               0.000005967              -0.000482953               0.999999994               0.000004425              -0.000493575               0.999999994               0.000001840              -0.000508148               0.999999994              -0.000001093              -0.000525896               0.999999994              -0.000004453              -0.000546129               0.999999994              -0.000008213              -0.000568367               0.999999994              -0.000012194              -0.000592222               0.999999994              -0.000016017              -0.000617401               0.999999994              -0.000019505              -0.000643661               0.999999994              -0.000022546              -0.000670835               0.999999994              -0.000025139              -0.000698694               0.999999994              -0.000027063              -0.000727043               0.999999994              -0.000027870              -0.000755677               0.999999994              -0.000026828              -0.000784375               0.999999994              -0.000005330              -0.000484786               0.999999994               0.000000688              -0.000485952               0.999999994               0.000003079              -0.000488592               0.999999994               0.000003540              -0.000495043               0.999999994               0.000002775              -0.000505715               0.999999994               0.000001515              -0.000520141               0.999999994               0.000000115              -0.000537568               0.999999994              -0.000001482              -0.000557362               0.999999994              -0.000003333              -0.000579158               0.999999994              -0.000005346              -0.000602638               0.999999994              -0.000007262              -0.000627528               0.999999994              -0.000008918              -0.000653508               0.999999994              -0.000010357              -0.000680379               0.999999994              -0.000011504              -0.000707970               0.999999994              -0.000012254              -0.000736149               0.999999994              -0.000012392              -0.000764731               0.999999994              -0.000011401              -0.000793420               0.999999994              -0.000000000              -0.000487157               0.999999994              -0.000000000              -0.000489383               0.999999994               0.000000000              -0.000492568               0.999999994               0.000000000              -0.000499244               0.999999994              -0.000000000              -0.000509947               0.999999994              -0.000000000              -0.000524265               0.999999994               0.000000000              -0.000541638               0.999999994               0.000000000              -0.000561368               0.999999994              -0.000000000              -0.000583008               0.999999994               0.000000000              -0.000606427               0.999999994               0.000000000              -0.000631264               0.999999994              -0.000000000              -0.000657155               0.999999994               0.000000000              -0.000683916               0.999999994               0.000000000              -0.000711348               0.999999994              -0.000000000              -0.000739339               0.999999994               0.000000000              -0.000767770               0.999999994               0.000000000              -0.000796419               0.999999994               0.000058808              -0.000000000               0.999999994               0.000078177               0.000000000               0.999999994               0.000087342               0.000000000               0.999999994               0.000092691              -0.000000000               0.999999994               0.000096784               0.000000000               0.999999994               0.000100705              -0.000000000               0.999999994               0.000105006              -0.000000000               0.999999994               0.000109957              -0.000000000               0.999999994               0.000115657              -0.000000000               0.999999994               0.000122177               0.000000000               0.999999994               0.000129517               0.000000000               0.999999994               0.000137748               0.000000000               0.999999994               0.000146791               0.000000000               0.999999994               0.000156558               0.000000000               0.999999994               0.000166986               0.000000000               0.999999994               0.000177980               0.000000000               0.999999994               0.000189400              -0.000000000               0.999999994               0.000058390              -0.000048542               0.999999994               0.000076862              -0.000042509               0.999999994               0.000085512              -0.000040825               0.999999994               0.000090547              -0.000041535               0.999999994               0.000094498              -0.000043575               0.999999994               0.000098414              -0.000046459               0.999999994               0.000102749              -0.000049867               0.999999994               0.000107790              -0.000053755               0.999999994               0.000113627              -0.000058008               0.999999994               0.000120291              -0.000062511               0.999999994               0.000127768              -0.000067218               0.999999994               0.000136049              -0.000072065               0.999999994               0.000145093              -0.000076962               0.999999994               0.000154836              -0.000081827               0.999999994               0.000165202              -0.000086516               0.999999994               0.000176111              -0.000090839               0.999999994               0.000187475              -0.000094638               0.999999994               0.000057178              -0.000096565               0.999999994               0.000073019              -0.000084599               0.999999994               0.000080189              -0.000081486               0.999999994               0.000084488              -0.000083083               0.999999994               0.000088222              -0.000087484               0.999999994               0.000092227              -0.000093340               0.999999994               0.000096818              -0.000100307               0.999999994               0.000102194              -0.000108181               0.999999994               0.000108380              -0.000116712               0.999999994               0.000115391              -0.000125773               0.999999994               0.000123178              -0.000135198               0.999999994               0.000131679              -0.000144871               0.999999994               0.000140843              -0.000154673               0.999999994               0.000150594              -0.000164468               0.999999994               0.000160905              -0.000174074               0.999999994               0.000171793              -0.000183314               0.999999994               0.000183288              -0.000191922               0.999999994               0.000055245              -0.000143546               0.999999994               0.000066884              -0.000125853               0.999999994               0.000071988              -0.000121797               0.999999994               0.000075590              -0.000124749               0.999999994               0.000079277              -0.000131733               0.999999994               0.000083512              -0.000140833               0.999999994               0.000088544              -0.000151509               0.999999994               0.000094456              -0.000163502               0.999999994               0.000101200              -0.000176443               0.999999994               0.000108747              -0.000190123               0.999999994               0.000116993              -0.000204306               0.999999994               0.000125874              -0.000218798               0.999999994               0.000135383              -0.000233586               0.999999994               0.000145484              -0.000248482               0.999999994               0.000156198              -0.000263514               0.999999994               0.000167604              -0.000278507               0.999999994               0.000179751              -0.000293342               0.999999994               0.000052578              -0.000188947               0.999999994               0.000058810              -0.000165978               0.999999994               0.000061776              -0.000161587               0.999999994               0.000064833              -0.000166383               0.999999994               0.000068680              -0.000176172               0.999999994               0.000073524              -0.000188805               0.999999994               0.000079336              -0.000203349               0.999999994               0.000086143              -0.000219513               0.999999994               0.000093831              -0.000236856               0.999999994               0.000102258              -0.000255098               0.999999994               0.000111346              -0.000273945               0.999999994               0.000121163              -0.000293309               0.999999994               0.000131672              -0.000313123               0.999999994               0.000142867              -0.000333373               0.999999994               0.000154760              -0.000354031               0.999999994               0.000167325              -0.000375128               0.999999994               0.000180534              -0.000396576               0.999999994               0.000049332              -0.000232215               0.999999994               0.000049414              -0.000204737               0.999999994               0.000050454              -0.000200653               0.999999994               0.000053358              -0.000207642               0.999999994               0.000057847              -0.000220488               0.999999994               0.000063738              -0.000236801               0.999999994               0.000070873              -0.000255314               0.999999994               0.000079031              -0.000275581               0.999999994               0.000087981              -0.000297136               0.999999994               0.000097691              -0.000319794               0.999999994               0.000108170              -0.000343325               0.999999994               0.000119440              -0.000367554               0.999999994               0.000131463              -0.000392381               0.999999994               0.000144172              -0.000417840               0.999999994               0.000157477              -0.000443954               0.999999994               0.000171259              -0.000470664               0.999999994               0.000185301              -0.000497673               0.999999994               0.000045598              -0.000272931               0.999999994               0.000039293              -0.000241985               0.999999994               0.000038992              -0.000238754               0.999999994               0.000042409              -0.000248151               0.999999994               0.000048129              -0.000264153               0.999999994               0.000055522              -0.000284174               0.999999994               0.000064244              -0.000306676               0.999999994               0.000073928              -0.000330941               0.999999994               0.000084401              -0.000356654               0.999999994               0.000095659              -0.000383643               0.999999994               0.000107732              -0.000411803               0.999999994               0.000120567              -0.000440738               0.999999994               0.000134102              -0.000470398               0.999999994               0.000148180              -0.000500750               0.999999994               0.000162658              -0.000531734               0.999999994               0.000177250              -0.000563210               0.999999994               0.000191778              -0.000594620               0.999999994               0.000041512              -0.000310711               0.999999994               0.000029184              -0.000277524               0.999999994               0.000028290              -0.000275578               0.999999994               0.000032831              -0.000287517               0.999999994               0.000040153              -0.000306712               0.999999994               0.000049252              -0.000330299               0.999999994               0.000059574              -0.000356747               0.999999994               0.000070854              -0.000384973               0.999999994               0.000082920              -0.000414787               0.999999994               0.000095819              -0.000446056               0.999999994               0.000109462              -0.000478582               0.999999994               0.000123806              -0.000511992               0.999999994               0.000138656              -0.000546078               0.999999994               0.000153885              -0.000580824               0.999999994               0.000169313              -0.000616108               0.999999994               0.000184608              -0.000651483               0.999999994               0.000199534              -0.000686676               0.999999994               0.000037422              -0.000344905               0.999999994               0.000019391              -0.000311388               0.999999994               0.000018949              -0.000310815               0.999999994               0.000025081              -0.000325196               0.999999994               0.000034191              -0.000347521               0.999999994               0.000044928              -0.000374666               0.999999994               0.000056850              -0.000404893               0.999999994               0.000069594              -0.000437150               0.999999994               0.000083218              -0.000471045               0.999999994               0.000097623              -0.000506534               0.999999994               0.000112657              -0.000543201               0.999999994               0.000128240              -0.000580740               0.999999994               0.000144221              -0.000618932               0.999999994               0.000160447              -0.000657582               0.999999994               0.000176616              -0.000696419               0.999999994               0.000192602              -0.000735103               0.999999994               0.000208236              -0.000773430               0.999999994               0.000033815              -0.000376667               0.999999994               0.000012211              -0.000346633               0.999999994               0.000010045              -0.000343024               0.999999994               0.000015110              -0.000353747               0.999999994               0.000023349              -0.000372584               0.999999994               0.000032987              -0.000396508               0.999999994               0.000043637              -0.000423836               0.999999994               0.000055002              -0.000453436               0.999999994               0.000067102              -0.000484580               0.999999994               0.000079806              -0.000517051               0.999999994               0.000092982              -0.000550754               0.999999994               0.000106539              -0.000585396               0.999999994               0.000120403              -0.000620688               0.999999994               0.000134464              -0.000656474               0.999999994               0.000148667              -0.000692636               0.999999994               0.000162943              -0.000728970               0.999999994               0.000177161              -0.000765224               0.999999994               0.000029676              -0.000405166               0.999999994               0.000006708              -0.000379996               0.999999994               0.000002809              -0.000375258               0.999999994               0.000006480              -0.000383050               0.999999994               0.000013392              -0.000398870               0.999999994               0.000021750              -0.000419889               0.999999994               0.000031022              -0.000444414               0.999999994               0.000041109              -0.000471337               0.999999994               0.000051725              -0.000500013               0.999999994               0.000062675              -0.000530035               0.999999994               0.000073919              -0.000561129               0.999999994               0.000085496              -0.000593113               0.999999994               0.000097150              -0.000625708               0.999999994               0.000108724              -0.000658864               0.999999994               0.000120270              -0.000692424               0.999999994               0.000131772              -0.000726409               0.999999994               0.000143239              -0.000760546               0.999999994               0.000025235              -0.000429815               0.999999994               0.000002798              -0.000410692               0.999999994              -0.000002400              -0.000406216               0.999999994              -0.000000267              -0.000412230               0.999999994               0.000005096              -0.000425607               0.999999994               0.000012089              -0.000444099               0.999999994               0.000019972              -0.000466112               0.999999994               0.000028489              -0.000490682               0.999999994               0.000037512              -0.000517187               0.999999994               0.000046823              -0.000545070               0.999999994               0.000056327              -0.000573998               0.999999994               0.000065847              -0.000603709               0.999999994               0.000075107              -0.000634128               0.999999994               0.000084056              -0.000665118               0.999999994               0.000092586              -0.000696525               0.999999994               0.000100748              -0.000728302               0.999999994               0.000108564              -0.000760401               0.999999994               0.000020599              -0.000450212               0.999999994               0.000000425              -0.000437532               0.999999994              -0.000005436              -0.000434493               0.999999994              -0.000004706              -0.000439815               0.999999994              -0.000000840              -0.000451563               0.999999994               0.000004710              -0.000468022               0.999999994               0.000011023              -0.000488016               0.999999994               0.000017830              -0.000510602               0.999999994               0.000025173              -0.000535226               0.999999994               0.000032878              -0.000561323               0.999999994               0.000040546              -0.000588513               0.999999994               0.000047990              -0.000616565               0.999999994               0.000055051              -0.000645381               0.999999994               0.000061458              -0.000674730               0.999999994               0.000067179              -0.000704452               0.999999994               0.000072118              -0.000734481               0.999999994               0.000076123              -0.000764831               0.999999994               0.000015691              -0.000466302               0.999999994              -0.000000754              -0.000459568               0.999999994              -0.000006356              -0.000458603               0.999999994              -0.000006538              -0.000463997               0.999999994              -0.000003921              -0.000474851               0.999999994               0.000000074              -0.000490052               0.999999994               0.000004624              -0.000508622               0.999999994               0.000009729              -0.000529766               0.999999994               0.000015390              -0.000552887               0.999999994               0.000021307              -0.000577573               0.999999994               0.000027054              -0.000603495               0.999999994               0.000032483              -0.000630454               0.999999994               0.000037471              -0.000658228               0.999999994               0.000041773              -0.000686574               0.999999994               0.000045298              -0.000715260               0.999999994               0.000047702              -0.000744205               0.999999994               0.000048487              -0.000773358               0.999999994               0.000010574              -0.000477850               0.999999994              -0.000001029              -0.000475909               0.999999994              -0.000005401              -0.000477012               0.999999994              -0.000005967              -0.000482953               0.999999994              -0.000004425              -0.000493575               0.999999994              -0.000001840              -0.000508148               0.999999994               0.000001093              -0.000525896               0.999999994               0.000004453              -0.000546129               0.999999994               0.000008213              -0.000568367               0.999999994               0.000012194              -0.000592222               0.999999994               0.000016017              -0.000617401               0.999999994               0.000019505              -0.000643661               0.999999994               0.000022546              -0.000670835               0.999999994               0.000025139              -0.000698694               0.999999994               0.000027063              -0.000727043               0.999999994               0.000027870              -0.000755677               0.999999994               0.000026828              -0.000784375               0.999999994               0.000005330              -0.000484786               0.999999994              -0.000000688              -0.000485952               0.999999994              -0.000003079              -0.000488592               0.999999994              -0.000003540              -0.000495043               0.999999994              -0.000002775              -0.000505715               0.999999994              -0.000001515              -0.000520141               0.999999994              -0.000000115              -0.000537568               0.999999994               0.000001482              -0.000557362               0.999999994               0.000003333              -0.000579158               0.999999994               0.000005346              -0.000602638               0.999999994               0.000007262              -0.000627528               0.999999994               0.000008918              -0.000653508               0.999999994               0.000010357              -0.000680379               0.999999994               0.000011504              -0.000707970               0.999999994               0.000012254              -0.000736149               0.999999994               0.000012392              -0.000764731               0.999999994               0.000011401              -0.000793420               0.999999994              -0.000000000              -0.000487157               0.999999994              -0.000000000              -0.000489383               0.999999994               0.000000000              -0.000492568               0.999999994               0.000000000              -0.000499244               0.999999994              -0.000000000              -0.000509947               0.999999994              -0.000000000              -0.000524265               0.999999994               0.000000000              -0.000541638               0.999999994               0.000000000              -0.000561368               0.999999994              -0.000000000              -0.000583008               0.999999994               0.000000000              -0.000606427               0.999999994               0.000000000              -0.000631264               0.999999994              -0.000000000              -0.000657155               0.999999994               0.000000000              -0.000683916               0.999999994               0.000000000              -0.000711348               0.999999994              -0.000000000              -0.000739339               0.999999994               0.000000000              -0.000767770               0.999999994               0.000000000              -0.000796419               0.999999994               0.000058808              -0.000000000               0.999999994               0.000078177               0.000000000               0.999999994               0.000087342               0.000000000               0.999999994               0.000092691              -0.000000000               0.999999994               0.000096784               0.000000000               0.999999994               0.000100705              -0.000000000               0.999999994               0.000105006              -0.000000000               0.999999994               0.000109957              -0.000000000               0.999999994               0.000115657              -0.000000000               0.999999994               0.000122177               0.000000000               0.999999994               0.000129517               0.000000000               0.999999994               0.000137748               0.000000000               0.999999994               0.000146791               0.000000000               0.999999994               0.000156558               0.000000000               0.999999994               0.000166986               0.000000000               0.999999994               0.000177980               0.000000000               0.999999994               0.000189400              -0.000000000               0.999999994               0.000058390               0.000048542               0.999999994               0.000076862               0.000042509               0.999999994               0.000085512               0.000040825               0.999999994               0.000090547               0.000041535               0.999999994               0.000094498               0.000043575               0.999999994               0.000098414               0.000046459               0.999999994               0.000102749               0.000049867               0.999999994               0.000107790               0.000053755               0.999999994               0.000113627               0.000058008               0.999999994               0.000120291               0.000062511               0.999999994               0.000127768               0.000067218               0.999999994               0.000136049               0.000072065               0.999999994               0.000145093               0.000076962               0.999999994               0.000154836               0.000081827               0.999999994               0.000165202               0.000086516               0.999999994               0.000176111               0.000090839               0.999999994               0.000187475               0.000094638               0.999999994               0.000057178               0.000096565               0.999999994               0.000073019               0.000084599               0.999999994               0.000080189               0.000081486               0.999999994               0.000084488               0.000083083               0.999999994               0.000088222               0.000087484               0.999999994               0.000092227               0.000093340               0.999999994               0.000096818               0.000100307               0.999999994               0.000102194               0.000108181               0.999999994               0.000108380               0.000116712               0.999999994               0.000115391               0.000125773               0.999999994               0.000123178               0.000135198               0.999999994               0.000131679               0.000144871               0.999999994               0.000140843               0.000154673               0.999999994               0.000150594               0.000164468               0.999999994               0.000160905               0.000174074               0.999999994               0.000171793               0.000183314               0.999999994               0.000183288               0.000191922               0.999999994               0.000055245               0.000143546               0.999999994               0.000066884               0.000125853               0.999999994               0.000071988               0.000121797               0.999999994               0.000075590               0.000124749               0.999999994               0.000079277               0.000131733               0.999999994               0.000083512               0.000140833               0.999999994               0.000088544               0.000151509               0.999999994               0.000094456               0.000163502               0.999999994               0.000101200               0.000176443               0.999999994               0.000108747               0.000190123               0.999999994               0.000116993               0.000204306               0.999999994               0.000125874               0.000218798               0.999999994               0.000135383               0.000233586               0.999999994               0.000145484               0.000248482               0.999999994               0.000156198               0.000263514               0.999999994               0.000167604               0.000278507               0.999999994               0.000179751               0.000293342               0.999999994               0.000052578               0.000188947               0.999999994               0.000058810               0.000165978               0.999999994               0.000061776               0.000161587               0.999999994               0.000064833               0.000166383               0.999999994               0.000068680               0.000176172               0.999999994               0.000073524               0.000188805               0.999999994               0.000079336               0.000203349               0.999999994               0.000086143               0.000219513               0.999999994               0.000093831               0.000236856               0.999999994               0.000102258               0.000255098               0.999999994               0.000111346               0.000273945               0.999999994               0.000121163               0.000293309               0.999999994               0.000131672               0.000313123               0.999999994               0.000142867               0.000333373               0.999999994               0.000154760               0.000354031               0.999999994               0.000167325               0.000375128               0.999999994               0.000180534               0.000396576               0.999999994               0.000049332               0.000232215               0.999999994               0.000049414               0.000204737               0.999999994               0.000050454               0.000200653               0.999999994               0.000053358               0.000207642               0.999999994               0.000057847               0.000220488               0.999999994               0.000063738               0.000236801               0.999999994               0.000070873               0.000255314               0.999999994               0.000079031               0.000275581               0.999999994               0.000087981               0.000297136               0.999999994               0.000097691               0.000319794               0.999999994               0.000108170               0.000343325               0.999999994               0.000119440               0.000367554               0.999999994               0.000131463               0.000392381               0.999999994               0.000144172               0.000417840               0.999999994               0.000157477               0.000443954               0.999999994               0.000171259               0.000470664               0.999999994               0.000185301               0.000497673               0.999999994               0.000045598               0.000272931               0.999999994               0.000039293               0.000241985               0.999999994               0.000038992               0.000238754               0.999999994               0.000042409               0.000248151               0.999999994               0.000048129               0.000264153               0.999999994               0.000055522               0.000284174               0.999999994               0.000064244               0.000306676               0.999999994               0.000073928               0.000330941               0.999999994               0.000084401               0.000356654               0.999999994               0.000095659               0.000383643               0.999999994               0.000107732               0.000411803               0.999999994               0.000120567               0.000440738               0.999999994               0.000134102               0.000470398               0.999999994               0.000148180               0.000500750               0.999999994               0.000162658               0.000531734               0.999999994               0.000177250               0.000563210               0.999999994               0.000191778               0.000594620               0.999999994               0.000041512               0.000310711               0.999999994               0.000029184               0.000277524               0.999999994               0.000028290               0.000275578               0.999999994               0.000032831               0.000287517               0.999999994               0.000040153               0.000306712               0.999999994               0.000049252               0.000330299               0.999999994               0.000059574               0.000356747               0.999999994               0.000070854               0.000384973               0.999999994               0.000082920               0.000414787               0.999999994               0.000095819               0.000446056               0.999999994               0.000109462               0.000478582               0.999999994               0.000123806               0.000511992               0.999999994               0.000138656               0.000546078               0.999999994               0.000153885               0.000580824               0.999999994               0.000169313               0.000616108               0.999999994               0.000184608               0.000651483               0.999999994               0.000199534               0.000686676               0.999999994               0.000037422               0.000344905               0.999999994               0.000019391               0.000311388               0.999999994               0.000018949               0.000310815               0.999999994               0.000025081               0.000325196               0.999999994               0.000034191               0.000347521               0.999999994               0.000044928               0.000374666               0.999999994               0.000056850               0.000404893               0.999999994               0.000069594               0.000437150               0.999999994               0.000083218               0.000471045               0.999999994               0.000097623               0.000506534               0.999999994               0.000112657               0.000543201               0.999999994               0.000128240               0.000580740               0.999999994               0.000144221               0.000618932               0.999999994               0.000160447               0.000657582               0.999999994               0.000176616               0.000696419               0.999999994               0.000192602               0.000735103               0.999999994               0.000208236               0.000773430               0.999999994               0.000033815               0.000376667               0.999999994               0.000012211               0.000346633               0.999999994               0.000010045               0.000343024               0.999999994               0.000015110               0.000353747               0.999999994               0.000023349               0.000372584               0.999999994               0.000032987               0.000396508               0.999999994               0.000043637               0.000423836               0.999999994               0.000055002               0.000453436               0.999999994               0.000067102               0.000484580               0.999999994               0.000079806               0.000517051               0.999999994               0.000092982               0.000550754               0.999999994               0.000106539               0.000585396               0.999999994               0.000120403               0.000620688               0.999999994               0.000134464               0.000656474               0.999999994               0.000148667               0.000692636               0.999999994               0.000162943               0.000728970               0.999999994               0.000177161               0.000765224               0.999999994               0.000029676               0.000405166               0.999999994               0.000006708               0.000379996               0.999999994               0.000002809               0.000375258               0.999999994               0.000006480               0.000383050               0.999999994               0.000013392               0.000398870               0.999999994               0.000021750               0.000419889               0.999999994               0.000031022               0.000444414               0.999999994               0.000041109               0.000471337               0.999999994               0.000051725               0.000500013               0.999999994               0.000062675               0.000530035               0.999999994               0.000073919               0.000561129               0.999999994               0.000085496               0.000593113               0.999999994               0.000097150               0.000625708               0.999999994               0.000108724               0.000658864               0.999999994               0.000120270               0.000692424               0.999999994               0.000131772               0.000726409               0.999999994               0.000143239               0.000760546               0.999999994               0.000025235               0.000429815               0.999999994               0.000002798               0.000410692               0.999999994              -0.000002400               0.000406216               0.999999994              -0.000000267               0.000412230               0.999999994               0.000005096               0.000425607               0.999999994               0.000012089               0.000444099               0.999999994               0.000019972               0.000466112               0.999999994               0.000028489               0.000490682               0.999999994               0.000037512               0.000517187               0.999999994               0.000046823               0.000545070               0.999999994               0.000056327               0.000573998               0.999999994               0.000065847               0.000603709               0.999999994               0.000075107               0.000634128               0.999999994               0.000084056               0.000665118               0.999999994               0.000092586               0.000696525               0.999999994               0.000100748               0.000728302               0.999999994               0.000108564               0.000760401               0.999999994               0.000020599               0.000450212               0.999999994               0.000000425               0.000437532               0.999999994              -0.000005436               0.000434493               0.999999994              -0.000004706               0.000439815               0.999999994              -0.000000840               0.000451563               0.999999994               0.000004710               0.000468022               0.999999994               0.000011023               0.000488016               0.999999994               0.000017830               0.000510602               0.999999994               0.000025173               0.000535226               0.999999994               0.000032878               0.000561323               0.999999994               0.000040546               0.000588513               0.999999994               0.000047990               0.000616565               0.999999994               0.000055051               0.000645381               0.999999994               0.000061458               0.000674730               0.999999994               0.000067179               0.000704452               0.999999994               0.000072118               0.000734481               0.999999994               0.000076123               0.000764831               0.999999994               0.000015691               0.000466302               0.999999994              -0.000000754               0.000459568               0.999999994              -0.000006356               0.000458603               0.999999994              -0.000006538               0.000463997               0.999999994              -0.000003921               0.000474851               0.999999994               0.000000074               0.000490052               0.999999994               0.000004624               0.000508622               0.999999994               0.000009729               0.000529766               0.999999994               0.000015390               0.000552887               0.999999994               0.000021307               0.000577573               0.999999994               0.000027054               0.000603495               0.999999994               0.000032483               0.000630454               0.999999994               0.000037471               0.000658228               0.999999994               0.000041773               0.000686574               0.999999994               0.000045298               0.000715260               0.999999994               0.000047702               0.000744205               0.999999994               0.000048487               0.000773358               0.999999994               0.000010574               0.000477850               0.999999994              -0.000001029               0.000475909               0.999999994              -0.000005401               0.000477012               0.999999994              -0.000005967               0.000482953               0.999999994              -0.000004425               0.000493575               0.999999994              -0.000001840               0.000508148               0.999999994               0.000001093               0.000525896               0.999999994               0.000004453               0.000546129               0.999999994               0.000008213               0.000568367               0.999999994               0.000012194               0.000592222               0.999999994               0.000016017               0.000617401               0.999999994               0.000019505               0.000643661               0.999999994               0.000022546               0.000670835               0.999999994               0.000025139               0.000698694               0.999999994               0.000027063               0.000727043               0.999999994               0.000027870               0.000755677               0.999999994               0.000026828               0.000784375               0.999999994               0.000005330               0.000484786               0.999999994              -0.000000688               0.000485952               0.999999994              -0.000003079               0.000488592               0.999999994              -0.000003540               0.000495043               0.999999994              -0.000002775               0.000505715               0.999999994              -0.000001515               0.000520141               0.999999994              -0.000000115               0.000537568               0.999999994               0.000001482               0.000557362               0.999999994               0.000003333               0.000579158               0.999999994               0.000005346               0.000602638               0.999999994               0.000007262               0.000627528               0.999999994               0.000008918               0.000653508               0.999999994               0.000010357               0.000680379               0.999999994               0.000011504               0.000707970               0.999999994               0.000012254               0.000736149               0.999999994               0.000012392               0.000764731               0.999999994               0.000011401               0.000793420               0.999999994              -0.000000000               0.000487157               0.999999994               0.000000000               0.000489383               0.999999994              -0.000000000               0.000492568               0.999999994              -0.000000000               0.000499244               0.999999994               0.000000000               0.000509947               0.999999994              -0.000000000               0.000524265               0.999999994               0.000000000               0.000541638               0.999999994               0.000000000               0.000561368               0.999999994               0.000000000               0.000583008               0.999999994               0.000000000               0.000606427               0.999999994               0.000000000               0.000631264               0.999999994               0.000000000               0.000657155               0.999999994               0.000000000               0.000683916               0.999999994               0.000000000               0.000711348               0.999999994              -0.000000000               0.000739339               0.999999994              -0.000000000               0.000767770               0.999999994              -0.000000000               0.000796419               0.999999994 </DataArray>
<DataArray type="Float64"                                    Name="defo"                                                      NumberOfComponents=" 3" format="ascii">
             -0.000058808              -0.000000000               0.999999994              -0.000078177               0.000000000               0.999999994              -0.000087342              -0.000000000               0.999999994              -0.000092691               0.000000000               0.999999994              -0.000096784              -0.000000000               0.999999994              -0.000100705              -0.000000000               0.999999994              -0.000105006               0.000000000               0.999999994              -0.000109957              -0.000000000               0.999999994              -0.000115657              -0.000000000               0.999999994              -0.000122177              -0.000000000               0.999999994              -0.000129517               0.000000000               0.999999994              -0.000137748               0.000000000               0.999999994              -0.000146791               0.000000000               0.999999994              -0.000156558               0.000000000               0.999999994              -0.000166986               0.000000000               0.999999994              -0.000177980               0.000000000               0.999999994              -0.000189400               0.000000000               0.999999994              -0.000058390               0.000048542               0.999999994              -0.000076862               0.000042509               0.999999994              -0.000085512               0.000040825               0.999999994              -0.000090547               0.000041535               0.999999994              -0.000094498               0.000043575               0.999999994              -0.000098414               0.000046459               0.999999994              -0.000102749               0.000049867               0.999999994              -0.000107790               0.000053755               0.999999994              -0.000113627               0.000058008               0.999999994              -0.000120291               0.000062511               0.999999994              -0.000127768               0.000067218               0.999999994              -0.000136049               0.000072065               0.999999994              -0.000145093               0.000076962               0.999999994              -0.000154836               0.000081827               0.999999994              -0.000165202               0.000086516               0.999999994              -0.000176111               0.000090839               0.999999994              -0.000187475               0.000094638               0.999999994              -0.000057178               0.000096565               0.999999994              -0.000073019               0.000084599               0.999999994              -0.000080189               0.000081486               0.999999994              -0.000084488               0.000083083               0.999999994              -0.000088222               0.000087484               0.999999994              -0.000092227               0.000093340               0.999999994              -0.000096818               0.000100307               0.999999994              -0.000102194               0.000108181               0.999999994              -0.000108380               0.000116712               0.999999994              -0.000115391               0.000125773               0.999999994              -0.000123178               0.000135198               0.999999994              -0.000131679               0.000144871               0.999999994              -0.000140843               0.000154673               0.999999994              -0.000150594               0.000164468               0.999999994              -0.000160905               0.000174074               0.999999994              -0.000171793               0.000183314               0.999999994              -0.000183288               0.000191922               0.999999994              -0.000055245               0.000143546               0.999999994              -0.000066884               0.000125853               0.999999994              -0.000071988               0.000121797               0.999999994              -0.000075590               0.000124749               0.999999994              -0.000079277               0.000131733               0.999999994              -0.000083512               0.000140833               0.999999994              -0.000088544               0.000151509               0.999999994              -0.000094456               0.000163502               0.999999994              -0.000101200               0.000176443               0.999999994              -0.000108747               0.000190123               0.999999994              -0.000116993               0.000204306               0.999999994              -0.000125874               0.000218798               0.999999994              -0.000135383               0.000233586               0.999999994              -0.000145484               0.000248482               0.999999994              -0.000156198               0.000263514               0.999999994              -0.000167604               0.000278507               0.999999994              -0.000179751               0.000293342               0.999999994              -0.000052578               0.000188947               0.999999994              -0.000058810               0.000165978               0.999999994              -0.000061776               0.000161587               0.999999994              -0.000064833               0.000166383               0.999999994              -0.000068680               0.000176172               0.999999994              -0.000073524               0.000188805               0.999999994              -0.000079336               0.000203349               0.999999994              -0.000086143               0.000219513               0.999999994              -0.000093831               0.000236856               0.999999994              -0.000102258               0.000255098               0.999999994              -0.000111346               0.000273945               0.999999994              -0.000121163               0.000293309               0.999999994              -0.000131672               0.000313123               0.999999994              -0.000142867               0.000333373               0.999999994              -0.000154760               0.000354031               0.999999994              -0.000167325               0.000375128               0.999999994              -0.000180534               0.000396576               0.999999994              -0.000049332               0.000232215               0.999999994              -0.000049414               0.000204737               0.999999994              -0.000050454               0.000200653               0.999999994              -0.000053358               0.000207642               0.999999994              -0.000057847               0.000220488               0.999999994              -0.000063738               0.000236801               0.999999994              -0.000070873               0.000255314               0.999999994              -0.000079031               0.000275581               0.999999994              -0.000087981               0.000297136               0.999999994              -0.000097691               0.000319794               0.999999994              -0.000108170               0.000343325               0.999999994              -0.000119440               0.000367554               0.999999994              -0.000131463               0.000392381               0.999999994              -0.000144172               0.000417840               0.999999994              -0.000157477               0.000443954               0.999999994              -0.000171259               0.000470664               0.999999994              -0.000185301               0.000497673               0.999999994              -0.000045598               0.000272931               0.999999994              -0.000039293               0.000241985               0.999999994              -0.000038992               0.000238754               0.999999994              -0.000042409               0.000248151               0.999999994              -0.000048129               0.000264153               0.999999994              -0.000055522               0.000284174               0.999999994              -0.000064244               0.000306676               0.999999994              -0.000073928               0.000330941               0.999999994              -0.000084401               0.000356654               0.999999994              -0.000095659               0.000383643               0.999999994              -0.000107732               0.000411803               0.999999994              -0.000120567               0.000440738               0.999999994              -0.000134102               0.000470398               0.999999994              -0.000148180               0.000500750               0.999999994              -0.000162658               0.000531734               0.999999994              -0.000177250               0.000563210               0.999999994              -0.000191778               0.000594620               0.999999994              -0.000041512               0.000310711               0.999999994              -0.000029184               0.000277524               0.999999994              -0.000028290               0.000275578               0.999999994              -0.000032831               0.000287517               0.999999994              -0.000040153               0.000306712               0.999999994              -0.000049252               0.000330299               0.999999994              -0.000059574               0.000356747               0.999999994              -0.000070854               0.000384973               0.999999994              -0.000082920               0.000414787               0.999999994              -0.000095819               0.000446056               0.999999994              -0.000109462               0.000478582               0.999999994              -0.000123806               0.000511992               0.999999994              -0.000138656               0.000546078               0.999999994              -0.000153885               0.000580824               0.999999994              -0.000169313               0.000616108               0.999999994              -0.000184608               0.000651483               0.999999994              -0.000199534               0.000686676               0.999999994              -0.000037422               0.000344905               0.999999994              -0.000019391               0.000311388               0.999999994              -0.000018949               0.000310815               0.999999994              -0.000025081               0.000325196               0.999999994              -0.000034191               0.000347521               0.999999994              -0.000044928               0.000374666               0.999999994              -0.000056850               0.000404893               0.999999994              -0.000069594               0.000437150               0.999999994              -0.000083218               0.000471045               0.999999994              -0.000097623               0.000506534               0.999999994              -0.000112657               0.000543201               0.999999994              -0.000128240               0.000580740               0.999999994              -0.000144221               0.000618932               0.999999994              -0.000160447               0.000657582               0.999999994              -0.000176616               0.000696419               0.999999994              -0.000192602               0.000735103               0.999999994              -0.000208236               0.000773430               0.999999994              -0.000033815               0.000376667               0.999999994              -0.000012211               0.000346633               0.999999994              -0.000010045               0.000343024               0.999999994              -0.000015110               0.000353747               0.999999994              -0.000023349               0.000372584               0.999999994              -0.000032987               0.000396508               0.999999994              -0.000043637               0.000423836               0.999999994              -0.000055002               0.000453436               0.999999994              -0.000067102               0.000484580               0.999999994              -0.000079806               0.000517051               0.999999994              -0.000092982               0.000550754               0.999999994              -0.000106539               0.000585396               0.999999994              -0.000120403               0.000620688               0.999999994              -0.000134464               0.000656474               0.999999994              -0.000148667               0.000692636               0.999999994              -0.000162943               0.000728970               0.999999994              -0.000177161               0.000765224               0.999999994              -0.000029676               0.000405166               0.999999994              -0.000006708               0.000379996               0.999999994              -0.000002809               0.000375258               0.999999994              -0.000006480               0.000383050               0.999999994              -0.000013392               0.000398870               0.999999994              -0.000021750               0.000419889               0.999999994              -0.000031022               0.000444414               0.999999994              -0.000041109               0.000471337               0.999999994              -0.000051725               0.000500013               0.999999994              -0.000062675               0.000530035               0.999999994              -0.000073919               0.000561129               0.999999994              -0.000085496               0.000593113               0.999999994              -0.000097150               0.000625708               0.999999994              -0.000108724               0.000658864               0.999999994              -0.000120270               0.000692424               0.999999994              -0.000131772               0.000726409               0.999999994              -0.000143239               0.000760546               0.999999994              -0.000025235               0.000429815               0.999999994              -0.000002798               0.000410692               0.999999994               0.000002400               0.000406216               0.999999994               0.000000267               0.000412230               0.999999994              -0.000005096               0.000425607               0.999999994              -0.000012089               0.000444099               0.999999994              -0.000019972               0.000466112               0.999999994              -0.000028489               0.000490682               0.999999994              -0.000037512               0.000517187               0.999999994              -0.000046823               0.000545070               0.999999994              -0.000056327               0.000573998               0.999999994              -0.000065847               0.000603709               0.999999994              -0.000075107               0.000634128               0.999999994              -0.000084056               0.000665118               0.999999994              -0.000092586               0.000696525               0.999999994              -0.000100748               0.000728302               0.999999994              -0.000108564               0.000760401               0.999999994              -0.000020599               0.000450212               0.999999994              -0.000000425               0.000437532               0.999999994               0.000005436               0.000434493               0.999999994               0.000004706               0.000439815               0.999999994               0.000000840               0.000451563               0.999999994              -0.000004710               0.000468022               0.999999994              -0.000011023               0.000488016               0.999999994              -0.000017830               0.000510602               0.999999994              -0.000025173               0.000535226               0.999999994              -0.000032878               0.000561323               0.999999994              -0.000040546               0.000588513               0.999999994              -0.000047990               0.000616565               0.999999994              -0.000055051               0.000645381               0.999999994              -0.000061458               0.000674730               0.999999994              -0.000067179               0.000704452               0.999999994              -0.000072118               0.000734481               0.999999994              -0.000076123               0.000764831               0.999999994              -0.000015691               0.000466302               0.999999994               0.000000754               0.000459568               0.999999994               0.000006356               0.000458603               0.999999994               0.000006538               0.000463997               0.999999994               0.000003921               0.000474851               0.999999994              -0.000000074               0.000490052               0.999999994              -0.000004624               0.000508622               0.999999994              -0.000009729               0.000529766               0.999999994              -0.000015390               0.000552887               0.999999994              -0.000021307               0.000577573               0.999999994              -0.000027054               0.000603495               0.999999994              -0.000032483               0.000630454               0.999999994              -0.000037471               0.000658228               0.999999994              -0.000041773               0.000686574               0.999999994              -0.000045298               0.000715260               0.999999994              -0.000047702               0.000744205               0.999999994              -0.000048487               0.000773358               0.999999994              -0.000010574               0.000477850               0.999999994               0.000001029               0.000475909               0.999999994               0.000005401               0.000477012               0.999999994               0.000005967               0.000482953               0.999999994               0.000004425               0.000493575               0.999999994               0.000001840               0.000508148               0.999999994              -0.000001093               0.000525896               0.999999994              -0.000004453               0.000546129               0.999999994              -0.000008213               0.000568367               0.999999994              -0.000012194               0.000592222               0.999999994              -0.000016017               0.000617401               0.999999994              -0.000019505               0.000643661               0.999999994              -0.000022546               0.000670835               0.999999994              -0.000025139               0.000698694               0.999999994              -0.000027063               0.000727043               0.999999994              -0.000027870               0.000755677               0.999999994              -0.000026828               0.000784375               0.999999994              -0.000005330               0.000484786               0.999999994               0.000000688               0.000485952               0.999999994               0.000003079               0.000488592               0.999999994               0.000003540               0.000495043               0.999999994               0.000002775               0.000505715               0.999999994               0.000001515               0.000520141               0.999999994               0.000000115               0.000537568               0.999999994              -0.000001482               0.000557362               0.999999994              -0.000003333               0.000579158               0.999999994              -0.000005346               0.000602638               0.999999994              -0.000007262               0.000627528               0.999999994              -0.000008918               0.000653508               0.999999994              -0.000010357               0.000680379               0.999999994              -0.000011504               0.000707970               0.999999994              -0.000012254               0.000736149               0.999999994              -0.000012392               0.000764731               0.999999994              -0.000011401               0.000793420               0.999999994              -0.000000000               0.000487157               0.999999994               0.000000000               0.000489383               0.999999994              -0.000000000               0.000492568               0.999999994              -0.000000000               0.000499244               0.999999994               0.000000000               0.000509947               0.999999994              -0.000000000               0.000524265               0.999999994               0.000000000               0.000541638               0.999999994               0.000000000               0.000561368               0.999999994               0.000000000               0.000583008               0.999999994               0.000000000               0.000606427               0.999999994               0.000000000               0.000631264               0.999999994               0.000000000               0.000657155               0.999999994               0.000000000               0.000683916               0.999999994               0.000000000               0.000711348               0.999999994              -0.000000000               0.000739339               0.999999994              -0.000000000               0.000767770               0.999999994              -0.000000000               0.000796419               0.999999994              -0.000058808              -0.000000000               0.999999994              -0.000078177               0.000000000               0.999999994              -0.000087342              -0.000000000               0.999999994              -0.000092691               0.000000000               0.999999994              -0.000096784              -0.000000000               0.999999994              -0.000100705              -0.000000000               0.999999994              -0.000105006               0.000000000               0.999999994              -0.000109957              -0.000000000               0.999999994              -0.000115657              -0.000000000               0.999999994              -0.000122177              -0.000000000               0.999999994              -0.000129517               0.000000000               0.999999994              -0.000137748               0.000000000               0.999999994              -0.000146791               0.000000000               0.999999994              -0.000156558               0.000000000               0.999999994              -0.000166986               0.000000000               0.999999994              -0.000177980               0.000000000               0.999999994              -0.000189400               0.000000000               0.999999994              -0.000058390              -0.000048542               0.999999994              -0.000076862              -0.000042509               0.999999994              -0.000085512              -0.000040825               0.999999994              -0.000090547              -0.000041535               0.999999994              -0.000094498              -0.000043575               0.999999994              -0.000098414              -0.000046459               0.999999994              -0.000102749              -0.000049867               0.999999994              -0.000107790              -0.000053755               0.999999994              -0.000113627              -0.000058008               0.999999994              -0.000120291              -0.000062511               0.999999994              -0.000127768              -0.000067218               0.999999994              -0.000136049              -0.000072065               0.999999994              -0.000145093              -0.000076962               0.999999994              -0.000154836              -0.000081827               0.999999994              -0.000165202              -0.000086516               0.999999994              -0.000176111              -0.000090839               0.999999994              -0.000187475              -0.000094638               0.999999994              -0.000057178              -0.000096565               0.999999994              -0.000073019              -0.000084599               0.999999994              -0.000080189              -0.000081486               0.999999994              -0.000084488              -0.000083083               0.999999994              -0.000088222              -0.000087484               0.999999994              -0.000092227              -0.000093340               0.999999994              -0.000096818              -0.000100307               0.999999994              -0.000102194              -0.000108181               0.999999994              -0.000108380              -0.000116712               0.999999994              -0.000115391              -0.000125773               0.999999994              -0.000123178              -0.000135198               0.999999994              -0.000131679              -0.000144871               0.999999994              -0.000140843              -0.000154673               0.999999994              -0.000150594              -0.000164468               0.999999994              -0.000160905              -0.000174074               0.999999994              -0.000171793              -0.000183314               0.999999994              -0.000183288              -0.000191922               0.999999994              -0.000055245              -0.000143546               0.999999994              -0.000066884              -0.000125853               0.999999994              -0.000071988              -0.000121797               0.999999994              -0.000075590              -0.000124749               0.999999994              -0.000079277              -0.000131733               0.999999994              -0.000083512              -0.000140833               0.999999994              -0.000088544              -0.000151509               0.999999994              -0.000094456              -0.000163502               0.999999994              -0.000101200              -0.000176443               0.999999994              -0.000108747              -0.000190123               0.999999994              -0.000116993              -0.000204306               0.999999994              -0.000125874              -0.000218798               0.999999994              -0.000135383              -0.000233586               0.999999994              -0.000145484              -0.000248482               0.999999994              -0.000156198              -0.000263514               0.999999994              -0.000167604              -0.000278507               0.999999994              -0.000179751              -0.000293342               0.999999994              -0.000052578              -0.000188947               0.999999994              -0.000058810              -0.000165978               0.999999994              -0.000061776              -0.000161587               0.999999994              -0.000064833              -0.000166383               0.999999994              -0.000068680              -0.000176172               0.999999994              -0.000073524              -0.000188805               0.999999994              -0.000079336              -0.000203349               0.999999994              -0.000086143              -0.000219513               0.999999994              -0.000093831              -0.000236856               0.999999994              -0.000102258              -0.000255098               0.999999994              -0.000111346              -0.000273945               0.999999994              -0.000121163              -0.000293309               0.999999994              -0.000131672              -0.000313123               0.999999994              -0.000142867              -0.000333373               0.999999994              -0.000154760              -0.000354031               0.999999994              -0.000167325              -0.000375128               0.999999994              -0.000180534              -0.000396576               0.999999994              -0.000049332              -0.000232215               0.999999994              -0.000049414              -0.000204737               0.999999994              -0.000050454              -0.000200653               0.999999994              -0.000053358              -0.000207642               0.999999994              -0.000057847              -0.000220488               0.999999994              -0.000063738              -0.000236801               0.999999994              -0.000070873              -0.000255314               0.999999994              -0.000079031              -0.000275581               0.999999994              -0.000087981              -0.000297136               0.999999994              -0.000097691              -0.000319794               0.999999994              -0.000108170              -0.000343325               0.999999994              -0.000119440              -0.000367554               0.999999994              -0.000131463              -0.000392381               0.999999994              -0.000144172              -0.000417840               0.999999994              -0.000157477              -0.000443954               0.999999994              -0.000171259              -0.000470664               0.999999994              -0.000185301              -0.000497673               0.999999994              -0.000045598              -0.000272931               0.999999994              -0.000039293              -0.000241985               0.999999994              -0.000038992              -0.000238754               0.999999994              -0.000042409              -0.000248151               0.999999994              -0.000048129              -0.000264153               0.999999994              -0.000055522              -0.000284174               0.999999994              -0.000064244              -0.000306676               0.999999994              -0.000073928              -0.000330941               0.999999994              -0.000084401              -0.000356654               0.999999994              -0.000095659              -0.000383643               0.999999994              -0.000107732              -0.000411803               0.999999994              -0.000120567              -0.000440738               0.999999994              -0.000134102              -0.000470398               0.999999994              -0.000148180              -0.000500750               0.999999994              -0.000162658              -0.000531734               0.999999994              -0.000177250              -0.000563210               0.999999994              -0.000191778              -0.000594620               0.999999994              -0.000041512              -0.000310711               0.999999994              -0.000029184              -0.000277524               0.999999994              -0.000028290              -0.000275578               0.999999994              -0.000032831              -0.000287517               0.999999994              -0.000040153              -0.000306712               0.999999994              -0.000049252              -0.000330299               0.999999994              -0.000059574              -0.000356747               0.999999994              -0.000070854              -0.000384973               0.999999994              -0.000082920              -0.000414787               0.999999994              -0.000095819              -0.000446056               0.999999994              -0.000109462              -0.000478582               0.999999994              -0.000123806              -0.000511992               0.999999994              -0.000138656              -0.000546078               0.999999994              -0.000153885              -0.000580824               0.999999994              -0.000169313              -0.000616108               0.999999994              -0.000184608              -0.000651483               0.999999994              -0.000199534              -0.000686676               0.999999994              -0.000037422              -0.000344905               0.999999994              -0.000019391              -0.000311388               0.999999994              -0.000018949              -0.000310815               0.999999994              -0.000025081              -0.000325196               0.999999994              -0.000034191              -0.000347521               0.999999994              -0.000044928              -0.000374666               0.999999994              -0.000056850              -0.000404893               0.999999994              -0.000069594              -0.000437150               0.999999994              -0.000083218              -0.000471045               0.999999994              -0.000097623              -0.000506534               0.999999994              -0.000112657              -0.000543201               0.999999994              -0.000128240              -0.000580740               0.999999994              -0.000144221              -0.000618932               0.999999994              -0.000160447              -0.000657582               0.999999994              -0.000176616              -0.000696419               0.999999994              -0.000192602              -0.000735103               0.999999994              -0.000208236              -0.000773430               0.999999994              -0.000033815              -0.000376667               0.999999994              -0.000012211              -0.000346633               0.999999994              -0.000010045              -0.000343024               0.999999994              -0.000015110              -0.000353747               0.999999994              -0.000023349              -0.000372584               0.999999994              -0.000032987              -0.000396508               0.999999994              -0.000043637              -0.000423836               0.999999994              -0.000055002              -0.000453436               0.999999994              -0.000067102              -0.000484580               0.999999994              -0.000079806              -0.000517051               0.999999994              -0.000092982              -0.000550754               0.999999994              -0.000106539              -0.000585396               0.999999994              -0.000120403              -0.000620688               0.999999994              -0.000134464              -0.000656474               0.999999994              -0.000148667              -0.000692636               0.999999994              -0.000162943              -0.000728970               0.999999994              -0.000177161              -0.000765224               0.999999994              -0.000029676              -0.000405166               0.999999994              -0.000006708              -0.000379996               0.999999994              -0.000002809              -0.000375258               0.999999994              -0.000006480              -0.000383050               0.999999994              -0.000013392              -0.000398870               0.999999994              -0.000021750              -0.000419889               0.999999994              -0.000031022              -0.000444414               0.999999994              -0.000041109              -0.000471337               0.999999994              -0.000051725              -0.000500013               0.999999994              -0.000062675              -0.000530035               0.999999994              -0.000073919              -0.000561129               0.999999994              -0.000085496              -0.000593113               0.999999994              -0.000097150              -0.000625708               0.999999994              -0.000108724              -0.000658864               0.999999994              -0.000120270              -0.000692424               0.999999994              -0.000131772              -0.000726409               0.999999994              -0.000143239              -0.000760546               0.999999994              -0.000025235              -0.000429815               0.999999994              -0.000002798              -0.000410692               0.999999994               0.000002400              -0.000406216               0.999999994               0.000000267              -0.000412230               0.999999994              -0.000005096              -0.000425607               0.999999994              -0.000012089              -0.000444099               0.999999994              -0.000019972              -0.000466112               0.999999994              -0.000028489              -0.000490682               0.999999994              -0.000037512              -0.000517187               0.999999994              -0.000046823              -0.000545070               0.999999994              -0.000056327              -0.000573998               0.999999994              -0.000065847              -0.000603709               0.999999994              -0.000075107              -0.000634128               0.999999994              -0.000084056              -0.000665118               0.999999994              -0.000092586              -0.000696525               0.999999994              -0.000100748              -0.000728302               0.999999994              -0.000108564              -0.000760401               0.999999994              -0.000020599              -0.000450212               0.999999994              -0.000000425              -0.000437532               0.999999994               0.000005436              -0.000434493               0.999999994               0.000004706              -0.000439815               0.999999994               0.000000840              -0.000451563               0.999999994              -0.000004710              -0.000468022               0.999999994              -0.000011023              -0.000488016               0.999999994              -0.000017830              -0.000510602               0.999999994              -0.000025173              -0.000535226               0.999999994              -0.000032878              -0.000561323               0.999999994              -0.000040546              -0.000588513               0.999999994              -0.000047990              -0.000616565               0.999999994              -0.000055051              -0.000645381               0.999999994              -0.000061458              -0.000674730               0.999999994              -0.000067179              -0.000704452               0.999999994              -0.000072118              -0.000734481               0.999999994              -0.000076123              -0.000764831               0.999999994              -0.000015691              -0.000466302               0.999999994               0.000000754              -0.000459568               0.999999994               0.000006356              -0.000458603               0.999999994               0.000006538              -0.000463997               0.999999994               0.000003921              -0.000474851               0.999999994              -0.000000074              -0.000490052               0.999999994              -0.000004624              -0.000508622               0.999999994              -0.000009729              -0.000529766               0.999999994              -0.000015390              -0.000552887               0.999999994              -0.000021307              -0.000577573               0.999999994              -0.000027054              -0.000603495               0.999999994              -0.000032483              -0.000630454               0.999999994              -0.000037471              -0.000658228               0.999999994              -0.000041773              -0.000686574               0.999999994              -0.000045298              -0.000715260               0.999999994              -0.000047702              -0.000744205               0.999999994              -0.000048487              -0.000773358               0.999999994              -0.000010574              -0.000477850               0.999999994               0.000001029              -0.000475909               0.999999994               0.000005401              -0.000477012               0.999999994               0.000005967              -0.000482953               0.999999994               0.000004425              -0.000493575               0.999999994               0.000001840              -0.000508148               0.999999994              -0.000001093              -0.000525896               0.999999994              -0.000004453              -0.000546129               0.999999994              -0.000008213              -0.000568367               0.999999994              -0.000012194              -0.000592222               0.999999994              -0.000016017              -0.000617401               0.999999994              -0.000019505              -0.000643661               0.999999994              -0.000022546              -0.000670835               0.999999994              -0.000025139              -0.000698694               0.999999994              -0.000027063              -0.000727043               0.999999994              -0.000027870              -0.000755677               0.999999994              -0.000026828              -0.000784375               0.999999994              -0.000005330              -0.000484786               0.999999994               0.000000688              -0.000485952               0.999999994               0.000003079              -0.000488592               0.999999994               0.000003540              -0.000495043               0.999999994               0.000002775              -0.000505715               0.999999994               0.000001515              -0.000520141               0.999999994               0.000000115              -0.000537568               0.999999994              -0.000001482              -0.000557362               0.999999994              -0.000003333              -0.000579158               0.999999994              -0.000005346              -0.000602638               0.999999994              -0.000007262              -0.000627528               0.999999994              -0.000008918              -0.000653508               0.999999994              -0.000010357              -0.000680379               0.999999994              -0.000011504              -0.000707970               0.999999994              -0.000012254              -0.000736149               0.999999994              -0.000012392              -0.000764731               0.999999994              -0.000011401              -0.000793420               0.999999994              -0.000000000              -0.000487157               0.999999994              -0.000000000              -0.000489383               0.999999994               0.000000000              -0.000492568               0.999999994               0.000000000              -0.000499244               0.999999994              -0.000000000              -0.000509947               0.999999994              -0.000000000              -0.000524265               0.999999994               0.000000000              -0.000541638               0.999999994               0.000000000              -0.000561368               0.999999994              -0.000000000              -0.000583008               0.999999994               0.000000000              -0.000606427               0.999999994               0.000000000              -0.000631264               0.999999994              -0.000000000              -0.000657155               0.999999994               0.000000000              -0.000683916               0.999999994               0.000000000              -0.000711348               0.999999994              -0.000000000              -0.000739339               0.999999994               0.000000000              -0.000767770               0.999999994               0.000000000              -0.000796419               0.999999994               0.000058808              -0.000000000               0.999999994               0.000078177               0.000000000               0.999999994               0.000087342               0.000000000               0.999999994               0.000092691              -0.000000000               0.999999994               0.000096784               0.000000000               0.999999994               0.000100705              -0.000000000               0.999999994               0.000105006              -0.000000000               0.999999994               0.000109957              -0.000000000               0.999999994               0.000115657              -0.000000000               0.999999994               0.000122177               0.000000000               0.999999994               0.000129517               0.000000000               0.999999994               0.000137748               0.000000000               0.999999994               0.000146791               0.000000000               0.999999994               0.000156558               0.000000000               0.999999994               0.000166986               0.000000000               0.999999994               0.000177980               0.000000000               0.999999994               0.000189400              -0.000000000               0.999999994               0.000058390              -0.000048542               0.999999994               0.000076862              -0.000042509               0.999999994               0.000085512              -0.000040825               0.999999994               0.000090547              -0.000041535               0.999999994               0.000094498              -0.000043575               0.999999994               0.000098414              -0.000046459               0.999999994               0.000102749              -0.000049867               0.999999994               0.000107790              -0.000053755               0.999999994               0.000113627              -0.000058008               0.999999994               0.000120291              -0.000062511               0.999999994               0.000127768              -0.000067218               0.999999994               0.000136049              -0.000072065               0.999999994               0.000145093              -0.000076962               0.999999994               0.000154836              -0.000081827               0.999999994               0.000165202              -0.000086516               0.999999994               0.000176111              -0.000090839               0.999999994               0.000187475              -0.000094638               0.999999994               0.000057178              -0.000096565               0.999999994               0.000073019              -0.000084599               0.999999994               0.000080189              -0.000081486               0.999999994               0.000084488              -0.000083083               0.999999994               0.000088222              -0.000087484               0.999999994               0.000092227              -0.000093340               0.999999994               0.000096818              -0.000100307               0.999999994               0.000102194              -0.000108181               0.999999994               0.000108380              -0.000116712               0.999999994               0.000115391              -0.000125773               0.999999994               0.000123178              -0.000135198               0.999999994               0.000131679              -0.000144871               0.999999994               0.000140843              -0.000154673               0.999999994               0.000150594              -0.000164468               0.999999994               0.000160905              -0.000174074               0.999999994               0.000171793              -0.000183314               0.999999994               0.000183288              -0.000191922               0.999999994               0.000055245              -0.000143546               0.999999994               0.000066884              -0.000125853               0.999999994               0.000071988              -0.000121797               0.999999994               0.000075590              -0.000124749               0.999999994               0.000079277              -0.000131733               0.999999994               0.000083512              -0.000140833               0.999999994               0.000088544              -0.000151509               0.999999994               0.000094456              -0.000163502               0.999999994               0.000101200              -0.000176443               0.999999994               0.000108747              -0.000190123               0.999999994               0.000116993              -0.000204306               0.999999994               0.000125874              -0.000218798               0.999999994               0.000135383              -0.000233586               0.999999994               0.000145484              -0.000248482               0.999999994               0.000156198              -0.000263514               0.999999994               0.000167604              -0.000278507               0.999999994               0.000179751              -0.000293342               0.999999994               0.000052578              -0.000188947               0.999999994               0.000058810              -0.000165978               0.999999994               0.000061776              -0.000161587               0.999999994               0.000064833              -0.000166383               0.999999994               0.000068680              -0.000176172               0.999999994               0.000073524              -0.000188805               0.999999994               0.000079336              -0.000203349               0.999999994               0.000086143              -0.000219513               0.999999994               0.000093831              -0.000236856               0.999999994               0.000102258              -0.000255098               0.999999994               0.000111346              -0.000273945               0.999999994               0.000121163              -0.000293309               0.999999994               0.000131672              -0.000313123               0.999999994               0.000142867              -0.000333373               0.999999994               0.000154760              -0.000354031               0.999999994               0.000167325              -0.000375128               0.999999994               0.000180534              -0.000396576               0.999999994               0.000049332              -0.000232215               0.999999994               0.000049414              -0.000204737               0.999999994               0.000050454              -0.000200653               0.999999994               0.000053358              -0.000207642               0.999999994               0.000057847              -0.000220488               0.999999994               0.000063738              -0.000236801               0.999999994               0.000070873              -0.000255314               0.999999994               0.000079031              -0.000275581               0.999999994               0.000087981              -0.000297136               0.999999994               0.000097691              -0.000319794               0.999999994               0.000108170              -0.000343325               0.999999994               0.000119440              -0.000367554               0.999999994               0.000131463              -0.000392381               0.999999994               0.000144172              -0.000417840               0.999999994               0.000157477              -0.000443954               0.999999994               0.000171259              -0.000470664               0.999999994               0.000185301              -0.000497673               0.999999994               0.000045598              -0.000272931               0.999999994               0.000039293              -0.000241985               0.999999994               0.000038992              -0.000238754               0.999999994               0.000042409              -0.000248151               0.999999994               0.000048129              -0.000264153               0.999999994               0.000055522              -0.000284174               0.999999994               0.000064244              -0.000306676               0.999999994               0.000073928              -0.000330941               0.999999994               0.000084401              -0.000356654               0.999999994               0.000095659              -0.000383643               0.999999994               0.000107732              -0.000411803               0.999999994               0.000120567              -0.000440738               0.999999994               0.000134102              -0.000470398               0.999999994               0.000148180              -0.000500750               0.999999994               0.000162658              -0.000531734               0.999999994               0.000177250              -0.000563210               0.999999994               0.000191778              -0.000594620               0.999999994               0.000041512              -0.000310711               0.999999994               0.000029184              -0.000277524               0.999999994               0.000028290              -0.000275578               0.999999994               0.000032831              -0.000287517               0.999999994               0.000040153              -0.000306712               0.999999994               0.000049252              -0.000330299               0.999999994               0.000059574              -0.000356747               0.999999994               0.000070854              -0.000384973               0.999999994               0.000082920              -0.000414787               0.999999994               0.000095819              -0.000446056               0.999999994               0.000109462              -0.000478582               0.999999994               0.000123806              -0.000511992               0.999999994               0.000138656              -0.000546078               0.999999994               0.000153885              -0.000580824               0.999999994               0.000169313              -0.000616108               0.999999994               0.000184608              -0.000651483               0.999999994               0.000199534              -0.000686676               0.999999994               0.000037422              -0.000344905               0.999999994               0.000019391              -0.000311388               0.999999994               0.000018949              -0.000310815               0.999999994               0.000025081              -0.000325196               0.999999994               0.000034191              -0.000347521               0.999999994               0.000044928              -0.000374666               0.999999994               0.000056850              -0.000404893               0.999999994               0.000069594              -0.000437150               0.999999994               0.000083218              -0.000471045               0.999999994               0.000097623              -0.000506534               0.999999994               0.000112657              -0.000543201               0.999999994               0.000128240              -0.000580740               0.999999994               0.000144221              -0.000618932               0.999999994               0.000160447              -0.000657582               0.999999994               0.000176616              -0.000696419               0.999999994               0.000192602              -0.000735103               0.999999994               0.000208236              -0.000773430               0.999999994               0.000033815              -0.000376667               0.999999994               0.000012211              -0.000346633               0.999999994               0.000010045              -0.000343024               0.999999994               0.000015110              -0.000353747               0.999999994               0.000023349              -0.000372584               0.999999994               0.000032987              -0.000396508               0.999999994               0.000043637              -0.000423836               0.999999994               0.000055002              -0.000453436               0.999999994               0.000067102              -0.000484580               0.999999994               0.000079806              -0.000517051               0.999999994               0.000092982              -0.000550754               0.999999994               0.000106539              -0.000585396               0.999999994               0.000120403              -0.000620688               0.999999994               0.000134464              -0.000656474               0.999999994               0.000148667              -0.000692636               0.999999994               0.000162943              -0.000728970               0.999999994               0.000177161              -0.000765224               0.999999994               0.000029676              -0.000405166               0.999999994               0.000006708              -0.000379996               0.999999994               0.000002809              -0.000375258               0.999999994               0.000006480              -0.000383050               0.999999994               0.000013392              -0.000398870               0.999999994               0.000021750              -0.000419889               0.999999994               0.000031022              -0.000444414               0.999999994               0.000041109              -0.000471337               0.999999994               0.000051725              -0.000500013               0.999999994               0.000062675              -0.000530035               0.999999994               0.000073919              -0.000561129               0.999999994               0.000085496              -0.000593113               0.999999994               0.000097150              -0.000625708               0.999999994               0.000108724              -0.000658864               0.999999994               0.000120270              -0.000692424               0.999999994               0.000131772              -0.000726409               0.999999994               0.000143239              -0.000760546               0.999999994               0.000025235              -0.000429815               0.999999994               0.000002798              -0.000410692               0.999999994              -0.000002400              -0.000406216               0.999999994              -0.000000267              -0.000412230               0.999999994               0.000005096              -0.000425607               0.999999994               0.000012089              -0.000444099               0.999999994               0.000019972              -0.000466112               0.999999994               0.000028489              -0.000490682               0.999999994               0.000037512              -0.000517187               0.999999994               0.000046823              -0.000545070               0.999999994               0.000056327              -0.000573998               0.999999994               0.000065847              -0.000603709               0.999999994               0.000075107              -0.000634128               0.999999994               0.000084056              -0.000665118               0.999999994               0.000092586              -0.000696525               0.999999994               0.000100748              -0.000728302               0.999999994               0.000108564              -0.000760401               0.999999994               0.000020599              -0.000450212               0.999999994               0.000000425              -0.000437532               0.999999994              -0.000005436              -0.000434493               0.999999994              -0.000004706              -0.000439815               0.999999994              -0.000000840              -0.000451563               0.999999994               0.000004710              -0.000468022               0.999999994               0.000011023              -0.000488016               0.999999994               0.000017830              -0.000510602               0.999999994               0.000025173              -0.000535226               0.999999994               0.000032878              -0.000561323               0.999999994               0.000040546              -0.000588513               0.999999994               0.000047990              -0.000616565               0.999999994               0.000055051              -0.000645381               0.999999994               0.000061458              -0.000674730               0.999999994               0.000067179              -0.000704452               0.999999994               0.000072118              -0.000734481               0.999999994               0.000076123              -0.000764831               0.999999994               0.000015691              -0.000466302               0.999999994              -0.000000754              -0.000459568               0.999999994              -0.000006356              -0.000458603               0.999999994              -0.000006538              -0.000463997               0.999999994              -0.000003921              -0.000474851               0.999999994               0.000000074              -0.000490052               0.999999994               0.000004624              -0.000508622               0.999999994               0.000009729              -0.000529766               0.999999994               0.000015390              -0.000552887               0.999999994               0.000021307              -0.000577573               0.999999994               0.000027054              -0.000603495               0.999999994               0.000032483              -0.000630454               0.999999994               0.000037471              -0.000658228               0.999999994               0.000041773              -0.000686574               0.999999994               0.000045298              -0.000715260               0.999999994               0.000047702              -0.000744205               0.999999994               0.000048487              -0.000773358               0.999999994               0.000010574              -0.000477850               0.999999994              -0.000001029              -0.000475909               0.999999994              -0.000005401              -0.000477012               0.999999994              -0.000005967              -0.000482953               0.999999994              -0.000004425              -0.000493575               0.999999994              -0.000001840              -0.000508148               0.999999994               0.000001093              -0.000525896               0.999999994               0.000004453              -0.000546129               0.999999994               0.000008213              -0.000568367               0.999999994               0.000012194              -0.000592222               0.999999994               0.000016017              -0.000617401               0.999999994               0.000019505              -0.000643661               0.999999994               0.000022546              -0.000670835               0.999999994               0.000025139              -0.000698694               0.999999994               0.000027063              -0.000727043               0.999999994               0.000027870              -0.000755677               0.999999994               0.000026828              -0.000784375               0.999999994               0.000005330              -0.000484786               0.999999994              -0.000000688              -0.000485952               0.999999994              -0.000003079              -0.000488592               0.999999994              -0.000003540              -0.000495043               0.999999994              -0.000002775              -0.000505715               0.999999994              -0.000001515              -0.000520141               0.999999994              -0.000000115              -0.000537568               0.999999994               0.000001482              -0.000557362               0.999999994               0.000003333              -0.000579158               0.999999994               0.000005346              -0.000602638               0.999999994               0.000007262              -0.000627528               0.999999994               0.000008918              -0.000653508               0.999999994               0.000010357              -0.000680379               0.999999994               0.000011504              -0.000707970               0.999999994               0.000012254              -0.000736149               0.999999994               0.000012392              -0.000764731               0.999999994               0.000011401              -0.000793420               0.999999994              -0.000000000              -0.000487157               0.999999994              -0.000000000              -0.000489383               0.999999994               0.000000000              -0.000492568               0.999999994               0.000000000              -0.000499244               0.999999994              -0.000000000              -0.000509947               0.999999994              -0.000000000              -0.000524265               0.999999994               0.000000000              -0.000541638               0.999999994               0.000000000              -0.000561368               0.999999994              -0.000000000              -0.000583008               0.999999994               0.000000000              -0.000606427               0.999999994               0.000000000              -0.000631264               0.999999994              -0.000000000              -0.000657155               0.999999994               0.000000000              -0.000683916               0.999999994               0.000000000              -0.000711348               0.999999994              -0.000000000              -0.000739339               0.999999994               0.000000000              -0.000767770               0.999999994               0.000000000              -0.000796419               0.999999994               0.000058808              -0.000000000               0.999999994               0.000078177               0.000000000               0.999999994               0.000087342               0.000000000               0.999999994               0.000092691              -0.000000000               0.999999994               0.000096784               0.000000000               0.999999994               0.000100705              -0.000000000               0.999999994               0.000105006              -0.000000000               0.999999994               0.000109957              -0.000000000               0.999999994               0.000115657              -0.000000000               0.999999994               0.000122177               0.000000000               0.999999994               0.000129517               0.000000000               0.999999994               0.000137748               0.000000000               0.999999994               0.000146791               0.000000000               0.999999994               0.000156558               0.000000000               0.999999994               0.000166986               0.000000000               0.999999994               0.000177980               0.000000000               0.999999994               0.000189400              -0.000000000               0.999999994               0.000058390               0.000048542               0.999999994               0.000076862               0.000042509               0.999999994               0.000085512               0.000040825               0.999999994               0.000090547               0.000041535               0.999999994               0.000094498               0.000043575               0.999999994               0.000098414               0.000046459               0.999999994               0.000102749               0.000049867               0.999999994               0.000107790               0.000053755               0.999999994               0.000113627               0.000058008               0.999999994               0.000120291               0.000062511               0.999999994               0.000127768               0.000067218               0.999999994               0.000136049               0.000072065               0.999999994               0.000145093               0.000076962               0.999999994               0.000154836               0.000081827               0.999999994               0.000165202               0.000086516               0.999999994               0.000176111               0.000090839               0.999999994               0.000187475               0.000094638               0.999999994               0.000057178               0.000096565               0.999999994               0.000073019               0.000084599               0.999999994               0.000080189               0.000081486               0.999999994               0.000084488               0.000083083               0.999999994               0.000088222               0.000087484               0.999999994               0.000092227               0.000093340               0.999999994               0.000096818               0.000100307               0.999999994               0.000102194               0.000108181               0.999999994               0.000108380               0.000116712               0.999999994               0.000115391               0.000125773               0.999999994               0.000123178               0.000135198               0.999999994               0.000131679               0.000144871               0.999999994               0.000140843               0.000154673               0.999999994               0.000150594               0.000164468               0.999999994               0.000160905               0.000174074               0.999999994               0.000171793               0.000183314               0.999999994               0.000183288               0.000191922               0.999999994               0.000055245               0.000143546               0.999999994               0.000066884               0.000125853               0.999999994               0.000071988               0.000121797               0.999999994               0.000075590               0.000124749               0.999999994               0.000079277               0.000131733               0.999999994               0.000083512               0.000140833               0.999999994               0.000088544               0.000151509               0.999999994               0.000094456               0.000163502               0.999999994               0.000101200               0.000176443               0.999999994               0.000108747               0.000190123               0.999999994               0.000116993               0.000204306               0.999999994               0.000125874               0.000218798               0.999999994               0.000135383               0.000233586               0.999999994               0.000145484               0.000248482               0.999999994               0.000156198               0.000263514               0.999999994               0.000167604               0.000278507               0.999999994               0.000179751               0.000293342               0.999999994               0.000052578               0.000188947               0.999999994               0.000058810               0.000165978               0.999999994               0.000061776               0.000161587               0.999999994               0.000064833               0.000166383               0.999999994               0.000068680               0.000176172               0.999999994               0.000073524               0.000188805               0.999999994               0.000079336               0.000203349               0.999999994               0.000086143               0.000219513               0.999999994               0.000093831               0.000236856               0.999999994               0.000102258               0.000255098               0.999999994               0.000111346               0.000273945               0.999999994               0.000121163               0.000293309               0.999999994               0.000131672               0.000313123               0.999999994               0.000142867               0.000333373               0.999999994               0.000154760               0.000354031               0.999999994               0.000167325               0.000375128               0.999999994               0.000180534               0.000396576               0.999999994               0.000049332               0.000232215               0.999999994               0.000049414               0.000204737               0.999999994               0.000050454               0.000200653               0.999999994               0.000053358               0.000207642               0.999999994               0.000057847               0.000220488               0.999999994               0.000063738               0.000236801               0.999999994               0.000070873               0.000255314               0.999999994               0.000079031               0.000275581               0.999999994               0.000087981               0.000297136               0.999999994               0.000097691               0.000319794               0.999999994               0.000108170               0.000343325               0.999999994               0.000119440               0.000367554               0.999999994               0.000131463               0.000392381               0.999999994               0.000144172               0.000417840               0.999999994               0.000157477               0.000443954               0.999999994               0.000171259               0.000470664               0.999999994               0.000185301               0.000497673               0.999999994               0.000045598               0.000272931               0.999999994               0.000039293               0.000241985               0.999999994               0.000038992               0.000238754               0.999999994               0.000042409               0.000248151               0.999999994               0.000048129               0.000264153               0.999999994               0.000055522               0.000284174               0.999999994               0.000064244               0.000306676               0.999999994               0.000073928               0.000330941               0.999999994               0.000084401               0.000356654               0.999999994               0.000095659               0.000383643               0.999999994               0.000107732               0.000411803               0.999999994               0.000120567               0.000440738               0.999999994               0.000134102               0.000470398               0.999999994               0.000148180               0.000500750               0.999999994               0.000162658               0.000531734               0.999999994               0.000177250               0.000563210               0.999999994               0.000191778               0.000594620               0.999999994               0.000041512               0.000310711               0.999999994               0.000029184               0.000277524               0.999999994               0.000028290               0.000275578               0.999999994               0.000032831               0.000287517               0.999999994               0.000040153               0.000306712               0.999999994               0.000049252               0.000330299               0.999999994               0.000059574               0.000356747               0.999999994               0.000070854               0.000384973               0.999999994               0.000082920               0.000414787               0.999999994               0.000095819               0.000446056               0.999999994               0.000109462               0.000478582               0.999999994               0.000123806               0.000511992               0.999999994               0.000138656               0.000546078               0.999999994               0.000153885               0.000580824               0.999999994               0.000169313               0.000616108               0.999999994               0.000184608               0.000651483               0.999999994               0.000199534               0.000686676               0.999999994               0.000037422               0.000344905               0.999999994               0.000019391               0.000311388               0.999999994               0.000018949               0.000310815               0.999999994               0.000025081               0.000325196               0.999999994               0.000034191               0.000347521               0.999999994               0.000044928               0.000374666               0.999999994               0.000056850               0.000404893               0.999999994               0.000069594               0.000437150               0.999999994               0.000083218               0.000471045               0.999999994               0.000097623               0.000506534               0.999999994               0.000112657               0.000543201               0.999999994               0.000128240               0.000580740               0.999999994               0.000144221               0.000618932               0.999999994               0.000160447               0.000657582               0.999999994               0.000176616               0.000696419               0.999999994               0.000192602               0.000735103               0.999999994               0.000208236               0.000773430               0.999999994               0.000033815               0.000376667               0.999999994               0.000012211               0.000346633               0.999999994               0.000010045               0.000343024               0.999999994               0.000015110               0.000353747               0.999999994               0.000023349               0.000372584               0.999999994               0.000032987               0.000396508               0.999999994               0.000043637               0.000423836               0.999999994               0.000055002               0.000453436               0.999999994               0.000067102               0.000484580               0.999999994               0.000079806               0.000517051               0.999999994               0.000092982               0.000550754               0.999999994               0.000106539               0.000585396               0.999999994               0.000120403               0.000620688               0.999999994               0.000134464               0.000656474               0.999999994               0.000148667               0.000692636               0.999999994               0.000162943               0.000728970               0.999999994               0.000177161               0.000765224               0.999999994               0.000029676               0.000405166               0.999999994               0.000006708               0.000379996               0.999999994               0.000002809               0.000375258               0.999999994               0.000006480               0.000383050               0.999999994               0.000013392               0.000398870               0.999999994               0.000021750               0.000419889               0.999999994               0.000031022               0.000444414               0.999999994               0.000041109               0.000471337               0.999999994               0.000051725               0.000500013               0.999999994               0.000062675               0.000530035               0.999999994               0.000073919               0.000561129               0.999999994               0.000085496               0.000593113               0.999999994               0.000097150               0.000625708               0.999999994               0.000108724               0.000658864               0.999999994               0.000120270               0.000692424               0.999999994               0.000131772               0.000726409               0.999999994               0.000143239               0.000760546               0.999999994               0.000025235               0.000429815               0.999999994               0.000002798               0.000410692               0.999999994              -0.000002400               0.000406216               0.999999994              -0.000000267               0.000412230               0.999999994               0.000005096               0.000425607               0.999999994               0.000012089               0.000444099               0.999999994               0.000019972               0.000466112               0.999999994               0.000028489               0.000490682               0.999999994               0.000037512               0.000517187               0.999999994               0.000046823               0.000545070               0.999999994               0.000056327               0.000573998               0.999999994               0.000065847               0.000603709               0.999999994               0.000075107               0.000634128               0.999999994               0.000084056               0.000665118               0.999999994               0.000092586               0.000696525               0.999999994               0.000100748               0.000728302               0.999999994               0.000108564               0.000760401               0.999999994               0.000020599               0.000450212               0.999999994               0.000000425               0.000437532               0.999999994              -0.000005436               0.000434493               0.999999994              -0.000004706               0.000439815               0.999999994              -0.000000840               0.000451563               0.999999994               0.000004710               0.000468022               0.999999994               0.000011023               0.000488016               0.999999994               0.000017830               0.000510602               0.999999994               0.000025173               0.000535226               0.999999994               0.000032878               0.000561323               0.999999994               0.000040546               0.000588513               0.999999994               0.000047990               0.000616565               0.999999994               0.000055051               0.000645381               0.999999994               0.000061458               0.000674730               0.999999994               0.000067179               0.000704452               0.999999994               0.000072118               0.000734481               0.999999994               0.000076123               0.000764831               0.999999994               0.000015691               0.000466302               0.999999994              -0.000000754               0.000459568               0.999999994              -0.000006356               0.000458603               0.999999994              -0.000006538               0.000463997               0.999999994              -0.000003921               0.000474851               0.999999994               0.000000074               0.000490052               0.999999994               0.000004624               0.000508622               0.999999994               0.000009729               0.000529766               0.999999994               0.000015390               0.000552887               0.999999994               0.000021307               0.000577573               0.999999994               0.000027054               0.000603495               0.999999994               0.000032483               0.000630454               0.999999994               0.000037471               0.000658228               0.999999994               0.000041773               0.000686574               0.999999994               0.000045298               0.000715260               0.999999994               0.000047702               0.000744205               0.999999994               0.000048487               0.000773358               0.999999994               0.000010574               0.000477850               0.999999994              -0.000001029               0.000475909               0.999999994              -0.000005401               0.000477012               0.999999994              -0.000005967               0.000482953               0.999999994              -0.000004425               0.000493575               0.999999994              -0.000001840               0.000508148               0.999999994               0.000001093               0.000525896               0.999999994               0.000004453               0.000546129               0.999999994               0.000008213               0.000568367               0.999999994               0.000012194               0.000592222               0.999999994               0.000016017               0.000617401               0.999999994               0.000019505               0.000643661               0.999999994               0.000022546               0.000670835               0.999999994               0.000025139               0.000698694               0.999999994               0.000027063               0.000727043               0.999999994               0.000027870               0.000755677               0.999999994               0.000026828               0.000784375               0.999999994               0.000005330               0.000484786               0.999999994              -0.000000688               0.000485952               0.999999994              -0.000003079               0.000488592               0.999999994              -0.000003540               0.000495043               0.999999994              -0.000002775               0.000505715               0.999999994              -0.000001515               0.000520141               0.999999994              -0.000000115               0.000537568               0.999999994               0.000001482               0.000557362               0.999999994               0.000003333               0.000579158               0.999999994               0.000005346               0.000602638               0.999999994               0.000007262               0.000627528               0.999999994               0.000008918               0.000653508               0.999999994               0.000010357               0.000680379               0.999999994               0.000011504               0.000707970               0.999999994               0.000012254               0.000736149               0.999999994               0.000012392               0.000764731               0.999999994               0.000011401               0.000793420               0.999999994              -0.000000000               0.000487157               0.999999994               0.000000000               0.000489383               0.999999994              -0.000000000               0.000492568               0.999999994              -0.000000000               0.000499244               0.999999994               0.000000000               0.000509947               0.999999994              -0.000000000               0.000524265               0.999999994               0.000000000               0.000541638               0.999999994               0.000000000               0.000561368               0.999999994               0.000000000               0.000583008               0.999999994               0.000000000               0.000606427               0.999999994               0.000000000               0.000631264               0.999999994               0.000000000               0.000657155               0.999999994               0.000000000               0.000683916               0.999999994               0.000000000               0.000711348               0.999999994              -0.000000000               0.000739339               0.999999994              -0.000000000               0.000767770               0.999999994              -0.000000000               0.000796419               0.999999994 </DataArray>
<DataArray type="Float64"                                    Name="stress"                                                      NumberOfComponents="10" format="ascii">
              0.000802771               0.009060568               0.000000000              -0.000831530               0.003297336               0.002465806               0.000000000               0.000000000               0.000000000               0.000000000               0.000874631               0.007422588               0.000000000              -0.000599836               0.002674116               0.002074281               0.000000000               0.000000000               0.000000000               0.000000000               0.001213188               0.006116256               0.000000000              -0.000309586               0.002141927               0.001832341               0.000000000               0.000000000               0.000000000               0.000000000               0.001254445               0.005405164               0.000000000              -0.000205228               0.001870113               0.001664885               0.000000000               0.000000000               0.000000000               0.000000000               0.001188369               0.004983262              -0.000000000              -0.000177269               0.001720160               0.001542891               0.000000000               0.000000000               0.000000000               0.000000000               0.001083814               0.004716346               0.000000000              -0.000183113               0.001633137               0.001450025               0.000000000               0.000000000               0.000000000               0.000000000               0.000963103               0.004537349              -0.000000000              -0.000206005               0.001581103               0.001375098               0.000000000               0.000000000               0.000000000               0.000000000               0.000841247               0.004418634              -0.000000000              -0.000236861               0.001551817               0.001314956               0.000000000               0.000000000               0.000000000               0.000000000               0.000723748               0.004339833              -0.000000000              -0.000271073               0.001536954               0.001265881               0.000000000               0.000000000               0.000000000               0.000000000               0.000611478               0.004285775               0.000000000              -0.000306417               0.001530716               0.001224299               0.000000000               0.000000000               0.000000000               0.000000000               0.000501727               0.004247035               0.000000000              -0.000342731               0.001529908               0.001187177               0.000000000               0.000000000               0.000000000               0.000000000               0.000396163               0.004217661               0.000000000              -0.000378646               0.001532088               0.001153443               0.000000000               0.000000000               0.000000000               0.000000000               0.000300814               0.004193698              -0.000000000              -0.000411406               0.001535021               0.001123615               0.000000000               0.000000000               0.000000000               0.000000000               0.000213754               0.004169444               0.000000000              -0.000441022               0.001536808               0.001095786               0.000000000               0.000000000               0.000000000               0.000000000               0.000133423               0.004138218              -0.000000000              -0.000467242               0.001535140               0.001067897               0.000000000               0.000000000               0.000000000               0.000000000               0.000061076               0.004093947              -0.000000000              -0.000488839               0.001527582               0.001038743               0.000000000               0.000000000               0.000000000               0.000000000               0.000024485               0.004058848               0.000000000              -0.000498173               0.001518993               0.001020820               0.000000000               0.000000000               0.000000000               0.000000000               0.000845980               0.008902045              -0.000665103              -0.000795511               0.003232489               0.002436978               0.000000000               0.000000000               0.000000000               0.000000000               0.000881947               0.007315013              -0.000405436              -0.000583645               0.002632862               0.002049217               0.000000000               0.000000000               0.000000000               0.000000000               0.001183189               0.006062775              -0.000138320              -0.000314150               0.002125622               0.001811471               0.000000000               0.000000000               0.000000000               0.000000000               0.001208438               0.005379943              -0.000016618              -0.000219328               0.001866406               0.001647078               0.000000000               0.000000000               0.000000000               0.000000000               0.001136477               0.004977596               0.000037040              -0.000196020               0.001724522               0.001528502               0.000000000               0.000000000               0.000000000               0.000000000               0.001031775               0.004719069               0.000059201              -0.000202967               0.001640663               0.001437696               0.000000000               0.000000000               0.000000000               0.000000000               0.000914987               0.004546790               0.000069238              -0.000225228               0.001590658               0.001365430               0.000000000               0.000000000               0.000000000               0.000000000               0.000796726               0.004431607               0.000073732              -0.000255178               0.001562247               0.001307069               0.000000000               0.000000000               0.000000000               0.000000000               0.000683279               0.004353763               0.000073828              -0.000287990               0.001547236               0.001259246               0.000000000               0.000000000               0.000000000               0.000000000               0.000576293               0.004300856               0.000071738              -0.000321496               0.001540770               0.001219273               0.000000000               0.000000000               0.000000000               0.000000000               0.000474553               0.004263196               0.000068954              -0.000354941               0.001539365               0.001184424               0.000000000               0.000000000               0.000000000               0.000000000               0.000377704               0.004234506               0.000065792              -0.000387673               0.001540712               0.001153039               0.000000000               0.000000000               0.000000000               0.000000000               0.000288591               0.004211199               0.000061554              -0.000418177               0.001543111               0.001124934               0.000000000               0.000000000               0.000000000               0.000000000               0.000206978               0.004189219               0.000054782              -0.000446035               0.001545071               0.001099036               0.000000000               0.000000000               0.000000000               0.000000000               0.000131534               0.004164266               0.000043231              -0.000471207               0.001545144               0.001073937               0.000000000               0.000000000               0.000000000               0.000000000               0.000062222               0.004132848               0.000025390              -0.000493271               0.001542026               0.001048755               0.000000000               0.000000000               0.000000000               0.000000000               0.000028258               0.004110289               0.000014580              -0.000503188               0.001537812               0.001034624               0.000000000               0.000000000               0.000000000               0.000000000               0.000963558               0.008444664              -0.001257149              -0.000694248               0.003046276               0.002352028               0.000000000               0.000000000               0.000000000               0.000000000               0.000899357               0.007004810              -0.000769176              -0.000538341               0.002514360               0.001976019               0.000000000               0.000000000               0.000000000               0.000000000               0.001094096               0.005909729              -0.000272638              -0.000328429               0.002079366               0.001750937               0.000000000               0.000000000               0.000000000               0.000000000               0.001077917               0.005310412              -0.000053054              -0.000259582               0.001856647               0.001597065               0.000000000               0.000000000               0.000000000               0.000000000               0.000994393               0.004953949               0.000041315              -0.000246346               0.001733415               0.001487069               0.000000000               0.000000000               0.000000000               0.000000000               0.000892375               0.004720419               0.000080953              -0.000255411               0.001658594               0.001403183               0.000000000               0.000000000               0.000000000               0.000000000               0.000786086               0.004564648               0.000101299              -0.000275798               0.001613467               0.001337669               0.000000000               0.000000000               0.000000000               0.000000000               0.000682078               0.004460268               0.000110710              -0.000301753               0.001587326               0.001285572               0.000000000               0.000000000               0.000000000               0.000000000               0.000583645               0.004388816               0.000113407              -0.000329734               0.001572835               0.001243101               0.000000000               0.000000000               0.000000000               0.000000000               0.000491750               0.004339634               0.000112322              -0.000358047               0.001565879               0.001207832               0.000000000               0.000000000               0.000000000               0.000000000               0.000407062               0.004304027               0.000108704              -0.000385354               0.001563113               0.001177758               0.000000000               0.000000000               0.000000000               0.000000000               0.000327518               0.004276385               0.000103928              -0.000411728               0.001562690               0.001150962               0.000000000               0.000000000               0.000000000               0.000000000               0.000254656               0.004256507               0.000096704              -0.000436566               0.001564344               0.001127777               0.000000000               0.000000000               0.000000000               0.000000000               0.000187633               0.004242547               0.000085285              -0.000459955               0.001567486               0.001107532               0.000000000               0.000000000               0.000000000               0.000000000               0.000123073               0.004235207               0.000067242              -0.000483247               0.001572804               0.001089557               0.000000000               0.000000000               0.000000000               0.000000000               0.000059481               0.004234240               0.000039346              -0.000506973               0.001580390               0.001073417               0.000000000               0.000000000               0.000000000               0.000000000               0.000031739               0.004241344               0.000020689              -0.000518265               0.001586522               0.001068257               0.000000000               0.000000000               0.000000000               0.000000000               0.001119474               0.007740737              -0.001714775              -0.000547789               0.002762816               0.002215027               0.000000000               0.000000000               0.000000000               0.000000000               0.000910574               0.006531920              -0.001058505              -0.000475024               0.002335626               0.001860602               0.000000000               0.000000000               0.000000000               0.000000000               0.000949509               0.005676552              -0.000398346              -0.000353502               0.002009999               0.001656497               0.000000000               0.000000000               0.000000000               0.000000000               0.000882751               0.005199973              -0.000115700              -0.000318964               0.001839628               0.001520664               0.000000000               0.000000000               0.000000000               0.000000000               0.000795349               0.004903740               0.000006433              -0.000314711               0.001739467               0.001424756               0.000000000               0.000000000               0.000000000               0.000000000               0.000707871               0.004709496               0.000057996              -0.000323234               0.001677561               0.001354327               0.000000000               0.000000000               0.000000000               0.000000000               0.000619632               0.004575916               0.000086378              -0.000339627               0.001638499               0.001298872               0.000000000               0.000000000               0.000000000               0.000000000               0.000536766               0.004484007               0.000101270              -0.000359213               0.001614391               0.001255179               0.000000000               0.000000000               0.000000000               0.000000000               0.000461199               0.004419853               0.000106743              -0.000379531               0.001599780               0.001220249               0.000000000               0.000000000               0.000000000               0.000000000               0.000391925               0.004373437               0.000107034              -0.000399707               0.001591033               0.001191326               0.000000000               0.000000000               0.000000000               0.000000000               0.000328109               0.004338571               0.000102860              -0.000419280               0.001585936               0.001166656               0.000000000               0.000000000               0.000000000               0.000000000               0.000267440               0.004313391               0.000096499              -0.000438883               0.001584077               0.001145194               0.000000000               0.000000000               0.000000000               0.000000000               0.000211001               0.004298505               0.000087033              -0.000458187               0.001585550               0.001127363               0.000000000               0.000000000               0.000000000               0.000000000               0.000158325               0.004295272               0.000073881              -0.000477536               0.001590922               0.001113386               0.000000000               0.000000000               0.000000000               0.000000000               0.000105215               0.004304464               0.000056328              -0.000498601               0.001601007               0.001102406               0.000000000               0.000000000               0.000000000               0.000000000               0.000050850               0.004328303               0.000031541              -0.000521968               0.001616743               0.001094775               0.000000000               0.000000000               0.000000000               0.000000000               0.000030965               0.004357591               0.000013731              -0.000533085               0.001630211               0.001097125               0.000000000               0.000000000               0.000000000               0.000000000               0.001268081               0.006865559              -0.002006658              -0.000382665               0.002416051               0.002033386               0.000000000               0.000000000               0.000000000               0.000000000               0.000901276               0.005953637              -0.001260829              -0.000406226               0.002119934               0.001713708               0.000000000               0.000000000               0.000000000               0.000000000               0.000771804               0.005390722              -0.000513675              -0.000384413               0.001925027               0.001540614               0.000000000               0.000000000               0.000000000               0.000000000               0.000664101               0.005051710              -0.000201265              -0.000382425               0.001811361               0.001428936               0.000000000               0.000000000               0.000000000               0.000000000               0.000580889               0.004824999              -0.000064922              -0.000385290               0.001736747               0.001351457               0.000000000               0.000000000               0.000000000               0.000000000               0.000514561               0.004673008              -0.000007289              -0.000391165               0.001688042               0.001296877               0.000000000               0.000000000               0.000000000               0.000000000               0.000454302               0.004563974               0.000022802              -0.000400133               0.001654687               0.001254554               0.000000000               0.000000000               0.000000000               0.000000000               0.000397272               0.004481035               0.000041163              -0.000411151               0.001630714               0.001219563               0.000000000               0.000000000               0.000000000               0.000000000               0.000346318               0.004417362               0.000050964              -0.000422300               0.001613206               0.001190906               0.000000000               0.000000000               0.000000000               0.000000000               0.000300501               0.004370369               0.000053838              -0.000433607               0.001601311               0.001167704               0.000000000               0.000000000               0.000000000               0.000000000               0.000254221               0.004336442               0.000050297              -0.000446721               0.001594373               0.001147652               0.000000000               0.000000000               0.000000000               0.000000000               0.000207301               0.004313827               0.000043507              -0.000461489               0.001591758               0.001130268               0.000000000               0.000000000               0.000000000               0.000000000               0.000163174               0.004301468               0.000035367              -0.000476492               0.001592639               0.001116147               0.000000000               0.000000000               0.000000000               0.000000000               0.000120612               0.004300850               0.000026592              -0.000492376               0.001597727               0.001105352               0.000000000               0.000000000               0.000000000               0.000000000               0.000078805               0.004311217               0.000018196              -0.000509349               0.001606841               0.001097492               0.000000000               0.000000000               0.000000000               0.000000000               0.000038353               0.004332183               0.000008978              -0.000527139               0.001619760               0.001092620               0.000000000               0.000000000               0.000000000               0.000000000               0.000023312               0.004353419               0.000001298              -0.000535434               0.001629603               0.001094169               0.000000000               0.000000000               0.000000000               0.000000000               0.001372116               0.005910402              -0.002131199              -0.000224258               0.002044866               0.001820608               0.000000000               0.000000000               0.000000000               0.000000000               0.000870616               0.005332500              -0.001379009              -0.000340082               0.001890843               0.001550761               0.000000000               0.000000000               0.000000000               0.000000000               0.000592535               0.005080318              -0.000623394              -0.000412838               0.001831035               0.001418197               0.000000000               0.000000000               0.000000000               0.000000000               0.000463732               0.004876241              -0.000311915              -0.000435629               0.001770607               0.001334978               0.000000000               0.000000000               0.000000000               0.000000000               0.000397758               0.004719018              -0.000172862              -0.000440717               0.001719896               0.001279179               0.000000000               0.000000000               0.000000000               0.000000000               0.000353608               0.004604016              -0.000110301              -0.000442898               0.001682289               0.001239391               0.000000000               0.000000000               0.000000000               0.000000000               0.000319516               0.004515514              -0.000077715              -0.000444619               0.001653363               0.001208743               0.000000000               0.000000000               0.000000000               0.000000000               0.000290323               0.004440321              -0.000054113              -0.000446168               0.001628815               0.001182647               0.000000000               0.000000000               0.000000000               0.000000000               0.000261080               0.004377932              -0.000036512              -0.000449335               0.001609074               0.001159739               0.000000000               0.000000000               0.000000000               0.000000000               0.000227977               0.004330104              -0.000025014              -0.000455770               0.001595277               0.001139507               0.000000000               0.000000000               0.000000000               0.000000000               0.000191386               0.004297175              -0.000021827              -0.000465376               0.001587503               0.001122127               0.000000000               0.000000000               0.000000000               0.000000000               0.000151398               0.004272311              -0.000022489              -0.000477264               0.001583177               0.001105914               0.000000000               0.000000000               0.000000000               0.000000000               0.000113004               0.004255125              -0.000022148              -0.000489513               0.001581532               0.001092019               0.000000000               0.000000000               0.000000000               0.000000000               0.000077083               0.004244587              -0.000018190              -0.000501666               0.001582070               0.001080404               0.000000000               0.000000000               0.000000000               0.000000000               0.000045238               0.004238985              -0.000010831              -0.000512907               0.001583950               0.001071043               0.000000000               0.000000000               0.000000000               0.000000000               0.000019705               0.004234102              -0.000004339              -0.000521872               0.001585311               0.001063439               0.000000000               0.000000000               0.000000000               0.000000000               0.000007916               0.004228661              -0.000001663              -0.000525613               0.001584744               0.001059131               0.000000000               0.000000000               0.000000000               0.000000000               0.001407101               0.004956722              -0.002109275              -0.000091930               0.001682867               0.001590937               0.000000000               0.000000000               0.000000000               0.000000000               0.000822375               0.004717679              -0.001427391              -0.000281320               0.001666317               0.001384997               0.000000000               0.000000000               0.000000000               0.000000000               0.000436919               0.004764652              -0.000732113              -0.000431736               0.001732113               0.001300377               0.000000000               0.000000000               0.000000000               0.000000000               0.000308280               0.004685156              -0.000440587              -0.000470038               0.001718382               0.001248344               0.000000000               0.000000000               0.000000000               0.000000000               0.000266405               0.004589609              -0.000300166              -0.000473798               0.001687787               0.001213989               0.000000000               0.000000000               0.000000000               0.000000000               0.000245113               0.004504014              -0.000226631              -0.000471083               0.001658351               0.001187267               0.000000000               0.000000000               0.000000000               0.000000000               0.000229929               0.004431332              -0.000184490              -0.000467692               0.001632993               0.001165301               0.000000000               0.000000000               0.000000000               0.000000000               0.000217107               0.004364154              -0.000151915              -0.000464103               0.001609404               0.001145301               0.000000000               0.000000000               0.000000000               0.000000000               0.000199385               0.004306899              -0.000123872              -0.000463592               0.001590149               0.001126557               0.000000000               0.000000000               0.000000000               0.000000000               0.000172503               0.004260076              -0.000100070              -0.000467820               0.001575951               0.001108131               0.000000000               0.000000000               0.000000000               0.000000000               0.000138663               0.004221675              -0.000084015              -0.000475710               0.001565781               0.001090071               0.000000000               0.000000000               0.000000000               0.000000000               0.000101401               0.004187773              -0.000072980              -0.000485445               0.001557726               0.001072280               0.000000000               0.000000000               0.000000000               0.000000000               0.000065146               0.004157237              -0.000059057              -0.000495224               0.001550807               0.001055583               0.000000000               0.000000000               0.000000000               0.000000000               0.000033318               0.004129059              -0.000041341              -0.000503637               0.001544218               0.001040581               0.000000000               0.000000000               0.000000000               0.000000000               0.000012599               0.004101327              -0.000021967              -0.000507940               0.001536409               0.001028469               0.000000000               0.000000000               0.000000000               0.000000000               0.000003178               0.004068479              -0.000007398              -0.000507367               0.001525269               0.001017902               0.000000000               0.000000000               0.000000000               0.000000000              -0.000004329               0.004042202               0.000000018              -0.000506897               0.001516353               0.001009455               0.000000000               0.000000000               0.000000000               0.000000000               0.001369534               0.004056536              -0.001971033               0.000006506               0.001349996               0.001356501               0.000000000               0.000000000               0.000000000               0.000000000               0.000756313               0.004146139              -0.001421189              -0.000234651               0.001460249               0.001225598               0.000000000               0.000000000               0.000000000               0.000000000               0.000319208               0.004455045              -0.000836329              -0.000437177               0.001630726               0.001193549               0.000000000               0.000000000               0.000000000               0.000000000               0.000209806               0.004480120              -0.000568144              -0.000481337               0.001653804               0.001172467               0.000000000               0.000000000               0.000000000               0.000000000               0.000191791               0.004437332              -0.000422236              -0.000482744               0.001640011               0.001157267               0.000000000               0.000000000               0.000000000               0.000000000               0.000187448               0.004378047              -0.000331976              -0.000476962               0.001618322               0.001141360               0.000000000               0.000000000               0.000000000               0.000000000               0.000182104               0.004317588              -0.000274743              -0.000471408               0.001596318               0.001124909               0.000000000               0.000000000               0.000000000               0.000000000               0.000171930               0.004259902              -0.000231860              -0.000468013               0.001575958               0.001107945               0.000000000               0.000000000               0.000000000               0.000000000               0.000153833               0.004207898              -0.000192276              -0.000468299               0.001558718               0.001090420               0.000000000               0.000000000               0.000000000               0.000000000               0.000127058               0.004161180              -0.000156404              -0.000472499               0.001544546               0.001072046               0.000000000               0.000000000               0.000000000               0.000000000               0.000091520               0.004112972              -0.000126319              -0.000479800               0.001530910               0.001051110               0.000000000               0.000000000               0.000000000               0.000000000               0.000053860               0.004065727              -0.000101798              -0.000488017               0.001517901               0.001029884               0.000000000               0.000000000               0.000000000               0.000000000               0.000019667               0.004019417              -0.000076316              -0.000495051               0.001504809               0.001009758               0.000000000               0.000000000               0.000000000               0.000000000              -0.000008905               0.003970978              -0.000048331              -0.000499710               0.001490216               0.000990506               0.000000000               0.000000000               0.000000000               0.000000000              -0.000023704               0.003919015              -0.000023325              -0.000498765               0.001472580               0.000973815               0.000000000               0.000000000               0.000000000               0.000000000              -0.000019493               0.003864592              -0.000006115              -0.000490383               0.001451646               0.000961263               0.000000000               0.000000000               0.000000000               0.000000000              -0.000018142               0.003826630               0.000004136              -0.000485131               0.001437241               0.000952110               0.000000000               0.000000000               0.000000000               0.000000000               0.001292411               0.003272948              -0.001752635               0.000075533               0.001065793               0.001141326               0.000000000               0.000000000               0.000000000               0.000000000               0.000701334               0.003633032              -0.001385407              -0.000191130               0.001274708               0.001083578               0.000000000               0.000000000               0.000000000               0.000000000               0.000255049               0.004156847              -0.000949811              -0.000423962               0.001526922               0.001102960               0.000000000               0.000000000               0.000000000               0.000000000               0.000166736               0.004278877              -0.000697699              -0.000472333               0.001583722               0.001111389               0.000000000               0.000000000               0.000000000               0.000000000               0.000166744               0.004290198              -0.000539320              -0.000473745               0.001587966               0.001114222               0.000000000               0.000000000               0.000000000               0.000000000               0.000170424               0.004262112              -0.000430913              -0.000468854               0.001576975               0.001108121               0.000000000               0.000000000               0.000000000               0.000000000               0.000166348               0.004217754              -0.000356044              -0.000464837               0.001560850               0.001096012               0.000000000               0.000000000               0.000000000               0.000000000               0.000153407               0.004170976              -0.000301550              -0.000463843               0.001544926               0.001081083               0.000000000               0.000000000               0.000000000               0.000000000               0.000132844               0.004126941              -0.000254391              -0.000466050               0.001530983               0.001064933               0.000000000               0.000000000               0.000000000               0.000000000               0.000105856               0.004082255              -0.000209477              -0.000470585               0.001517600               0.001047015               0.000000000               0.000000000               0.000000000               0.000000000               0.000070730               0.004030550              -0.000169377              -0.000477294               0.001502601               0.001025308               0.000000000               0.000000000               0.000000000               0.000000000               0.000030556               0.003974308              -0.000133309              -0.000485329               0.001486532               0.001001204               0.000000000               0.000000000               0.000000000               0.000000000              -0.000008617               0.003915333              -0.000098855              -0.000492647               0.001469314               0.000976667               0.000000000               0.000000000               0.000000000               0.000000000              -0.000042499               0.003851651              -0.000064523              -0.000497392               0.001449668               0.000952276               0.000000000               0.000000000               0.000000000               0.000000000              -0.000066832               0.003781313              -0.000034284              -0.000497725               0.001426333               0.000928609               0.000000000               0.000000000               0.000000000               0.000000000              -0.000077142               0.003709038              -0.000011755              -0.000492557               0.001400519               0.000907963               0.000000000               0.000000000               0.000000000               0.000000000              -0.000079495               0.003664988               0.000000255              -0.000487933               0.001384295               0.000896362               0.000000000               0.000000000               0.000000000               0.000000000               0.001160505               0.002519285              -0.001497429               0.000120276               0.000799661               0.000919936               0.000000000               0.000000000               0.000000000               0.000000000               0.000678613               0.003029318              -0.001336961              -0.000124186               0.001051158               0.000926971               0.000000000               0.000000000               0.000000000               0.000000000               0.000265438               0.003704610              -0.001079730              -0.000363537               0.001356036               0.000992499               0.000000000               0.000000000               0.000000000               0.000000000               0.000178259               0.003951790              -0.000848853              -0.000427126               0.001459625               0.001032499               0.000000000               0.000000000               0.000000000               0.000000000               0.000175269               0.004047147              -0.000675337              -0.000440167               0.001495758               0.001055591               0.000000000               0.000000000               0.000000000               0.000000000               0.000180884               0.004078259              -0.000546403              -0.000441950               0.001506723               0.001064773               0.000000000               0.000000000               0.000000000               0.000000000               0.000176395               0.004072381              -0.000452854              -0.000442899               0.001505080               0.001062181               0.000000000               0.000000000               0.000000000               0.000000000               0.000165975               0.004045282              -0.000385361              -0.000443419               0.001496220               0.001052801               0.000000000               0.000000000               0.000000000               0.000000000               0.000146523               0.004012731              -0.000330849              -0.000446644               0.001486445               0.001039801               0.000000000               0.000000000               0.000000000               0.000000000               0.000118400               0.003980616              -0.000278755              -0.000453176               0.001477917               0.001024742               0.000000000               0.000000000               0.000000000               0.000000000               0.000082766               0.003942849              -0.000229974              -0.000461818               0.001468209               0.001006391               0.000000000               0.000000000               0.000000000               0.000000000               0.000040268               0.003892802              -0.000184708              -0.000471499               0.001454754               0.000983255               0.000000000               0.000000000               0.000000000               0.000000000              -0.000009161               0.003833366              -0.000139797              -0.000482605               0.001438644               0.000956039               0.000000000               0.000000000               0.000000000               0.000000000              -0.000062039               0.003771444              -0.000096130              -0.000494694               0.001422034               0.000927340               0.000000000               0.000000000               0.000000000               0.000000000              -0.000112220               0.003707536              -0.000057154              -0.000505523               0.001404341               0.000898818               0.000000000               0.000000000               0.000000000               0.000000000              -0.000157430               0.003639603              -0.000024114              -0.000513985               0.001384517               0.000870532               0.000000000               0.000000000               0.000000000               0.000000000              -0.000182525               0.003596977              -0.000006113              -0.000518068               0.001371670               0.000853602               0.000000000               0.000000000               0.000000000               0.000000000               0.000937371               0.001818020              -0.001216861               0.000124259               0.000564580               0.000688839               0.000000000               0.000000000               0.000000000               0.000000000               0.000649590               0.002424654              -0.001251414              -0.000059487               0.000828038               0.000768551               0.000000000               0.000000000               0.000000000               0.000000000               0.000322639               0.003194554              -0.001175095              -0.000278330               0.001157617               0.000879287               0.000000000               0.000000000               0.000000000               0.000000000               0.000236154               0.003564928              -0.000989103              -0.000357058               0.001307317               0.000950258               0.000000000               0.000000000               0.000000000               0.000000000               0.000221797               0.003758033              -0.000813690              -0.000386580               0.001381525               0.000994945               0.000000000               0.000000000               0.000000000               0.000000000               0.000225194               0.003857358              -0.000673830              -0.000397722               0.001418347               0.001020626               0.000000000               0.000000000               0.000000000               0.000000000               0.000220472               0.003897657              -0.000568306              -0.000404529               0.001434049               0.001029520               0.000000000               0.000000000               0.000000000               0.000000000               0.000208845               0.003907204              -0.000488285              -0.000410083               0.001439083               0.001029000               0.000000000               0.000000000               0.000000000               0.000000000               0.000191748               0.003905179              -0.000422599              -0.000416241               0.001440460               0.001024219               0.000000000               0.000000000               0.000000000               0.000000000               0.000166581               0.003893836              -0.000364266              -0.000424261               0.001439353               0.001015092               0.000000000               0.000000000               0.000000000               0.000000000               0.000132594               0.003871297              -0.000311172              -0.000434188               0.001435149               0.001000960               0.000000000               0.000000000               0.000000000               0.000000000               0.000087413               0.003833865              -0.000257971              -0.000446452               0.001426760               0.000980307               0.000000000               0.000000000               0.000000000               0.000000000               0.000030760               0.003788771              -0.000201664              -0.000462060               0.001416931               0.000954871               0.000000000               0.000000000               0.000000000               0.000000000              -0.000035575               0.003739789              -0.000146287              -0.000480813               0.001406855               0.000926042               0.000000000               0.000000000               0.000000000               0.000000000              -0.000110179               0.003688580              -0.000093527              -0.000502388               0.001396977               0.000894589               0.000000000               0.000000000               0.000000000               0.000000000              -0.000190803               0.003632020              -0.000044320              -0.000525552               0.001385845               0.000860293               0.000000000               0.000000000               0.000000000               0.000000000              -0.000246712               0.003588800              -0.000014950              -0.000541116               0.001376627               0.000835511               0.000000000               0.000000000               0.000000000               0.000000000               0.000647612               0.001213153              -0.000918892               0.000091208               0.000373977               0.000465185               0.000000000               0.000000000               0.000000000               0.000000000               0.000585293               0.001849118              -0.001106680              -0.000011656               0.000620251               0.000608595               0.000000000               0.000000000               0.000000000               0.000000000               0.000397375               0.002638219              -0.001184855              -0.000180762               0.000939651               0.000758889               0.000000000               0.000000000               0.000000000               0.000000000               0.000333672               0.003102715              -0.001063282              -0.000262713               0.001121799               0.000859086               0.000000000               0.000000000               0.000000000               0.000000000               0.000317573               0.003386158              -0.000910213              -0.000304180               0.001230101               0.000925921               0.000000000               0.000000000               0.000000000               0.000000000               0.000315832               0.003556823              -0.000773794              -0.000326166               0.001294318               0.000968152               0.000000000               0.000000000               0.000000000               0.000000000               0.000305756               0.003656715              -0.000661990              -0.000342430               0.001333036               0.000990606               0.000000000               0.000000000               0.000000000               0.000000000               0.000284667               0.003717453              -0.000573332              -0.000357931               0.001358449               0.001000518               0.000000000               0.000000000               0.000000000               0.000000000               0.000262700               0.003753283              -0.000501748              -0.000370647               0.001374631               0.001003984               0.000000000               0.000000000               0.000000000               0.000000000               0.000239200               0.003767455              -0.000439689              -0.000381231               0.001382883               0.001001652               0.000000000               0.000000000               0.000000000               0.000000000               0.000205750               0.003764486              -0.000381152              -0.000393404               0.001385951               0.000992547               0.000000000               0.000000000               0.000000000               0.000000000               0.000159828               0.003751084              -0.000319817              -0.000408949               0.001386665               0.000977716               0.000000000               0.000000000               0.000000000               0.000000000               0.000104526               0.003732837              -0.000256107              -0.000427406               0.001386735               0.000959329               0.000000000               0.000000000               0.000000000               0.000000000               0.000036220               0.003702480              -0.000191485              -0.000449227               0.001383890               0.000934663               0.000000000               0.000000000               0.000000000               0.000000000              -0.000044889               0.003663509              -0.000126923              -0.000474771               0.001379414               0.000904643               0.000000000               0.000000000               0.000000000               0.000000000              -0.000138472               0.003619081              -0.000062774              -0.000504311               0.001374452               0.000870141               0.000000000               0.000000000               0.000000000               0.000000000              -0.000208805               0.003581918              -0.000023481              -0.000526040               0.001369307               0.000843267               0.000000000               0.000000000               0.000000000               0.000000000               0.000311547               0.000741540              -0.000634400               0.000024136               0.000239132               0.000263268               0.000000000               0.000000000               0.000000000               0.000000000               0.000486601               0.001336155              -0.000912122               0.000015454               0.000440229               0.000455683               0.000000000               0.000000000               0.000000000               0.000000000               0.000477270               0.002081483              -0.001098512              -0.000081210               0.000720890               0.000639680               0.000000000               0.000000000               0.000000000               0.000000000               0.000462339               0.002598680              -0.001045387              -0.000151459               0.000916704               0.000765245               0.000000000               0.000000000               0.000000000               0.000000000               0.000455280               0.002953625              -0.000931323              -0.000198473               0.001050689               0.000852216               0.000000000               0.000000000               0.000000000               0.000000000               0.000443528               0.003195080              -0.000810742              -0.000233062               0.001142703               0.000909641               0.000000000               0.000000000               0.000000000               0.000000000               0.000420095               0.003358951              -0.000702428              -0.000262333               0.001207083               0.000944750               0.000000000               0.000000000               0.000000000               0.000000000               0.000391648               0.003472987              -0.000616741              -0.000287255               0.001253402               0.000966147               0.000000000               0.000000000               0.000000000               0.000000000               0.000363752               0.003551236              -0.000547875              -0.000307497               0.001286233               0.000978736               0.000000000               0.000000000               0.000000000               0.000000000               0.000333616               0.003599531              -0.000483846              -0.000324835               0.001308110               0.000983275               0.000000000               0.000000000               0.000000000               0.000000000               0.000295653               0.003628427              -0.000420133              -0.000342683               0.001323691               0.000981008               0.000000000               0.000000000               0.000000000               0.000000000               0.000252754               0.003649407              -0.000357772              -0.000361392               0.001336921               0.000975528               0.000000000               0.000000000               0.000000000               0.000000000               0.000205934               0.003659432              -0.000293246              -0.000380203               0.001346533               0.000966330               0.000000000               0.000000000               0.000000000               0.000000000               0.000149533               0.003650393              -0.000226330              -0.000400223               0.001350193               0.000949970               0.000000000               0.000000000               0.000000000               0.000000000               0.000083919               0.003629056              -0.000157545              -0.000422161               0.001350394               0.000928232               0.000000000               0.000000000               0.000000000               0.000000000               0.000004061               0.003601683              -0.000082055              -0.000448686               0.001350111               0.000901425               0.000000000               0.000000000               0.000000000               0.000000000              -0.000061349               0.003574458              -0.000035405              -0.000469812               0.001348078               0.000878266               0.000000000               0.000000000               0.000000000               0.000000000              -0.000036332               0.000403583              -0.000393484              -0.000064073               0.000155884               0.000091811               0.000000000               0.000000000               0.000000000               0.000000000               0.000362925               0.000914099              -0.000688235               0.000021833               0.000297418               0.000319252               0.000000000               0.000000000               0.000000000               0.000000000               0.000548564               0.001572034              -0.000918886               0.000009206               0.000520937               0.000530143               0.000000000               0.000000000               0.000000000               0.000000000               0.000598619               0.002104159              -0.000920775              -0.000038539               0.000714225               0.000675686               0.000000000               0.000000000               0.000000000               0.000000000               0.000606599               0.002512339              -0.000847847              -0.000086568               0.000866294               0.000779726               0.000000000               0.000000000               0.000000000               0.000000000               0.000591193               0.002816550              -0.000752646              -0.000130372               0.000982298               0.000851926               0.000000000               0.000000000               0.000000000               0.000000000               0.000559222               0.003037936              -0.000663157              -0.000170034               0.001069313               0.000899279               0.000000000               0.000000000               0.000000000               0.000000000               0.000521268               0.003199408              -0.000593508              -0.000204451               0.001134609               0.000930158               0.000000000               0.000000000               0.000000000               0.000000000               0.000480906               0.003318723              -0.000534550              -0.000234500               0.001184397               0.000949896               0.000000000               0.000000000               0.000000000               0.000000000               0.000439900               0.003407918              -0.000474958              -0.000261027               0.001222970               0.000961943               0.000000000               0.000000000               0.000000000               0.000000000               0.000399614               0.003477925              -0.000414730              -0.000284885               0.001254258               0.000969374               0.000000000               0.000000000               0.000000000               0.000000000               0.000360025               0.003534006              -0.000357285              -0.000306741               0.001280237               0.000973496               0.000000000               0.000000000               0.000000000               0.000000000               0.000320712               0.003572085              -0.000299593              -0.000326243               0.001299431               0.000973188               0.000000000               0.000000000               0.000000000               0.000000000               0.000283528               0.003590117              -0.000241316              -0.000342441               0.001310840               0.000968400               0.000000000               0.000000000               0.000000000               0.000000000               0.000245442               0.003593742              -0.000177853              -0.000357176               0.001316961               0.000959784               0.000000000               0.000000000               0.000000000               0.000000000               0.000198759               0.003586702              -0.000098002              -0.000373802               0.001320156               0.000946354               0.000000000               0.000000000               0.000000000               0.000000000               0.000157749               0.003572223              -0.000048691              -0.000387371               0.001319853               0.000932482               0.000000000               0.000000000               0.000000000               0.000000000              -0.000334467               0.000186816              -0.000210643              -0.000148777               0.000111863              -0.000036914               0.000000000               0.000000000               0.000000000               0.000000000               0.000246256               0.000603653              -0.000454530               0.000016888               0.000195586               0.000212474               0.000000000               0.000000000               0.000000000               0.000000000               0.000603140               0.001163470              -0.000659625               0.000080742               0.000360905               0.000441648               0.000000000               0.000000000               0.000000000               0.000000000               0.000717563               0.001689051              -0.000687420               0.000057954               0.000543693               0.000601647               0.000000000               0.000000000               0.000000000               0.000000000               0.000742765               0.002129747              -0.000650245               0.000012318               0.000705802               0.000718120               0.000000000               0.000000000               0.000000000               0.000000000               0.000728416               0.002476914              -0.000587471              -0.000036459               0.000837782               0.000801324               0.000000000               0.000000000               0.000000000               0.000000000               0.000693656               0.002740526              -0.000525498              -0.000082445               0.000940981               0.000858536               0.000000000               0.000000000               0.000000000               0.000000000               0.000645911               0.002940787              -0.000476491              -0.000125382               0.001022046               0.000896665               0.000000000               0.000000000               0.000000000               0.000000000               0.000593291               0.003097913              -0.000434528              -0.000164755               0.001087545               0.000922791               0.000000000               0.000000000               0.000000000               0.000000000               0.000543922               0.003224074              -0.000390953              -0.000199038               0.001141027               0.000941989               0.000000000               0.000000000               0.000000000               0.000000000               0.000501379               0.003326626              -0.000344637              -0.000227811               0.001184801               0.000956990               0.000000000               0.000000000               0.000000000               0.000000000               0.000465056               0.003410333              -0.000299016              -0.000251895               0.001220731               0.000968836               0.000000000               0.000000000               0.000000000               0.000000000               0.000436536               0.003476512              -0.000255724              -0.000270862               0.001249113               0.000978251               0.000000000               0.000000000               0.000000000               0.000000000               0.000416782               0.003524871              -0.000212737              -0.000284315               0.001269717               0.000985402               0.000000000               0.000000000               0.000000000               0.000000000               0.000404934               0.003557214              -0.000162309              -0.000292801               0.001283326               0.000990526               0.000000000               0.000000000               0.000000000               0.000000000               0.000399710               0.003571093              -0.000092516              -0.000296494               0.001289184               0.000992689               0.000000000               0.000000000               0.000000000               0.000000000               0.000398903               0.003571759              -0.000050257              -0.000296881               0.001289535               0.000992654               0.000000000               0.000000000               0.000000000               0.000000000              -0.000534420               0.000073768              -0.000088425              -0.000209629               0.000094465              -0.000115164               0.000000000               0.000000000               0.000000000               0.000000000               0.000166795               0.000419554              -0.000225832               0.000010103               0.000136482               0.000146585               0.000000000               0.000000000               0.000000000               0.000000000               0.000639603               0.000900986              -0.000345128               0.000127226               0.000257917               0.000385143               0.000000000               0.000000000               0.000000000               0.000000000               0.000803608               0.001412550              -0.000368872               0.000124783               0.000429251               0.000554034               0.000000000               0.000000000               0.000000000               0.000000000               0.000840114               0.001869321              -0.000354289               0.000081377               0.000595975               0.000677352               0.000000000               0.000000000               0.000000000               0.000000000               0.000824017               0.002239787              -0.000322037               0.000029033               0.000736911               0.000765943               0.000000000               0.000000000               0.000000000               0.000000000               0.000787972               0.002526794              -0.000290567              -0.000020360               0.000849043               0.000828683               0.000000000               0.000000000               0.000000000               0.000000000               0.000738750               0.002751251              -0.000266351              -0.000066875               0.000939366               0.000872491               0.000000000               0.000000000               0.000000000               0.000000000               0.000683340               0.002935557              -0.000245629              -0.000110692               0.001015407               0.000904714               0.000000000               0.000000000               0.000000000               0.000000000               0.000629289               0.003088324              -0.000223641              -0.000150057               0.001079450               0.000929393               0.000000000               0.000000000               0.000000000               0.000000000               0.000583812               0.003210518              -0.000198335              -0.000182385               0.001130957               0.000948572               0.000000000               0.000000000               0.000000000               0.000000000               0.000550812               0.003308719              -0.000173306              -0.000207035               0.001171907               0.000964872               0.000000000               0.000000000               0.000000000               0.000000000               0.000531657               0.003390296              -0.000149642              -0.000224415               0.001204893               0.000980477               0.000000000               0.000000000               0.000000000               0.000000000               0.000525314               0.003457996              -0.000124705              -0.000235256               0.001231073               0.000995816               0.000000000               0.000000000               0.000000000               0.000000000               0.000534700               0.003513406              -0.000095341              -0.000238663               0.001250678               0.001012015               0.000000000               0.000000000               0.000000000               0.000000000               0.000564942               0.003550531              -0.000054352              -0.000231962               0.001260819               0.001028857               0.000000000               0.000000000               0.000000000               0.000000000               0.000599775               0.003567782              -0.000030243              -0.000221057               0.001262935               0.001041878               0.000000000               0.000000000               0.000000000               0.000000000              -0.000605710               0.000038403               0.000000000              -0.000231942               0.000090114              -0.000141827               0.000000000               0.000000000               0.000000000               0.000000000               0.000139286               0.000358202              -0.000000000               0.000007457               0.000116914               0.000124370               0.000000000               0.000000000               0.000000000               0.000000000               0.000653959               0.000810809              -0.000000000               0.000143882               0.000222306               0.000366188               0.000000000               0.000000000               0.000000000               0.000000000               0.000836804               0.001315882               0.000000000               0.000149315               0.000388851               0.000538166               0.000000000               0.000000000               0.000000000               0.000000000               0.000872799               0.001773274               0.000000000               0.000105639               0.000555872               0.000661512               0.000000000               0.000000000               0.000000000               0.000000000               0.000856090               0.002152103               0.000000000               0.000052021               0.000700020               0.000752041               0.000000000               0.000000000               0.000000000               0.000000000               0.000823132               0.002450837               0.000000000               0.000002320               0.000816164               0.000818484               0.000000000               0.000000000               0.000000000               0.000000000               0.000776275               0.002682450               0.000000000              -0.000044203               0.000908875               0.000864672               0.000000000               0.000000000               0.000000000               0.000000000               0.000720979               0.002876300              -0.000000000              -0.000089170               0.000988480               0.000899310               0.000000000               0.000000000               0.000000000               0.000000000               0.000664932               0.003039610              -0.000000000              -0.000130601               0.001056727               0.000926126               0.000000000               0.000000000               0.000000000               0.000000000               0.000617226               0.003166445               0.000000000              -0.000164346               0.001110253               0.000945907               0.000000000               0.000000000               0.000000000               0.000000000               0.000585623               0.003267726               0.000000000              -0.000188857               0.001152183               0.000963327               0.000000000               0.000000000               0.000000000               0.000000000               0.000568984               0.003352074               0.000000000              -0.000205640               0.001185893               0.000980254               0.000000000               0.000000000               0.000000000               0.000000000               0.000568225               0.003423869               0.000000000              -0.000214899               0.001212911               0.000998013               0.000000000               0.000000000               0.000000000               0.000000000               0.000586963               0.003487105               0.000000000              -0.000215776               0.001234282               0.001018506               0.000000000               0.000000000               0.000000000               0.000000000               0.000631024               0.003536376               0.000000000              -0.000205413               0.001247251               0.001041838               0.000000000               0.000000000               0.000000000               0.000000000               0.000678527               0.003562336              -0.000000000              -0.000190844               0.001251048               0.001060204               0.000000000               0.000000000               0.000000000               0.000000000               0.000000000               0.000000000               0.000000000               0.000000000               0.000000000               0.000000000               0.000000000               0.000000000               0.000000000               0.000000000               0.000000000               0.000000000               0.000000000               0.000000000               0.000000000               0.000000000               0.000000000               0.000000000               0.000000000               0.000000000               0.000000000               0.000000000               0.000000000               0.000000000               0.000000000               0.000000000               0.000000000               0.000000000               0.000000000               0.000000000               0.000000000               0.000000000               0.000000000               0.000000000               0.000000000               0.000000000               0.000000000               0.000000000               0.000000000               0.000000000               0.000000000               0.000000000               0.000000000               0.000000000               0.000000000               0.000000000               0.000000000               0.000000000               0.000000000               0.000000000               0.000000000               0.000000000               0.000000000               0.000000000               0.000000000               0.000000000               0.000000000               0.000000000               0.000000000               0.000000000               0.000000000               0.000000000               0.000000000               0.000000000               0.000000000               0.000000000               0.000000000               0.000000000               0.000000000               0.000000000               0.000000000               0.000000000               0.000000000               0.000000000               0.000000000               0.000000000               0.000000000               0.000000000               0.000000000               0.000000000               0.000000000               0.000000000               0.000000000               0.000000000               0.000000000               0.000000000               0.000000000               0.000000000               0.000000000               0.000000000               0.000000000               0.000000000               0.000000000               0.000000000               0.000000000               0.000000000               0.000000000               0.000000000               0.000000000               0.000000000               0.000000000               0.000000000               0.000000000               0.000000000               0.000000000               0.000000000               0.000000000               0.000000000               0.000000000               0.000000000               0.000000000               0.000000000               0.000000000               0.000000000               0.000000000               0.000000000               0.000000000               0.000000000               0.000000000               0.000000000               0.000000000               0.000000000               0.000000000               0.000000000               0.000000000               0.000000000               0.000000000               0.000000000               0.000000000               0.000000000               0.000000000               0.000000000               0.000000000               0.000000000               0.000000000               0.000000000               0.000000000               0.000000000               0.000000000               0.000000000               0.000000000               0.000000000               0.000000000               0.000000000               0.000000000               0.000000000               0.000000000               0.000000000               0.000000000               0.000000000               0.000000000               0.000000000               0.000000000               0.000000000               0.000000000               0.000000000               0.000000000               0.000000000               0.000000000               0.000000000               0.000000000               0.000000000               0.000000000               0.000000000               0.000000000               0.000000000               0.000000000               0.000000000               0.000000000               0.000000000               0.000845980               0.008902045               0.000665103              -0.000795511               0.003232489               0.002436978               0.000000000               0.000000000               0.000000000               0.000000000               0.000881947               0.007315013               0.000405436              -0.000583645               0.002632862               0.002049217               0.000000000               0.000000000               0.000000000               0.000000000               0.001183189               0.006062775               0.000138320              -0.000314150               0.002125622               0.001811471               0.000000000               0.000000000               0.000000000               0.000000000               0.001208438               0.005379943               0.000016618              -0.000219328               0.001866406               0.001647078               0.000000000               0.000000000               0.000000000               0.000000000               0.001136477               0.004977596              -0.000037040              -0.000196020               0.001724522               0.001528502               0.000000000               0.000000000               0.000000000               0.000000000               0.001031775               0.004719069              -0.000059201              -0.000202967               0.001640663               0.001437696               0.000000000               0.000000000               0.000000000               0.000000000               0.000914987               0.004546790              -0.000069238              -0.000225228               0.001590658               0.001365430               0.000000000               0.000000000               0.000000000               0.000000000               0.000796726               0.004431607              -0.000073732              -0.000255178               0.001562247               0.001307069               0.000000000               0.000000000               0.000000000               0.000000000               0.000683279               0.004353763              -0.000073828              -0.000287990               0.001547236               0.001259246               0.000000000               0.000000000               0.000000000               0.000000000               0.000576293               0.004300856              -0.000071738              -0.000321496               0.001540770               0.001219273               0.000000000               0.000000000               0.000000000               0.000000000               0.000474553               0.004263196              -0.000068954              -0.000354941               0.001539365               0.001184424               0.000000000               0.000000000               0.000000000               0.000000000               0.000377704               0.004234506              -0.000065792              -0.000387673               0.001540712               0.001153039               0.000000000               0.000000000               0.000000000               0.000000000               0.000288591               0.004211199              -0.000061554              -0.000418177               0.001543111               0.001124934               0.000000000               0.000000000               0.000000000               0.000000000               0.000206978               0.004189219              -0.000054782              -0.000446035               0.001545071               0.001099036               0.000000000               0.000000000               0.000000000               0.000000000               0.000131534               0.004164266              -0.000043231              -0.000471207               0.001545144               0.001073937               0.000000000               0.000000000               0.000000000               0.000000000               0.000062222               0.004132848              -0.000025390              -0.000493271               0.001542026               0.001048755               0.000000000               0.000000000               0.000000000               0.000000000               0.000028258               0.004110289              -0.000014580              -0.000503188               0.001537812               0.001034624               0.000000000               0.000000000               0.000000000               0.000000000               0.000963558               0.008444664               0.001257149              -0.000694248               0.003046276               0.002352028               0.000000000               0.000000000               0.000000000               0.000000000               0.000899357               0.007004810               0.000769176              -0.000538341               0.002514360               0.001976019               0.000000000               0.000000000               0.000000000               0.000000000               0.001094096               0.005909729               0.000272638              -0.000328429               0.002079366               0.001750937               0.000000000               0.000000000               0.000000000               0.000000000               0.001077917               0.005310412               0.000053054              -0.000259582               0.001856647               0.001597065               0.000000000               0.000000000               0.000000000               0.000000000               0.000994393               0.004953949              -0.000041315              -0.000246346               0.001733415               0.001487069               0.000000000               0.000000000               0.000000000               0.000000000               0.000892375               0.004720419              -0.000080953              -0.000255411               0.001658594               0.001403183               0.000000000               0.000000000               0.000000000               0.000000000               0.000786086               0.004564648              -0.000101299              -0.000275798               0.001613467               0.001337669               0.000000000               0.000000000               0.000000000               0.000000000               0.000682078               0.004460268              -0.000110710              -0.000301753               0.001587326               0.001285572               0.000000000               0.000000000               0.000000000               0.000000000               0.000583645               0.004388816              -0.000113407              -0.000329734               0.001572835               0.001243101               0.000000000               0.000000000               0.000000000               0.000000000               0.000491750               0.004339634              -0.000112322              -0.000358047               0.001565879               0.001207832               0.000000000               0.000000000               0.000000000               0.000000000               0.000407062               0.004304027              -0.000108704              -0.000385354               0.001563113               0.001177758               0.000000000               0.000000000               0.000000000               0.000000000               0.000327518               0.004276385              -0.000103928              -0.000411728               0.001562690               0.001150962               0.000000000               0.000000000               0.000000000               0.000000000               0.000254656               0.004256507              -0.000096704              -0.000436566               0.001564344               0.001127777               0.000000000               0.000000000               0.000000000               0.000000000               0.000187633               0.004242547              -0.000085285              -0.000459955               0.001567486               0.001107532               0.000000000               0.000000000               0.000000000               0.000000000               0.000123073               0.004235207              -0.000067242              -0.000483247               0.001572804               0.001089557               0.000000000               0.000000000               0.000000000               0.000000000               0.000059481               0.004234240              -0.000039346              -0.000506973               0.001580390               0.001073417               0.000000000               0.000000000               0.000000000               0.000000000               0.000031739               0.004241344              -0.000020689              -0.000518265               0.001586522               0.001068257               0.000000000               0.000000000               0.000000000               0.000000000               0.001119474               0.007740737               0.001714775              -0.000547789               0.002762816               0.002215027               0.000000000               0.000000000               0.000000000               0.000000000               0.000910574               0.006531920               0.001058505              -0.000475024               0.002335626               0.001860602               0.000000000               0.000000000               0.000000000               0.000000000               0.000949509               0.005676552               0.000398346              -0.000353502               0.002009999               0.001656497               0.000000000               0.000000000               0.000000000               0.000000000               0.000882751               0.005199973               0.000115700              -0.000318964               0.001839628               0.001520664               0.000000000               0.000000000               0.000000000               0.000000000               0.000795349               0.004903740              -0.000006433              -0.000314711               0.001739467               0.001424756               0.000000000               0.000000000               0.000000000               0.000000000               0.000707871               0.004709496              -0.000057996              -0.000323234               0.001677561               0.001354327               0.000000000               0.000000000               0.000000000               0.000000000               0.000619632               0.004575916              -0.000086378              -0.000339627               0.001638499               0.001298872               0.000000000               0.000000000               0.000000000               0.000000000               0.000536766               0.004484007              -0.000101270              -0.000359213               0.001614391               0.001255179               0.000000000               0.000000000               0.000000000               0.000000000               0.000461199               0.004419853              -0.000106743              -0.000379531               0.001599780               0.001220249               0.000000000               0.000000000               0.000000000               0.000000000               0.000391925               0.004373437              -0.000107034              -0.000399707               0.001591033               0.001191326               0.000000000               0.000000000               0.000000000               0.000000000               0.000328109               0.004338571              -0.000102860              -0.000419280               0.001585936               0.001166656               0.000000000               0.000000000               0.000000000               0.000000000               0.000267440               0.004313391              -0.000096499              -0.000438883               0.001584077               0.001145194               0.000000000               0.000000000               0.000000000               0.000000000               0.000211001               0.004298505              -0.000087033              -0.000458187               0.001585550               0.001127363               0.000000000               0.000000000               0.000000000               0.000000000               0.000158325               0.004295272              -0.000073881              -0.000477536               0.001590922               0.001113386               0.000000000               0.000000000               0.000000000               0.000000000               0.000105215               0.004304464              -0.000056328              -0.000498601               0.001601007               0.001102406               0.000000000               0.000000000               0.000000000               0.000000000               0.000050850               0.004328303              -0.000031541              -0.000521968               0.001616743               0.001094775               0.000000000               0.000000000               0.000000000               0.000000000               0.000030965               0.004357591              -0.000013731              -0.000533085               0.001630211               0.001097125               0.000000000               0.000000000               0.000000000               0.000000000               0.001268081               0.006865559               0.002006658              -0.000382665               0.002416051               0.002033386               0.000000000               0.000000000               0.000000000               0.000000000               0.000901276               0.005953637               0.001260829              -0.000406226               0.002119934               0.001713708               0.000000000               0.000000000               0.000000000               0.000000000               0.000771804               0.005390722               0.000513675              -0.000384413               0.001925027               0.001540614               0.000000000               0.000000000               0.000000000               0.000000000               0.000664101               0.005051710               0.000201265              -0.000382425               0.001811361               0.001428936               0.000000000               0.000000000               0.000000000               0.000000000               0.000580889               0.004824999               0.000064922              -0.000385290               0.001736747               0.001351457               0.000000000               0.000000000               0.000000000               0.000000000               0.000514561               0.004673008               0.000007289              -0.000391165               0.001688042               0.001296877               0.000000000               0.000000000               0.000000000               0.000000000               0.000454302               0.004563974              -0.000022802              -0.000400133               0.001654687               0.001254554               0.000000000               0.000000000               0.000000000               0.000000000               0.000397272               0.004481035              -0.000041163              -0.000411151               0.001630714               0.001219563               0.000000000               0.000000000               0.000000000               0.000000000               0.000346318               0.004417362              -0.000050964              -0.000422300               0.001613206               0.001190906               0.000000000               0.000000000               0.000000000               0.000000000               0.000300501               0.004370369              -0.000053838              -0.000433607               0.001601311               0.001167704               0.000000000               0.000000000               0.000000000               0.000000000               0.000254221               0.004336442              -0.000050297              -0.000446721               0.001594373               0.001147652               0.000000000               0.000000000               0.000000000               0.000000000               0.000207301               0.004313827              -0.000043507              -0.000461489               0.001591758               0.001130268               0.000000000               0.000000000               0.000000000               0.000000000               0.000163174               0.004301468              -0.000035367              -0.000476492               0.001592639               0.001116147               0.000000000               0.000000000               0.000000000               0.000000000               0.000120612               0.004300850              -0.000026592              -0.000492376               0.001597727               0.001105352               0.000000000               0.000000000               0.000000000               0.000000000               0.000078805               0.004311217              -0.000018196              -0.000509349               0.001606841               0.001097492               0.000000000               0.000000000               0.000000000               0.000000000               0.000038353               0.004332183              -0.000008978              -0.000527139               0.001619760               0.001092620               0.000000000               0.000000000               0.000000000               0.000000000               0.000023312               0.004353419              -0.000001298              -0.000535434               0.001629603               0.001094169               0.000000000               0.000000000               0.000000000               0.000000000               0.001372116               0.005910402               0.002131199              -0.000224258               0.002044866               0.001820608               0.000000000               0.000000000               0.000000000               0.000000000               0.000870616               0.005332500               0.001379009              -0.000340082               0.001890843               0.001550761               0.000000000               0.000000000               0.000000000               0.000000000               0.000592535               0.005080318               0.000623394              -0.000412838               0.001831035               0.001418197               0.000000000               0.000000000               0.000000000               0.000000000               0.000463732               0.004876241               0.000311915              -0.000435629               0.001770607               0.001334978               0.000000000               0.000000000               0.000000000               0.000000000               0.000397758               0.004719018               0.000172862              -0.000440717               0.001719896               0.001279179               0.000000000               0.000000000               0.000000000               0.000000000               0.000353608               0.004604016               0.000110301              -0.000442898               0.001682289               0.001239391               0.000000000               0.000000000               0.000000000               0.000000000               0.000319516               0.004515514               0.000077715              -0.000444619               0.001653363               0.001208743               0.000000000               0.000000000               0.000000000               0.000000000               0.000290323               0.004440321               0.000054113              -0.000446168               0.001628815               0.001182647               0.000000000               0.000000000               0.000000000               0.000000000               0.000261080               0.004377932               0.000036512              -0.000449335               0.001609074               0.001159739               0.000000000               0.000000000               0.000000000               0.000000000               0.000227977               0.004330104               0.000025014              -0.000455770               0.001595277               0.001139507               0.000000000               0.000000000               0.000000000               0.000000000               0.000191386               0.004297175               0.000021827              -0.000465376               0.001587503               0.001122127               0.000000000               0.000000000               0.000000000               0.000000000               0.000151398               0.004272311               0.000022489              -0.000477264               0.001583177               0.001105914               0.000000000               0.000000000               0.000000000               0.000000000               0.000113004               0.004255125               0.000022148              -0.000489513               0.001581532               0.001092019               0.000000000               0.000000000               0.000000000               0.000000000               0.000077083               0.004244587               0.000018190              -0.000501666               0.001582070               0.001080404               0.000000000               0.000000000               0.000000000               0.000000000               0.000045238               0.004238985               0.000010831              -0.000512907               0.001583950               0.001071043               0.000000000               0.000000000               0.000000000               0.000000000               0.000019705               0.004234102               0.000004339              -0.000521872               0.001585311               0.001063439               0.000000000               0.000000000               0.000000000               0.000000000               0.000007916               0.004228661               0.000001663              -0.000525613               0.001584744               0.001059131               0.000000000               0.000000000               0.000000000               0.000000000               0.001407101               0.004956722               0.002109275              -0.000091930               0.001682867               0.001590937               0.000000000               0.000000000               0.000000000               0.000000000               0.000822375               0.004717679               0.001427391              -0.000281320               0.001666317               0.001384997               0.000000000               0.000000000               0.000000000               0.000000000               0.000436919               0.004764652               0.000732113              -0.000431736               0.001732113               0.001300377               0.000000000               0.000000000               0.000000000               0.000000000               0.000308280               0.004685156               0.000440587              -0.000470038               0.001718382               0.001248344               0.000000000               0.000000000               0.000000000               0.000000000               0.000266405               0.004589609               0.000300166              -0.000473798               0.001687787               0.001213989               0.000000000               0.000000000               0.000000000               0.000000000               0.000245113               0.004504014               0.000226631              -0.000471083               0.001658351               0.001187267               0.000000000               0.000000000               0.000000000               0.000000000               0.000229929               0.004431332               0.000184490              -0.000467692               0.001632993               0.001165301               0.000000000               0.000000000               0.000000000               0.000000000               0.000217107               0.004364154               0.000151915              -0.000464103               0.001609404               0.001145301               0.000000000               0.000000000               0.000000000               0.000000000               0.000199385               0.004306899               0.000123872              -0.000463592               0.001590149               0.001126557               0.000000000               0.000000000               0.000000000               0.000000000               0.000172503               0.004260076               0.000100070              -0.000467820               0.001575951               0.001108131               0.000000000               0.000000000               0.000000000               0.000000000               0.000138663               0.004221675               0.000084015              -0.000475710               0.001565781               0.001090071               0.000000000               0.000000000               0.000000000               0.000000000               0.000101401               0.004187773               0.000072980              -0.000485445               0.001557726               0.001072280               0.000000000               0.000000000               0.000000000               0.000000000               0.000065146               0.004157237               0.000059057              -0.000495224               0.001550807               0.001055583               0.000000000               0.000000000               0.000000000               0.000000000               0.000033318               0.004129059               0.000041341              -0.000503637               0.001544218               0.001040581               0.000000000               0.000000000               0.000000000               0.000000000               0.000012599               0.004101327               0.000021967              -0.000507940               0.001536409               0.001028469               0.000000000               0.000000000               0.000000000               0.000000000               0.000003178               0.004068479               0.000007398              -0.000507367               0.001525269               0.001017902               0.000000000               0.000000000               0.000000000               0.000000000              -0.000004329               0.004042202              -0.000000018              -0.000506897               0.001516353               0.001009455               0.000000000               0.000000000               0.000000000               0.000000000               0.001369534               0.004056536               0.001971033               0.000006506               0.001349996               0.001356501               0.000000000               0.000000000               0.000000000               0.000000000               0.000756313               0.004146139               0.001421189              -0.000234651               0.001460249               0.001225598               0.000000000               0.000000000               0.000000000               0.000000000               0.000319208               0.004455045               0.000836329              -0.000437177               0.001630726               0.001193549               0.000000000               0.000000000               0.000000000               0.000000000               0.000209806               0.004480120               0.000568144              -0.000481337               0.001653804               0.001172467               0.000000000               0.000000000               0.000000000               0.000000000               0.000191791               0.004437332               0.000422236              -0.000482744               0.001640011               0.001157267               0.000000000               0.000000000               0.000000000               0.000000000               0.000187448               0.004378047               0.000331976              -0.000476962               0.001618322               0.001141360               0.000000000               0.000000000               0.000000000               0.000000000               0.000182104               0.004317588               0.000274743              -0.000471408               0.001596318               0.001124909               0.000000000               0.000000000               0.000000000               0.000000000               0.000171930               0.004259902               0.000231860              -0.000468013               0.001575958               0.001107945               0.000000000               0.000000000               0.000000000               0.000000000               0.000153833               0.004207898               0.000192276              -0.000468299               0.001558718               0.001090420               0.000000000               0.000000000               0.000000000               0.000000000               0.000127058               0.004161180               0.000156404              -0.000472499               0.001544546               0.001072046               0.000000000               0.000000000               0.000000000               0.000000000               0.000091520               0.004112972               0.000126319              -0.000479800               0.001530910               0.001051110               0.000000000               0.000000000               0.000000000               0.000000000               0.000053860               0.004065727               0.000101798              -0.000488017               0.001517901               0.001029884               0.000000000               0.000000000               0.000000000               0.000000000               0.000019667               0.004019417               0.000076316              -0.000495051               0.001504809               0.001009758               0.000000000               0.000000000               0.000000000               0.000000000              -0.000008905               0.003970978               0.000048331              -0.000499710               0.001490216               0.000990506               0.000000000               0.000000000               0.000000000               0.000000000              -0.000023704               0.003919015               0.000023325              -0.000498765               0.001472580               0.000973815               0.000000000               0.000000000               0.000000000               0.000000000              -0.000019493               0.003864592               0.000006115              -0.000490383               0.001451646               0.000961263               0.000000000               0.000000000               0.000000000               0.000000000              -0.000018142               0.003826630              -0.000004136              -0.000485131               0.001437241               0.000952110               0.000000000               0.000000000               0.000000000               0.000000000               0.001292411               0.003272948               0.001752635               0.000075533               0.001065793               0.001141326               0.000000000               0.000000000               0.000000000               0.000000000               0.000701334               0.003633032               0.001385407              -0.000191130               0.001274708               0.001083578               0.000000000               0.000000000               0.000000000               0.000000000               0.000255049               0.004156847               0.000949811              -0.000423962               0.001526922               0.001102960               0.000000000               0.000000000               0.000000000               0.000000000               0.000166736               0.004278877               0.000697699              -0.000472333               0.001583722               0.001111389               0.000000000               0.000000000               0.000000000               0.000000000               0.000166744               0.004290198               0.000539320              -0.000473745               0.001587966               0.001114222               0.000000000               0.000000000               0.000000000               0.000000000               0.000170424               0.004262112               0.000430913              -0.000468854               0.001576975               0.001108121               0.000000000               0.000000000               0.000000000               0.000000000               0.000166348               0.004217754               0.000356044              -0.000464837               0.001560850               0.001096012               0.000000000               0.000000000               0.000000000               0.000000000               0.000153407               0.004170976               0.000301550              -0.000463843               0.001544926               0.001081083               0.000000000               0.000000000               0.000000000               0.000000000               0.000132844               0.004126941               0.000254391              -0.000466050               0.001530983               0.001064933               0.000000000               0.000000000               0.000000000               0.000000000               0.000105856               0.004082255               0.000209477              -0.000470585               0.001517600               0.001047015               0.000000000               0.000000000               0.000000000               0.000000000               0.000070730               0.004030550               0.000169377              -0.000477294               0.001502601               0.001025308               0.000000000               0.000000000               0.000000000               0.000000000               0.000030556               0.003974308               0.000133309              -0.000485329               0.001486532               0.001001204               0.000000000               0.000000000               0.000000000               0.000000000              -0.000008617               0.003915333               0.000098855              -0.000492647               0.001469314               0.000976667               0.000000000               0.000000000               0.000000000               0.000000000              -0.000042499               0.003851651               0.000064523              -0.000497392               0.001449668               0.000952276               0.000000000               0.000000000               0.000000000               0.000000000              -0.000066832               0.003781313               0.000034284              -0.000497725               0.001426333               0.000928609               0.000000000               0.000000000               0.000000000               0.000000000              -0.000077142               0.003709038               0.000011755              -0.000492557               0.001400519               0.000907963               0.000000000               0.000000000               0.000000000               0.000000000              -0.000079495               0.003664988              -0.000000255              -0.000487933               0.001384295               0.000896362               0.000000000               0.000000000               0.000000000               0.000000000               0.001160505               0.002519285               0.001497429               0.000120276               0.000799661               0.000919936               0.000000000               0.000000000               0.000000000               0.000000000               0.000678613               0.003029318               0.001336961              -0.000124186               0.001051158               0.000926971               0.000000000               0.000000000               0.000000000               0.000000000               0.000265438               0.003704610               0.001079730              -0.000363537               0.001356036               0.000992499               0.000000000               0.000000000               0.000000000               0.000000000               0.000178259               0.003951790               0.000848853              -0.000427126               0.001459625               0.001032499               0.000000000               0.000000000               0.000000000               0.000000000               0.000175269               0.004047147               0.000675337              -0.000440167               0.001495758               0.001055591               0.000000000               0.000000000               0.000000000               0.000000000               0.000180884               0.004078259               0.000546403              -0.000441950               0.001506723               0.001064773               0.000000000               0.000000000               0.000000000               0.000000000               0.000176395               0.004072381               0.000452854              -0.000442899               0.001505080               0.001062181               0.000000000               0.000000000               0.000000000               0.000000000               0.000165975               0.004045282               0.000385361              -0.000443419               0.001496220               0.001052801               0.000000000               0.000000000               0.000000000               0.000000000               0.000146523               0.004012731               0.000330849              -0.000446644               0.001486445               0.001039801               0.000000000               0.000000000               0.000000000               0.000000000               0.000118400               0.003980616               0.000278755              -0.000453176               0.001477917               0.001024742               0.000000000               0.000000000               0.000000000               0.000000000               0.000082766               0.003942849               0.000229974              -0.000461818               0.001468209               0.001006391               0.000000000               0.000000000               0.000000000               0.000000000               0.000040268               0.003892802               0.000184708              -0.000471499               0.001454754               0.000983255               0.000000000               0.000000000               0.000000000               0.000000000              -0.000009161               0.003833366               0.000139797              -0.000482605               0.001438644               0.000956039               0.000000000               0.000000000               0.000000000               0.000000000              -0.000062039               0.003771444               0.000096130              -0.000494694               0.001422034               0.000927340               0.000000000               0.000000000               0.000000000               0.000000000              -0.000112220               0.003707536               0.000057154              -0.000505523               0.001404341               0.000898818               0.000000000               0.000000000               0.000000000               0.000000000              -0.000157430               0.003639603               0.000024114              -0.000513985               0.001384517               0.000870532               0.000000000               0.000000000               0.000000000               0.000000000              -0.000182525               0.003596977               0.000006113              -0.000518068               0.001371670               0.000853602               0.000000000               0.000000000               0.000000000               0.000000000               0.000937371               0.001818020               0.001216861               0.000124259               0.000564580               0.000688839               0.000000000               0.000000000               0.000000000               0.000000000               0.000649590               0.002424654               0.001251414              -0.000059487               0.000828038               0.000768551               0.000000000               0.000000000               0.000000000               0.000000000               0.000322639               0.003194554               0.001175095              -0.000278330               0.001157617               0.000879287               0.000000000               0.000000000               0.000000000               0.000000000               0.000236154               0.003564928               0.000989103              -0.000357058               0.001307317               0.000950258               0.000000000               0.000000000               0.000000000               0.000000000               0.000221797               0.003758033               0.000813690              -0.000386580               0.001381525               0.000994945               0.000000000               0.000000000               0.000000000               0.000000000               0.000225194               0.003857358               0.000673830              -0.000397722               0.001418347               0.001020626               0.000000000               0.000000000               0.000000000               0.000000000               0.000220472               0.003897657               0.000568306              -0.000404529               0.001434049               0.001029520               0.000000000               0.000000000               0.000000000               0.000000000               0.000208845               0.003907204               0.000488285              -0.000410083               0.001439083               0.001029000               0.000000000               0.000000000               0.000000000               0.000000000               0.000191748               0.003905179               0.000422599              -0.000416241               0.001440460               0.001024219               0.000000000               0.000000000               0.000000000               0.000000000               0.000166581               0.003893836               0.000364266              -0.000424261               0.001439353               0.001015092               0.000000000               0.000000000               0.000000000               0.000000000               0.000132594               0.003871297               0.000311172              -0.000434188               0.001435149               0.001000960               0.000000000               0.000000000               0.000000000               0.000000000               0.000087413               0.003833865               0.000257971              -0.000446452               0.001426760               0.000980307               0.000000000               0.000000000               0.000000000               0.000000000               0.000030760               0.003788771               0.000201664              -0.000462060               0.001416931               0.000954871               0.000000000               0.000000000               0.000000000               0.000000000              -0.000035575               0.003739789               0.000146287              -0.000480813               0.001406855               0.000926042               0.000000000               0.000000000               0.000000000               0.000000000              -0.000110179               0.003688580               0.000093527              -0.000502388               0.001396977               0.000894589               0.000000000               0.000000000               0.000000000               0.000000000              -0.000190803               0.003632020               0.000044320              -0.000525552               0.001385845               0.000860293               0.000000000               0.000000000               0.000000000               0.000000000              -0.000246712               0.003588800               0.000014950              -0.000541116               0.001376627               0.000835511               0.000000000               0.000000000               0.000000000               0.000000000               0.000647612               0.001213153               0.000918892               0.000091208               0.000373977               0.000465185               0.000000000               0.000000000               0.000000000               0.000000000               0.000585293               0.001849118               0.001106680              -0.000011656               0.000620251               0.000608595               0.000000000               0.000000000               0.000000000               0.000000000               0.000397375               0.002638219               0.001184855              -0.000180762               0.000939651               0.000758889               0.000000000               0.000000000               0.000000000               0.000000000               0.000333672               0.003102715               0.001063282              -0.000262713               0.001121799               0.000859086               0.000000000               0.000000000               0.000000000               0.000000000               0.000317573               0.003386158               0.000910213              -0.000304180               0.001230101               0.000925921               0.000000000               0.000000000               0.000000000               0.000000000               0.000315832               0.003556823               0.000773794              -0.000326166               0.001294318               0.000968152               0.000000000               0.000000000               0.000000000               0.000000000               0.000305756               0.003656715               0.000661990              -0.000342430               0.001333036               0.000990606               0.000000000               0.000000000               0.000000000               0.000000000               0.000284667               0.003717453               0.000573332              -0.000357931               0.001358449               0.001000518               0.000000000               0.000000000               0.000000000               0.000000000               0.000262700               0.003753283               0.000501748              -0.000370647               0.001374631               0.001003984               0.000000000               0.000000000               0.000000000               0.000000000               0.000239200               0.003767455               0.000439689              -0.000381231               0.001382883               0.001001652               0.000000000               0.000000000               0.000000000               0.000000000               0.000205750               0.003764486               0.000381152              -0.000393404               0.001385951               0.000992547               0.000000000               0.000000000               0.000000000               0.000000000               0.000159828               0.003751084               0.000319817              -0.000408949               0.001386665               0.000977716               0.000000000               0.000000000               0.000000000               0.000000000               0.000104526               0.003732837               0.000256107              -0.000427406               0.001386735               0.000959329               0.000000000               0.000000000               0.000000000               0.000000000               0.000036220               0.003702480               0.000191485              -0.000449227               0.001383890               0.000934663               0.000000000               0.000000000               0.000000000               0.000000000              -0.000044889               0.003663509               0.000126923              -0.000474771               0.001379414               0.000904643               0.000000000               0.000000000               0.000000000               0.000000000              -0.000138472               0.003619081               0.000062774              -0.000504311               0.001374452               0.000870141               0.000000000               0.000000000               0.000000000               0.000000000              -0.000208805               0.003581918               0.000023481              -0.000526040               0.001369307               0.000843267               0.000000000               0.000000000               0.000000000               0.000000000               0.000311547               0.000741540               0.000634400               0.000024136               0.000239132               0.000263268               0.000000000               0.000000000               0.000000000               0.000000000               0.000486601               0.001336155               0.000912122               0.000015454               0.000440229               0.000455683               0.000000000               0.000000000               0.000000000               0.000000000               0.000477270               0.002081483               0.001098512              -0.000081210               0.000720890               0.000639680               0.000000000               0.000000000               0.000000000               0.000000000               0.000462339               0.002598680               0.001045387              -0.000151459               0.000916704               0.000765245               0.000000000               0.000000000               0.000000000               0.000000000               0.000455280               0.002953625               0.000931323              -0.000198473               0.001050689               0.000852216               0.000000000               0.000000000               0.000000000               0.000000000               0.000443528               0.003195080               0.000810742              -0.000233062               0.001142703               0.000909641               0.000000000               0.000000000               0.000000000               0.000000000               0.000420095               0.003358951               0.000702428              -0.000262333               0.001207083               0.000944750               0.000000000               0.000000000               0.000000000               0.000000000               0.000391648               0.003472987               0.000616741              -0.000287255               0.001253402               0.000966147               0.000000000               0.000000000               0.000000000               0.000000000               0.000363752               0.003551236               0.000547875              -0.000307497               0.001286233               0.000978736               0.000000000               0.000000000               0.000000000               0.000000000               0.000333616               0.003599531               0.000483846              -0.000324835               0.001308110               0.000983275               0.000000000               0.000000000               0.000000000               0.000000000               0.000295653               0.003628427               0.000420133              -0.000342683               0.001323691               0.000981008               0.000000000               0.000000000               0.000000000               0.000000000               0.000252754               0.003649407               0.000357772              -0.000361392               0.001336921               0.000975528               0.000000000               0.000000000               0.000000000               0.000000000               0.000205934               0.003659432               0.000293246              -0.000380203               0.001346533               0.000966330               0.000000000               0.000000000               0.000000000               0.000000000               0.000149533               0.003650393               0.000226330              -0.000400223               0.001350193               0.000949970               0.000000000               0.000000000               0.000000000               0.000000000               0.000083919               0.003629056               0.000157545              -0.000422161               0.001350394               0.000928232               0.000000000               0.000000000               0.000000000               0.000000000               0.000004061               0.003601683               0.000082055              -0.000448686               0.001350111               0.000901425               0.000000000               0.000000000               0.000000000               0.000000000              -0.000061349               0.003574458               0.000035405              -0.000469812               0.001348078               0.000878266               0.000000000               0.000000000               0.000000000               0.000000000              -0.000036332               0.000403583               0.000393484              -0.000064073               0.000155884               0.000091811               0.000000000               0.000000000               0.000000000               0.000000000               0.000362925               0.000914099               0.000688235               0.000021833               0.000297418               0.000319252               0.000000000               0.000000000               0.000000000               0.000000000               0.000548564               0.001572034               0.000918886               0.000009206               0.000520937               0.000530143               0.000000000               0.000000000               0.000000000               0.000000000               0.000598619               0.002104159               0.000920775              -0.000038539               0.000714225               0.000675686               0.000000000               0.000000000               0.000000000               0.000000000               0.000606599               0.002512339               0.000847847              -0.000086568               0.000866294               0.000779726               0.000000000               0.000000000               0.000000000               0.000000000               0.000591193               0.002816550               0.000752646              -0.000130372               0.000982298               0.000851926               0.000000000               0.000000000               0.000000000               0.000000000               0.000559222               0.003037936               0.000663157              -0.000170034               0.001069313               0.000899279               0.000000000               0.000000000               0.000000000               0.000000000               0.000521268               0.003199408               0.000593508              -0.000204451               0.001134609               0.000930158               0.000000000               0.000000000               0.000000000               0.000000000               0.000480906               0.003318723               0.000534550              -0.000234500               0.001184397               0.000949896               0.000000000               0.000000000               0.000000000               0.000000000               0.000439900               0.003407918               0.000474958              -0.000261027               0.001222970               0.000961943               0.000000000               0.000000000               0.000000000               0.000000000               0.000399614               0.003477925               0.000414730              -0.000284885               0.001254258               0.000969374               0.000000000               0.000000000               0.000000000               0.000000000               0.000360025               0.003534006               0.000357285              -0.000306741               0.001280237               0.000973496               0.000000000               0.000000000               0.000000000               0.000000000               0.000320712               0.003572085               0.000299593              -0.000326243               0.001299431               0.000973188               0.000000000               0.000000000               0.000000000               0.000000000               0.000283528               0.003590117               0.000241316              -0.000342441               0.001310840               0.000968400               0.000000000               0.000000000               0.000000000               0.000000000               0.000245442               0.003593742               0.000177853              -0.000357176               0.001316961               0.000959784               0.000000000               0.000000000               0.000000000               0.000000000               0.000198759               0.003586702               0.000098002              -0.000373802               0.001320156               0.000946354               0.000000000               0.000000000               0.000000000               0.000000000               0.000157749               0.003572223               0.000048691              -0.000387371               0.001319853               0.000932482               0.000000000               0.000000000               0.000000000               0.000000000              -0.000334467               0.000186816               0.000210643              -0.000148777               0.000111863              -0.000036914               0.000000000               0.000000000               0.000000000               0.000000000               0.000246256               0.000603653               0.000454530               0.000016888               0.000195586               0.000212474               0.000000000               0.000000000               0.000000000               0.000000000               0.000603140               0.001163470               0.000659625               0.000080742               0.000360905               0.000441648               0.000000000               0.000000000               0.000000000               0.000000000               0.000717563               0.001689051               0.000687420               0.000057954               0.000543693               0.000601647               0.000000000               0.000000000               0.000000000               0.000000000               0.000742765               0.002129747               0.000650245               0.000012318               0.000705802               0.000718120               0.000000000               0.000000000               0.000000000               0.000000000               0.000728416               0.002476914               0.000587471              -0.000036459               0.000837782               0.000801324               0.000000000               0.000000000               0.000000000               0.000000000               0.000693656               0.002740526               0.000525498              -0.000082445               0.000940981               0.000858536               0.000000000               0.000000000               0.000000000               0.000000000               0.000645911               0.002940787               0.000476491              -0.000125382               0.001022046               0.000896665               0.000000000               0.000000000               0.000000000               0.000000000               0.000593291               0.003097913               0.000434528              -0.000164755               0.001087545               0.000922791               0.000000000               0.000000000               0.000000000               0.000000000               0.000543922               0.003224074               0.000390953              -0.000199038               0.001141027               0.000941989               0.000000000               0.000000000               0.000000000               0.000000000               0.000501379               0.003326626               0.000344637              -0.000227811               0.001184801               0.000956990               0.000000000               0.000000000               0.000000000               0.000000000               0.000465056               0.003410333               0.000299016              -0.000251895               0.001220731               0.000968836               0.000000000               0.000000000               0.000000000               0.000000000               0.000436536               0.003476512               0.000255724              -0.000270862               0.001249113               0.000978251               0.000000000               0.000000000               0.000000000               0.000000000               0.000416782               0.003524871               0.000212737              -0.000284315               0.001269717               0.000985402               0.000000000               0.000000000               0.000000000               0.000000000               0.000404934               0.003557214               0.000162309              -0.000292801               0.001283326               0.000990526               0.000000000               0.000000000               0.000000000               0.000000000               0.000399710               0.003571093               0.000092516              -0.000296494               0.001289184               0.000992689               0.000000000               0.000000000               0.000000000               0.000000000               0.000398903               0.003571759               0.000050257              -0.000296881               0.001289535               0.000992654               0.000000000               0.000000000               0.000000000               0.000000000              -0.000534420               0.000073768               0.000088425              -0.000209629               0.000094465              -0.000115164               0.000000000               0.000000000               0.000000000               0.000000000               0.000166795               0.000419554               0.000225832               0.000010103               0.000136482               0.000146585               0.000000000               0.000000000               0.000000000               0.000000000               0.000639603               0.000900986               0.000345128               0.000127226               0.000257917               0.000385143               0.000000000               0.000000000               0.000000000               0.000000000               0.000803608               0.001412550               0.000368872               0.000124783               0.000429251               0.000554034               0.000000000               0.000000000               0.000000000               0.000000000               0.000840114               0.001869321               0.000354289               0.000081377               0.000595975               0.000677352               0.000000000               0.000000000               0.000000000               0.000000000               0.000824017               0.002239787               0.000322037               0.000029033               0.000736911               0.000765943               0.000000000               0.000000000               0.000000000               0.000000000               0.000787972               0.002526794               0.000290567              -0.000020360               0.000849043               0.000828683               0.000000000               0.000000000               0.000000000               0.000000000               0.000738750               0.002751251               0.000266351              -0.000066875               0.000939366               0.000872491               0.000000000               0.000000000               0.000000000               0.000000000               0.000683340               0.002935557               0.000245629              -0.000110692               0.001015407               0.000904714               0.000000000               0.000000000               0.000000000               0.000000000               0.000629289               0.003088324               0.000223641              -0.000150057               0.001079450               0.000929393               0.000000000               0.000000000               0.000000000               0.000000000               0.000583812               0.003210518               0.000198335              -0.000182385               0.001130957               0.000948572               0.000000000               0.000000000               0.000000000               0.000000000               0.000550812               0.003308719               0.000173306              -0.000207035               0.001171907               0.000964872               0.000000000               0.000000000               0.000000000               0.000000000               0.000531657               0.003390296               0.000149642              -0.000224415               0.001204893               0.000980477               0.000000000               0.000000000               0.000000000               0.000000000               0.000525314               0.003457996               0.000124705              -0.000235256               0.001231073               0.000995816               0.000000000               0.000000000               0.000000000               0.000000000               0.000534700               0.003513406               0.000095341              -0.000238663               0.001250678               0.001012015               0.000000000               0.000000000               0.000000000               0.000000000               0.000564942               0.003550531               0.000054352              -0.000231962               0.001260819               0.001028857               0.000000000               0.000000000               0.000000000               0.000000000               0.000599775               0.003567782               0.000030243              -0.000221057               0.001262935               0.001041878               0.000000000               0.000000000               0.000000000               0.000000000              -0.000605710               0.000038403              -0.000000000              -0.000231942               0.000090114              -0.000141827               0.000000000               0.000000000               0.000000000               0.000000000               0.000139286               0.000358202              -0.000000000               0.000007457               0.000116914               0.000124370               0.000000000               0.000000000               0.000000000               0.000000000               0.000653959               0.000810809              -0.000000000               0.000143882               0.000222306               0.000366188               0.000000000               0.000000000               0.000000000               0.000000000               0.000836804               0.001315882               0.000000000               0.000149315               0.000388851               0.000538166               0.000000000               0.000000000               0.000000000               0.000000000               0.000872799               0.001773274              -0.000000000               0.000105639               0.000555872               0.000661512               0.000000000               0.000000000               0.000000000               0.000000000               0.000856090               0.002152103              -0.000000000               0.000052021               0.000700020               0.000752041               0.000000000               0.000000000               0.000000000               0.000000000               0.000823132               0.002450837              -0.000000000               0.000002320               0.000816164               0.000818484               0.000000000               0.000000000               0.000000000               0.000000000               0.000776275               0.002682450               0.000000000              -0.000044203               0.000908875               0.000864672               0.000000000               0.000000000               0.000000000               0.000000000               0.000720979               0.002876300               0.000000000              -0.000089170               0.000988480               0.000899310               0.000000000               0.000000000               0.000000000               0.000000000               0.000664932               0.003039610              -0.000000000              -0.000130601               0.001056727               0.000926126               0.000000000               0.000000000               0.000000000               0.000000000               0.000617226               0.003166445               0.000000000              -0.000164346               0.001110253               0.000945907               0.000000000               0.000000000               0.000000000               0.000000000               0.000585623               0.003267726               0.000000000              -0.000188857               0.001152183               0.000963327               0.000000000               0.000000000               0.000000000               0.000000000               0.000568984               0.003352074               0.000000000              -0.000205640               0.001185893               0.000980254               0.000000000               0.000000000               0.000000000               0.000000000               0.000568225               0.003423869               0.000000000              -0.000214899               0.001212911               0.000998013               0.000000000               0.000000000               0.000000000               0.000000000               0.000586963               0.003487105               0.000000000              -0.000215776               0.001234282               0.001018506               0.000000000               0.000000000               0.000000000               0.000000000               0.000631024               0.003536376              -0.000000000              -0.000205413               0.001247251               0.001041838               0.000000000               0.000000000               0.000000000               0.000000000               0.000678527               0.003562336              -0.000000000              -0.000190844               0.001251048               0.001060204               0.000000000               0.000000000               0.000000000               0.000000000               0.000802771               0.009060568              -0.000000000              -0.000831530               0.003297336               0.002465806               0.000000000               0.000000000               0.000000000               0.000000000               0.000874631               0.007422588              -0.000000000              -0.000599836               0.002674116               0.002074281               0.000000000               0.000000000               0.000000000               0.000000000               0.001213188               0.006116256               0.000000000              -0.000309586               0.002141927               0.001832341               0.000000000               0.000000000               0.000000000               0.000000000               0.001254445               0.005405164              -0.000000000              -0.000205228               0.001870113               0.001664885               0.000000000               0.000000000               0.000000000               0.000000000               0.001188369               0.004983262              -0.000000000              -0.000177269               0.001720160               0.001542891               0.000000000               0.000000000               0.000000000               0.000000000               0.001083814               0.004716346               0.000000000              -0.000183113               0.001633137               0.001450025               0.000000000               0.000000000               0.000000000               0.000000000               0.000963103               0.004537349              -0.000000000              -0.000206005               0.001581103               0.001375098               0.000000000               0.000000000               0.000000000               0.000000000               0.000841247               0.004418634              -0.000000000              -0.000236861               0.001551817               0.001314956               0.000000000               0.000000000               0.000000000               0.000000000               0.000723748               0.004339833              -0.000000000              -0.000271073               0.001536954               0.001265881               0.000000000               0.000000000               0.000000000               0.000000000               0.000611478               0.004285775              -0.000000000              -0.000306417               0.001530716               0.001224299               0.000000000               0.000000000               0.000000000               0.000000000               0.000501727               0.004247035              -0.000000000              -0.000342731               0.001529908               0.001187177               0.000000000               0.000000000               0.000000000               0.000000000               0.000396163               0.004217661              -0.000000000              -0.000378646               0.001532088               0.001153443               0.000000000               0.000000000               0.000000000               0.000000000               0.000300814               0.004193698               0.000000000              -0.000411406               0.001535021               0.001123615               0.000000000               0.000000000               0.000000000               0.000000000               0.000213754               0.004169444               0.000000000              -0.000441022               0.001536808               0.001095786               0.000000000               0.000000000               0.000000000               0.000000000               0.000133423               0.004138218              -0.000000000              -0.000467242               0.001535140               0.001067897               0.000000000               0.000000000               0.000000000               0.000000000               0.000061076               0.004093947               0.000000000              -0.000488839               0.001527582               0.001038743               0.000000000               0.000000000               0.000000000               0.000000000               0.000024485               0.004058848               0.000000000              -0.000498173               0.001518993               0.001020820               0.000000000               0.000000000               0.000000000               0.000000000               0.000845980               0.008902045              -0.000665103              -0.000795511               0.003232489               0.002436978               0.000000000               0.000000000               0.000000000               0.000000000               0.000881947               0.007315013              -0.000405436              -0.000583645               0.002632862               0.002049217               0.000000000               0.000000000               0.000000000               0.000000000               0.001183189               0.006062775              -0.000138320              -0.000314150               0.002125622               0.001811471               0.000000000               0.000000000               0.000000000               0.000000000               0.001208438               0.005379943              -0.000016618              -0.000219328               0.001866406               0.001647078               0.000000000               0.000000000               0.000000000               0.000000000               0.001136477               0.004977596               0.000037040              -0.000196020               0.001724522               0.001528502               0.000000000               0.000000000               0.000000000               0.000000000               0.001031775               0.004719069               0.000059201              -0.000202967               0.001640663               0.001437696               0.000000000               0.000000000               0.000000000               0.000000000               0.000914987               0.004546790               0.000069238              -0.000225228               0.001590658               0.001365430               0.000000000               0.000000000               0.000000000               0.000000000               0.000796726               0.004431607               0.000073732              -0.000255178               0.001562247               0.001307069               0.000000000               0.000000000               0.000000000               0.000000000               0.000683279               0.004353763               0.000073828              -0.000287990               0.001547236               0.001259246               0.000000000               0.000000000               0.000000000               0.000000000               0.000576293               0.004300856               0.000071738              -0.000321496               0.001540770               0.001219273               0.000000000               0.000000000               0.000000000               0.000000000               0.000474553               0.004263196               0.000068954              -0.000354941               0.001539365               0.001184424               0.000000000               0.000000000               0.000000000               0.000000000               0.000377704               0.004234506               0.000065792              -0.000387673               0.001540712               0.001153039               0.000000000               0.000000000               0.000000000               0.000000000               0.000288591               0.004211199               0.000061554              -0.000418177               0.001543111               0.001124934               0.000000000               0.000000000               0.000000000               0.000000000               0.000206978               0.004189219               0.000054782              -0.000446035               0.001545071               0.001099036               0.000000000               0.000000000               0.000000000               0.000000000               0.000131534               0.004164266               0.000043231              -0.000471207               0.001545144               0.001073937               0.000000000               0.000000000               0.000000000               0.000000000               0.000062222               0.004132848               0.000025390              -0.000493271               0.001542026               0.001048755               0.000000000               0.000000000               0.000000000               0.000000000               0.000028258               0.004110289               0.000014580              -0.000503188               0.001537812               0.001034624               0.000000000               0.000000000               0.000000000               0.000000000               0.000963558               0.008444664              -0.001257149              -0.000694248               0.003046276               0.002352028               0.000000000               0.000000000               0.000000000               0.000000000               0.000899357               0.007004810              -0.000769176              -0.000538341               0.002514360               0.001976019               0.000000000               0.000000000               0.000000000               0.000000000               0.001094096               0.005909729              -0.000272638              -0.000328429               0.002079366               0.001750937               0.000000000               0.000000000               0.000000000               0.000000000               0.001077917               0.005310412              -0.000053054              -0.000259582               0.001856647               0.001597065               0.000000000               0.000000000               0.000000000               0.000000000               0.000994393               0.004953949               0.000041315              -0.000246346               0.001733415               0.001487069               0.000000000               0.000000000               0.000000000               0.000000000               0.000892375               0.004720419               0.000080953              -0.000255411               0.001658594               0.001403183               0.000000000               0.000000000               0.000000000               0.000000000               0.000786086               0.004564648               0.000101299              -0.000275798               0.001613467               0.001337669               0.000000000               0.000000000               0.000000000               0.000000000               0.000682078               0.004460268               0.000110710              -0.000301753               0.001587326               0.001285572               0.000000000               0.000000000               0.000000000               0.000000000               0.000583645               0.004388816               0.000113407              -0.000329734               0.001572835               0.001243101               0.000000000               0.000000000               0.000000000               0.000000000               0.000491750               0.004339634               0.000112322              -0.000358047               0.001565879               0.001207832               0.000000000               0.000000000               0.000000000               0.000000000               0.000407062               0.004304027               0.000108704              -0.000385354               0.001563113               0.001177758               0.000000000               0.000000000               0.000000000               0.000000000               0.000327518               0.004276385               0.000103928              -0.000411728               0.001562690               0.001150962               0.000000000               0.000000000               0.000000000               0.000000000               0.000254656               0.004256507               0.000096704              -0.000436566               0.001564344               0.001127777               0.000000000               0.000000000               0.000000000               0.000000000               0.000187633               0.004242547               0.000085285              -0.000459955               0.001567486               0.001107532               0.000000000               0.000000000               0.000000000               0.000000000               0.000123073               0.004235207               0.000067242              -0.000483247               0.001572804               0.001089557               0.000000000               0.000000000               0.000000000               0.000000000               0.000059481               0.004234240               0.000039346              -0.000506973               0.001580390               0.001073417               0.000000000               0.000000000               0.000000000               0.000000000               0.000031739               0.004241344               0.000020689              -0.000518265               0.001586522               0.001068257               0.000000000               0.000000000               0.000000000               0.000000000               0.001119474               0.007740737              -0.001714775              -0.000547789               0.002762816               0.002215027               0.000000000               0.000000000               0.000000000               0.000000000               0.000910574               0.006531920              -0.001058505              -0.000475024               0.002335626               0.001860602               0.000000000               0.000000000               0.000000000               0.000000000               0.000949509               0.005676552              -0.000398346              -0.000353502               0.002009999               0.001656497               0.000000000               0.000000000               0.000000000               0.000000000               0.000882751               0.005199973              -0.000115700              -0.000318964               0.001839628               0.001520664               0.000000000               0.000000000               0.000000000               0.000000000               0.000795349               0.004903740               0.000006433              -0.000314711               0.001739467               0.001424756               0.000000000               0.000000000               0.000000000               0.000000000               0.000707871               0.004709496               0.000057996              -0.000323234               0.001677561               0.001354327               0.000000000               0.000000000               0.000000000               0.000000000               0.000619632               0.004575916               0.000086378              -0.000339627               0.001638499               0.001298872               0.000000000               0.000000000               0.000000000               0.000000000               0.000536766               0.004484007               0.000101270              -0.000359213               0.001614391               0.001255179               0.000000000               0.000000000               0.000000000               0.000000000               0.000461199               0.004419853               0.000106743              -0.000379531               0.001599780               0.001220249               0.000000000               0.000000000               0.000000000               0.000000000               0.000391925               0.004373437               0.000107034              -0.000399707               0.001591033               0.001191326               0.000000000               0.000000000               0.000000000               0.000000000               0.000328109               0.004338571               0.000102860              -0.000419280               0.001585936               0.001166656               0.000000000               0.000000000               0.000000000               0.000000000               0.000267440               0.004313391               0.000096499              -0.000438883               0.001584077               0.001145194               0.000000000               0.000000000               0.000000000               0.000000000               0.000211001               0.004298505               0.000087033              -0.000458187               0.001585550               0.001127363               0.000000000               0.000000000               0.000000000               0.000000000               0.000158325               0.004295272               0.000073881              -0.000477536               0.001590922               0.001113386               0.000000000               0.000000000               0.000000000               0.000000000               0.000105215               0.004304464               0.000056328              -0.000498601               0.001601007               0.001102406               0.000000000               0.000000000               0.000000000               0.000000000               0.000050850               0.004328303               0.000031541              -0.000521968               0.001616743               0.001094775               0.000000000               0.000000000               0.000000000               0.000000000               0.000030965               0.004357591               0.000013731              -0.000533085               0.001630211               0.001097125               0.000000000               0.000000000               0.000000000               0.000000000               0.001268081               0.006865559              -0.002006658              -0.000382665               0.002416051               0.002033386               0.000000000               0.000000000               0.000000000               0.000000000               0.000901276               0.005953637              -0.001260829              -0.000406226               0.002119934               0.001713708               0.000000000               0.000000000               0.000000000               0.000000000               0.000771804               0.005390722              -0.000513675              -0.000384413               0.001925027               0.001540614               0.000000000               0.000000000               0.000000000               0.000000000               0.000664101               0.005051710              -0.000201265              -0.000382425               0.001811361               0.001428936               0.000000000               0.000000000               0.000000000               0.000000000               0.000580889               0.004824999              -0.000064922              -0.000385290               0.001736747               0.001351457               0.000000000               0.000000000               0.000000000               0.000000000               0.000514561               0.004673008              -0.000007289              -0.000391165               0.001688042               0.001296877               0.000000000               0.000000000               0.000000000               0.000000000               0.000454302               0.004563974               0.000022802              -0.000400133               0.001654687               0.001254554               0.000000000               0.000000000               0.000000000               0.000000000               0.000397272               0.004481035               0.000041163              -0.000411151               0.001630714               0.001219563               0.000000000               0.000000000               0.000000000               0.000000000               0.000346318               0.004417362               0.000050964              -0.000422300               0.001613206               0.001190906               0.000000000               0.000000000               0.000000000               0.000000000               0.000300501               0.004370369               0.000053838              -0.000433607               0.001601311               0.001167704               0.000000000               0.000000000               0.000000000               0.000000000               0.000254221               0.004336442               0.000050297              -0.000446721               0.001594373               0.001147652               0.000000000               0.000000000               0.000000000               0.000000000               0.000207301               0.004313827               0.000043507              -0.000461489               0.001591758               0.001130268               0.000000000               0.000000000               0.000000000               0.000000000               0.000163174               0.004301468               0.000035367              -0.000476492               0.001592639               0.001116147               0.000000000               0.000000000               0.000000000               0.000000000               0.000120612               0.004300850               0.000026592              -0.000492376               0.001597727               0.001105352               0.000000000               0.000000000               0.000000000               0.000000000               0.000078805               0.004311217               0.000018196              -0.000509349               0.001606841               0.001097492               0.000000000               0.000000000               0.000000000               0.000000000               0.000038353               0.004332183               0.000008978              -0.000527139               0.001619760               0.001092620               0.000000000               0.000000000               0.000000000               0.000000000               0.000023312               0.004353419               0.000001298              -0.000535434               0.001629603               0.001094169               0.000000000               0.000000000               0.000000000               0.000000000               0.001372116               0.005910402              -0.002131199              -0.000224258               0.002044866               0.001820608               0.000000000               0.000000000               0.000000000               0.000000000               0.000870616               0.005332500              -0.001379009              -0.000340082               0.001890843               0.001550761               0.000000000               0.000000000               0.000000000               0.000000000               0.000592535               0.005080318              -0.000623394              -0.000412838               0.001831035               0.001418197               0.000000000               0.000000000               0.000000000               0.000000000               0.000463732               0.004876241              -0.000311915              -0.000435629               0.001770607               0.001334978               0.000000000               0.000000000               0.000000000               0.000000000               0.000397758               0.004719018              -0.000172862              -0.000440717               0.001719896               0.001279179               0.000000000               0.000000000               0.000000000               0.000000000               0.000353608               0.004604016              -0.000110301              -0.000442898               0.001682289               0.001239391               0.000000000               0.000000000               0.000000000               0.000000000               0.000319516               0.004515514              -0.000077715              -0.000444619               0.001653363               0.001208743               0.000000000               0.000000000               0.000000000               0.000000000               0.000290323               0.004440321              -0.000054113              -0.000446168               0.001628815               0.001182647               0.000000000               0.000000000               0.000000000               0.000000000               0.000261080               0.004377932              -0.000036512              -0.000449335               0.001609074               0.001159739               0.000000000               0.000000000               0.000000000               0.000000000               0.000227977               0.004330104              -0.000025014              -0.000455770               0.001595277               0.001139507               0.000000000               0.000000000               0.000000000               0.000000000               0.000191386               0.004297175              -0.000021827              -0.000465376               0.001587503               0.001122127               0.000000000               0.000000000               0.000000000               0.000000000               0.000151398               0.004272311              -0.000022489              -0.000477264               0.001583177               0.001105914               0.000000000               0.000000000               0.000000000               0.000000000               0.000113004               0.004255125              -0.000022148              -0.000489513               0.001581532               0.001092019               0.000000000               0.000000000               0.000000000               0.000000000               0.000077083               0.004244587              -0.000018190              -0.000501666               0.001582070               0.001080404               0.000000000               0.000000000               0.000000000               0.000000000               0.000045238               0.004238985              -0.000010831              -0.000512907               0.001583950               0.001071043               0.000000000               0.000000000               0.000000000               0.000000000               0.000019705               0.004234102              -0.000004339              -0.000521872               0.001585311               0.001063439               0.000000000               0.000000000               0.000000000               0.000000000               0.000007916               0.004228661              -0.000001663              -0.000525613               0.001584744               0.001059131               0.000000000               0.000000000               0.000000000               0.000000000               0.001407101               0.004956722              -0.002109275              -0.000091930               0.001682867               0.001590937               0.000000000               0.000000000               0.000000000               0.000000000               0.000822375               0.004717679              -0.001427391              -0.000281320               0.001666317               0.001384997               0.000000000               0.000000000               0.000000000               0.000000000               0.000436919               0.004764652              -0.000732113              -0.000431736               0.001732113               0.001300377               0.000000000               0.000000000               0.000000000               0.000000000               0.000308280               0.004685156              -0.000440587              -0.000470038               0.001718382               0.001248344               0.000000000               0.000000000               0.000000000               0.000000000               0.000266405               0.004589609              -0.000300166              -0.000473798               0.001687787               0.001213989               0.000000000               0.000000000               0.000000000               0.000000000               0.000245113               0.004504014              -0.000226631              -0.000471083               0.001658351               0.001187267               0.000000000               0.000000000               0.000000000               0.000000000               0.000229929               0.004431332              -0.000184490              -0.000467692               0.001632993               0.001165301               0.000000000               0.000000000               0.000000000               0.000000000               0.000217107               0.004364154              -0.000151915              -0.000464103               0.001609404               0.001145301               0.000000000               0.000000000               0.000000000               0.000000000               0.000199385               0.004306899              -0.000123872              -0.000463592               0.001590149               0.001126557               0.000000000               0.000000000               0.000000000               0.000000000               0.000172503               0.004260076              -0.000100070              -0.000467820               0.001575951               0.001108131               0.000000000               0.000000000               0.000000000               0.000000000               0.000138663               0.004221675              -0.000084015              -0.000475710               0.001565781               0.001090071               0.000000000               0.000000000               0.000000000               0.000000000               0.000101401               0.004187773              -0.000072980              -0.000485445               0.001557726               0.001072280               0.000000000               0.000000000               0.000000000               0.000000000               0.000065146               0.004157237              -0.000059057              -0.000495224               0.001550807               0.001055583               0.000000000               0.000000000               0.000000000               0.000000000               0.000033318               0.004129059              -0.000041341              -0.000503637               0.001544218               0.001040581               0.000000000               0.000000000               0.000000000               0.000000000               0.000012599               0.004101327              -0.000021967              -0.000507940               0.001536409               0.001028469               0.000000000               0.000000000               0.000000000               0.000000000               0.000003178               0.004068479              -0.000007398              -0.000507367               0.001525269               0.001017902               0.000000000               0.000000000               0.000000000               0.000000000              -0.000004329               0.004042202               0.000000018              -0.000506897               0.001516353               0.001009455               0.000000000               0.000000000               0.000000000               0.000000000               0.001369534               0.004056536              -0.001971033               0.000006506               0.001349996               0.001356501               0.000000000               0.000000000               0.000000000               0.000000000               0.000756313               0.004146139              -0.001421189              -0.000234651               0.001460249               0.001225598               0.000000000               0.000000000               0.000000000               0.000000000               0.000319208               0.004455045              -0.000836329              -0.000437177               0.001630726               0.001193549               0.000000000               0.000000000               0.000000000               0.000000000               0.000209806               0.004480120              -0.000568144              -0.000481337               0.001653804               0.001172467               0.000000000               0.000000000               0.000000000               0.000000000               0.000191791               0.004437332              -0.000422236              -0.000482744               0.001640011               0.001157267               0.000000000               0.000000000               0.000000000               0.000000000               0.000187448               0.004378047              -0.000331976              -0.000476962               0.001618322               0.001141360               0.000000000               0.000000000               0.000000000               0.000000000               0.000182104               0.004317588              -0.000274743              -0.000471408               0.001596318               0.001124909               0.000000000               0.000000000               0.000000000               0.000000000               0.000171930               0.004259902              -0.000231860              -0.000468013               0.001575958               0.001107945               0.000000000               0.000000000               0.000000000               0.000000000               0.000153833               0.004207898              -0.000192276              -0.000468299               0.001558718               0.001090420               0.000000000               0.000000000               0.000000000               0.000000000               0.000127058               0.004161180              -0.000156404              -0.000472499               0.001544546               0.001072046               0.000000000               0.000000000               0.000000000               0.000000000               0.000091520               0.004112972              -0.000126319              -0.000479800               0.001530910               0.001051110               0.000000000               0.000000000               0.000000000               0.000000000               0.000053860               0.004065727              -0.000101798              -0.000488017               0.001517901               0.001029884               0.000000000               0.000000000               0.000000000               0.000000000               0.000019667               0.004019417              -0.000076316              -0.000495051               0.001504809               0.001009758               0.000000000               0.000000000               0.000000000               0.000000000              -0.000008905               0.003970978              -0.000048331              -0.000499710               0.001490216               0.000990506               0.000000000               0.000000000               0.000000000               0.000000000              -0.000023704               0.003919015              -0.000023325              -0.000498765               0.001472580               0.000973815               0.000000000               0.000000000               0.000000000               0.000000000              -0.000019493               0.003864592              -0.000006115              -0.000490383               0.001451646               0.000961263               0.000000000               0.000000000               0.000000000               0.000000000              -0.000018142               0.003826630               0.000004136              -0.000485131               0.001437241               0.000952110               0.000000000               0.000000000               0.000000000               0.000000000               0.001292411               0.003272948              -0.001752635               0.000075533               0.001065793               0.001141326               0.000000000               0.000000000               0.000000000               0.000000000               0.000701334               0.003633032              -0.001385407              -0.000191130               0.001274708               0.001083578               0.000000000               0.000000000               0.000000000               0.000000000               0.000255049               0.004156847              -0.000949811              -0.000423962               0.001526922               0.001102960               0.000000000               0.000000000               0.000000000               0.000000000               0.000166736               0.004278877              -0.000697699              -0.000472333               0.001583722               0.001111389               0.000000000               0.000000000               0.000000000               0.000000000               0.000166744               0.004290198              -0.000539320              -0.000473745               0.001587966               0.001114222               0.000000000               0.000000000               0.000000000               0.000000000               0.000170424               0.004262112              -0.000430913              -0.000468854               0.001576975               0.001108121               0.000000000               0.000000000               0.000000000               0.000000000               0.000166348               0.004217754              -0.000356044              -0.000464837               0.001560850               0.001096012               0.000000000               0.000000000               0.000000000               0.000000000               0.000153407               0.004170976              -0.000301550              -0.000463843               0.001544926               0.001081083               0.000000000               0.000000000               0.000000000               0.000000000               0.000132844               0.004126941              -0.000254391              -0.000466050               0.001530983               0.001064933               0.000000000               0.000000000               0.000000000               0.000000000               0.000105856               0.004082255              -0.000209477              -0.000470585               0.001517600               0.001047015               0.000000000               0.000000000               0.000000000               0.000000000               0.000070730               0.004030550              -0.000169377              -0.000477294               0.001502601               0.001025308               0.000000000               0.000000000               0.000000000               0.000000000               0.000030556               0.003974308              -0.000133309              -0.000485329               0.001486532               0.001001204               0.000000000               0.000000000               0.000000000               0.000000000              -0.000008617               0.003915333              -0.000098855              -0.000492647               0.001469314               0.000976667               0.000000000               0.000000000               0.000000000               0.000000000              -0.000042499               0.003851651              -0.000064523              -0.000497392               0.001449668               0.000952276               0.000000000               0.000000000               0.000000000               0.000000000              -0.000066832               0.003781313              -0.000034284              -0.000497725               0.001426333               0.000928609               0.000000000               0.000000000               0.000000000               0.000000000              -0.000077142               0.003709038              -0.000011755              -0.000492557               0.001400519               0.000907963               0.000000000               0.000000000               0.000000000               0.000000000              -0.000079495               0.003664988               0.000000255              -0.000487933               0.001384295               0.000896362               0.000000000               0.000000000               0.000000000               0.000000000               0.001160505               0.002519285              -0.001497429               0.000120276               0.000799661               0.000919936               0.000000000               0.000000000               0.000000000               0.000000000               0.000678613               0.003029318              -0.001336961              -0.000124186               0.001051158               0.000926971               0.000000000               0.000000000               0.000000000               0.000000000               0.000265438               0.003704610              -0.001079730              -0.000363537               0.001356036               0.000992499               0.000000000               0.000000000               0.000000000               0.000000000               0.000178259               0.003951790              -0.000848853              -0.000427126               0.001459625               0.001032499               0.000000000               0.000000000               0.000000000               0.000000000               0.000175269               0.004047147              -0.000675337              -0.000440167               0.001495758               0.001055591               0.000000000               0.000000000               0.000000000               0.000000000               0.000180884               0.004078259              -0.000546403              -0.000441950               0.001506723               0.001064773               0.000000000               0.000000000               0.000000000               0.000000000               0.000176395               0.004072381              -0.000452854              -0.000442899               0.001505080               0.001062181               0.000000000               0.000000000               0.000000000               0.000000000               0.000165975               0.004045282              -0.000385361              -0.000443419               0.001496220               0.001052801               0.000000000               0.000000000               0.000000000               0.000000000               0.000146523               0.004012731              -0.000330849              -0.000446644               0.001486445               0.001039801               0.000000000               0.000000000               0.000000000               0.000000000               0.000118400               0.003980616              -0.000278755              -0.000453176               0.001477917               0.001024742               0.000000000               0.000000000               0.000000000               0.000000000               0.000082766               0.003942849              -0.000229974              -0.000461818               0.001468209               0.001006391               0.000000000               0.000000000               0.000000000               0.000000000               0.000040268               0.003892802              -0.000184708              -0.000471499               0.001454754               0.000983255               0.000000000               0.000000000               0.000000000               0.000000000              -0.000009161               0.003833366              -0.000139797              -0.000482605               0.001438644               0.000956039               0.000000000               0.000000000               0.000000000               0.000000000              -0.000062039               0.003771444              -0.000096130              -0.000494694               0.001422034               0.000927340               0.000000000               0.000000000               0.000000000               0.000000000              -0.000112220               0.003707536              -0.000057154              -0.000505523               0.001404341               0.000898818               0.000000000               0.000000000               0.000000000               0.000000000              -0.000157430               0.003639603              -0.000024114              -0.000513985               0.001384517               0.000870532               0.000000000               0.000000000               0.000000000               0.000000000              -0.000182525               0.003596977              -0.000006113              -0.000518068               0.001371670               0.000853602               0.000000000               0.000000000               0.000000000               0.000000000               0.000937371               0.001818020              -0.001216861               0.000124259               0.000564580               0.000688839               0.000000000               0.000000000               0.000000000               0.000000000               0.000649590               0.002424654              -0.001251414              -0.000059487               0.000828038               0.000768551               0.000000000               0.000000000               0.000000000               0.000000000               0.000322639               0.003194554              -0.001175095              -0.000278330               0.001157617               0.000879287               0.000000000               0.000000000               0.000000000               0.000000000               0.000236154               0.003564928              -0.000989103              -0.000357058               0.001307317               0.000950258               0.000000000               0.000000000               0.000000000               0.000000000               0.000221797               0.003758033              -0.000813690              -0.000386580               0.001381525               0.000994945               0.000000000               0.000000000               0.000000000               0.000000000               0.000225194               0.003857358              -0.000673830              -0.000397722               0.001418347               0.001020626               0.000000000               0.000000000               0.000000000               0.000000000               0.000220472               0.003897657              -0.000568306              -0.000404529               0.001434049               0.001029520               0.000000000               0.000000000               0.000000000               0.000000000               0.000208845               0.003907204              -0.000488285              -0.000410083               0.001439083               0.001029000               0.000000000               0.000000000               0.000000000               0.000000000               0.000191748               0.003905179              -0.000422599              -0.000416241               0.001440460               0.001024219               0.000000000               0.000000000               0.000000000               0.000000000               0.000166581               0.003893836              -0.000364266              -0.000424261               0.001439353               0.001015092               0.000000000               0.000000000               0.000000000               0.000000000               0.000132594               0.003871297              -0.000311172              -0.000434188               0.001435149               0.001000960               0.000000000               0.000000000               0.000000000               0.000000000               0.000087413               0.003833865              -0.000257971              -0.000446452               0.001426760               0.000980307               0.000000000               0.000000000               0.000000000               0.000000000               0.000030760               0.003788771              -0.000201664              -0.000462060               0.001416931               0.000954871               0.000000000               0.000000000               0.000000000               0.000000000              -0.000035575               0.003739789              -0.000146287              -0.000480813               0.001406855               0.000926042               0.000000000               0.000000000               0.000000000               0.000000000              -0.000110179               0.003688580              -0.000093527              -0.000502388               0.001396977               0.000894589               0.000000000               0.000000000               0.000000000               0.000000000              -0.000190803               0.003632020              -0.000044320              -0.000525552               0.001385845               0.000860293               0.000000000               0.000000000               0.000000000               0.000000000              -0.000246712               0.003588800              -0.000014950              -0.000541116               0.001376627               0.000835511               0.000000000               0.000000000               0.000000000               0.000000000               0.000647612               0.001213153              -0.000918892               0.000091208               0.000373977               0.000465185               0.000000000               0.000000000               0.000000000               0.000000000               0.000585293               0.001849118              -0.001106680              -0.000011656               0.000620251               0.000608595               0.000000000               0.000000000               0.000000000               0.000000000               0.000397375               0.002638219              -0.001184855              -0.000180762               0.000939651               0.000758889               0.000000000               0.000000000               0.000000000               0.000000000               0.000333672               0.003102715              -0.001063282              -0.000262713               0.001121799               0.000859086               0.000000000               0.000000000               0.000000000               0.000000000               0.000317573               0.003386158              -0.000910213              -0.000304180               0.001230101               0.000925921               0.000000000               0.000000000               0.000000000               0.000000000               0.000315832               0.003556823              -0.000773794              -0.000326166               0.001294318               0.000968152               0.000000000               0.000000000               0.000000000               0.000000000               0.000305756               0.003656715              -0.000661990              -0.000342430               0.001333036               0.000990606               0.000000000               0.000000000               0.000000000               0.000000000               0.000284667               0.003717453              -0.000573332              -0.000357931               0.001358449               0.001000518               0.000000000               0.000000000               0.000000000               0.000000000               0.000262700               0.003753283              -0.000501748              -0.000370647               0.001374631               0.001003984               0.000000000               0.000000000               0.000000000               0.000000000               0.000239200               0.003767455              -0.000439689              -0.000381231               0.001382883               0.001001652               0.000000000               0.000000000               0.000000000               0.000000000               0.000205750               0.003764486              -0.000381152              -0.000393404               0.001385951               0.000992547               0.000000000               0.000000000               0.000000000               0.000000000               0.000159828               0.003751084              -0.000319817              -0.000408949               0.001386665               0.000977716               0.000000000               0.000000000               0.000000000               0.000000000               0.000104526               0.003732837              -0.000256107              -0.000427406               0.001386735               0.000959329               0.000000000               0.000000000               0.000000000               0.000000000               0.000036220               0.003702480              -0.000191485              -0.000449227               0.001383890               0.000934663               0.000000000               0.000000000               0.000000000               0.000000000              -0.000044889               0.003663509              -0.000126923              -0.000474771               0.001379414               0.000904643               0.000000000               0.000000000               0.000000000               0.000000000              -0.000138472               0.003619081              -0.000062774              -0.000504311               0.001374452               0.000870141               0.000000000               0.000000000               0.000000000               0.000000000              -0.000208805               0.003581918              -0.000023481              -0.000526040               0.001369307               0.000843267               0.000000000               0.000000000               0.000000000               0.000000000               0.000311547               0.000741540              -0.000634400               0.000024136               0.000239132               0.000263268               0.000000000               0.000000000               0.000000000               0.000000000               0.000486601               0.001336155              -0.000912122               0.000015454               0.000440229               0.000455683               0.000000000               0.000000000               0.000000000               0.000000000               0.000477270               0.002081483              -0.001098512              -0.000081210               0.000720890               0.000639680               0.000000000               0.000000000               0.000000000               0.000000000               0.000462339               0.002598680              -0.001045387              -0.000151459               0.000916704               0.000765245               0.000000000               0.000000000               0.000000000               0.000000000               0.000455280               0.002953625              -0.000931323              -0.000198473               0.001050689               0.000852216               0.000000000               0.000000000               0.000000000               0.000000000               0.000443528               0.003195080              -0.000810742              -0.000233062               0.001142703               0.000909641               0.000000000               0.000000000               0.000000000               0.000000000               0.000420095               0.003358951              -0.000702428              -0.000262333               0.001207083               0.000944750               0.000000000               0.000000000               0.000000000               0.000000000               0.000391648               0.003472987              -0.000616741              -0.000287255               0.001253402               0.000966147               0.000000000               0.000000000               0.000000000               0.000000000               0.000363752               0.003551236              -0.000547875              -0.000307497               0.001286233               0.000978736               0.000000000               0.000000000               0.000000000               0.000000000               0.000333616               0.003599531              -0.000483846              -0.000324835               0.001308110               0.000983275               0.000000000               0.000000000               0.000000000               0.000000000               0.000295653               0.003628427              -0.000420133              -0.000342683               0.001323691               0.000981008               0.000000000               0.000000000               0.000000000               0.000000000               0.000252754               0.003649407              -0.000357772              -0.000361392               0.001336921               0.000975528               0.000000000               0.000000000               0.000000000               0.000000000               0.000205934               0.003659432              -0.000293246              -0.000380203               0.001346533               0.000966330               0.000000000               0.000000000               0.000000000               0.000000000               0.000149533               0.003650393              -0.000226330              -0.000400223               0.001350193               0.000949970               0.000000000               0.000000000               0.000000000               0.000000000               0.000083919               0.003629056              -0.000157545              -0.000422161               0.001350394               0.000928232               0.000000000               0.000000000               0.000000000               0.000000000               0.000004061               0.003601683              -0.000082055              -0.000448686               0.001350111               0.000901425               0.000000000               0.000000000               0.000000000               0.000000000              -0.000061349               0.003574458              -0.000035405              -0.000469812               0.001348078               0.000878266               0.000000000               0.000000000               0.000000000               0.000000000              -0.000036332               0.000403583              -0.000393484              -0.000064073               0.000155884               0.000091811               0.000000000               0.000000000               0.000000000               0.000000000               0.000362925               0.000914099              -0.000688235               0.000021833               0.000297418               0.000319252               0.000000000               0.000000000               0.000000000               0.000000000               0.000548564               0.001572034              -0.000918886               0.000009206               0.000520937               0.000530143               0.000000000               0.000000000               0.000000000               0.000000000               0.000598619               0.002104159              -0.000920775              -0.000038539               0.000714225               0.000675686               0.000000000               0.000000000               0.000000000               0.000000000               0.000606599               0.002512339              -0.000847847              -0.000086568               0.000866294               0.000779726               0.000000000               0.000000000               0.000000000               0.000000000               0.000591193               0.002816550              -0.000752646              -0.000130372               0.000982298               0.000851926               0.000000000               0.000000000               0.000000000               0.000000000               0.000559222               0.003037936              -0.000663157              -0.000170034               0.001069313               0.000899279               0.000000000               0.000000000               0.000000000               0.000000000               0.000521268               0.003199408              -0.000593508              -0.000204451               0.001134609               0.000930158               0.000000000               0.000000000               0.000000000               0.000000000               0.000480906               0.003318723              -0.000534550              -0.000234500               0.001184397               0.000949896               0.000000000               0.000000000               0.000000000               0.000000000               0.000439900               0.003407918              -0.000474958              -0.000261027               0.001222970               0.000961943               0.000000000               0.000000000               0.000000000               0.000000000               0.000399614               0.003477925              -0.000414730              -0.000284885               0.001254258               0.000969374               0.000000000               0.000000000               0.000000000               0.000000000               0.000360025               0.003534006              -0.000357285              -0.000306741               0.001280237               0.000973496               0.000000000               0.000000000               0.000000000               0.000000000               0.000320712               0.003572085              -0.000299593              -0.000326243               0.001299431               0.000973188               0.000000000               0.000000000               0.000000000               0.000000000               0.000283528               0.003590117              -0.000241316              -0.000342441               0.001310840               0.000968400               0.000000000               0.000000000               0.000000000               0.000000000               0.000245442               0.003593742              -0.000177853              -0.000357176               0.001316961               0.000959784               0.000000000               0.000000000               0.000000000               0.000000000               0.000198759               0.003586702              -0.000098002              -0.000373802               0.001320156               0.000946354               0.000000000               0.000000000               0.000000000               0.000000000               0.000157749               0.003572223              -0.000048691              -0.000387371               0.001319853               0.000932482               0.000000000               0.000000000               0.000000000               0.000000000              -0.000334467               0.000186816              -0.000210643              -0.000148777               0.000111863              -0.000036914               0.000000000               0.000000000               0.000000000               0.000000000               0.000246256               0.000603653              -0.000454530               0.000016888               0.000195586               0.000212474               0.000000000               0.000000000               0.000000000               0.000000000               0.000603140               0.001163470              -0.000659625               0.000080742               0.000360905               0.000441648               0.000000000               0.000000000               0.000000000               0.000000000               0.000717563               0.001689051              -0.000687420               0.000057954               0.000543693               0.000601647               0.000000000               0.000000000               0.000000000               0.000000000               0.000742765               0.002129747              -0.000650245               0.000012318               0.000705802               0.000718120               0.000000000               0.000000000               0.000000000               0.000000000               0.000728416               0.002476914              -0.000587471              -0.000036459               0.000837782               0.000801324               0.000000000               0.000000000               0.000000000               0.000000000               0.000693656               0.002740526              -0.000525498              -0.000082445               0.000940981               0.000858536               0.000000000               0.000000000               0.000000000               0.000000000               0.000645911               0.002940787              -0.000476491              -0.000125382               0.001022046               0.000896665               0.000000000               0.000000000               0.000000000               0.000000000               0.000593291               0.003097913              -0.000434528              -0.000164755               0.001087545               0.000922791               0.000000000               0.000000000               0.000000000               0.000000000               0.000543922               0.003224074              -0.000390953              -0.000199038               0.001141027               0.000941989               0.000000000               0.000000000               0.000000000               0.000000000               0.000501379               0.003326626              -0.000344637              -0.000227811               0.001184801               0.000956990               0.000000000               0.000000000               0.000000000               0.000000000               0.000465056               0.003410333              -0.000299016              -0.000251895               0.001220731               0.000968836               0.000000000               0.000000000               0.000000000               0.000000000               0.000436536               0.003476512              -0.000255724              -0.000270862               0.001249113               0.000978251               0.000000000               0.000000000               0.000000000               0.000000000               0.000416782               0.003524871              -0.000212737              -0.000284315               0.001269717               0.000985402               0.000000000               0.000000000               0.000000000               0.000000000               0.000404934               0.003557214              -0.000162309              -0.000292801               0.001283326               0.000990526               0.000000000               0.000000000               0.000000000               0.000000000               0.000399710               0.003571093              -0.000092516              -0.000296494               0.001289184               0.000992689               0.000000000               0.000000000               0.000000000               0.000000000               0.000398903               0.003571759              -0.000050257              -0.000296881               0.001289535               0.000992654               0.000000000               0.000000000               0.000000000               0.000000000              -0.000534420               0.000073768              -0.000088425              -0.000209629               0.000094465              -0.000115164               0.000000000               0.000000000               0.000000000               0.000000000               0.000166795               0.000419554              -0.000225832               0.000010103               0.000136482               0.000146585               0.000000000               0.000000000               0.000000000               0.000000000               0.000639603               0.000900986              -0.000345128               0.000127226               0.000257917               0.000385143               0.000000000               0.000000000               0.000000000               0.000000000               0.000803608               0.001412550              -0.000368872               0.000124783               0.000429251               0.000554034               0.000000000               0.000000000               0.000000000               0.000000000               0.000840114               0.001869321              -0.000354289               0.000081377               0.000595975               0.000677352               0.000000000               0.000000000               0.000000000               0.000000000               0.000824017               0.002239787              -0.000322037               0.000029033               0.000736911               0.000765943               0.000000000               0.000000000               0.000000000               0.000000000               0.000787972               0.002526794              -0.000290567              -0.000020360               0.000849043               0.000828683               0.000000000               0.000000000               0.000000000               0.000000000               0.000738750               0.002751251              -0.000266351              -0.000066875               0.000939366               0.000872491               0.000000000               0.000000000               0.000000000               0.000000000               0.000683340               0.002935557              -0.000245629              -0.000110692               0.001015407               0.000904714               0.000000000               0.000000000               0.000000000               0.000000000               0.000629289               0.003088324              -0.000223641              -0.000150057               0.001079450               0.000929393               0.000000000               0.000000000               0.000000000               0.000000000               0.000583812               0.003210518              -0.000198335              -0.000182385               0.001130957               0.000948572               0.000000000               0.000000000               0.000000000               0.000000000               0.000550812               0.003308719              -0.000173306              -0.000207035               0.001171907               0.000964872               0.000000000               0.000000000               0.000000000               0.000000000               0.000531657               0.003390296              -0.000149642              -0.000224415               0.001204893               0.000980477               0.000000000               0.000000000               0.000000000               0.000000000               0.000525314               0.003457996              -0.000124705              -0.000235256               0.001231073               0.000995816               0.000000000               0.000000000               0.000000000               0.000000000               0.000534700               0.003513406              -0.000095341              -0.000238663               0.001250678               0.001012015               0.000000000               0.000000000               0.000000000               0.000000000               0.000564942               0.003550531              -0.000054352              -0.000231962               0.001260819               0.001028857               0.000000000               0.000000000               0.000000000               0.000000000               0.000599775               0.003567782              -0.000030243              -0.000221057               0.001262935               0.001041878               0.000000000               0.000000000               0.000000000               0.000000000               0.000000000               0.000000000               0.000000000               0.000000000               0.000000000               0.000000000               0.000000000               0.000000000               0.000000000               0.000000000               0.000000000               0.000000000               0.000000000               0.000000000               0.000000000               0.000000000               0.000000000               0.000000000               0.000000000               0.000000000               0.000000000               0.000000000               0.000000000               0.000000000               0.000000000               0.000000000               0.000000000               0.000000000               0.000000000               0.000000000               0.000000000               0.000000000               0.000000000               0.000000000               0.000000000               0.000000000               0.000000000               0.000000000               0.000000000               0.000000000               0.000000000               0.000000000               0.000000000               0.000000000               0.000000000               0.000000000               0.000000000               0.000000000               0.000000000               0.000000000               0.000000000               0.000000000               0.000000000               0.000000000               0.000000000               0.000000000               0.000000000               0.000000000               0.000000000               0.000000000               0.000000000               0.000000000               0.000000000               0.000000000               0.000000000               0.000000000               0.000000000               0.000000000               0.000000000               0.000000000               0.000000000               0.000000000               0.000000000               0.000000000               0.000000000               0.000000000               0.000000000               0.000000000               0.000000000               0.000000000               0.000000000               0.000000000               0.000000000               0.000000000               0.000000000               0.000000000               0.000000000               0.000000000               0.000000000               0.000000000               0.000000000               0.000000000               0.000000000               0.000000000               0.000000000               0.000000000               0.000000000               0.000000000               0.000000000               0.000000000               0.000000000               0.000000000               0.000000000               0.000000000               0.000000000               0.000000000               0.000000000               0.000000000               0.000000000               0.000000000               0.000000000               0.000000000               0.000000000               0.000000000               0.000000000               0.000000000               0.000000000               0.000000000               0.000000000               0.000000000               0.000000000               0.000000000               0.000000000               0.000000000               0.000000000               0.000000000               0.000000000               0.000000000               0.000000000               0.000000000               0.000000000               0.000000000               0.000000000               0.000000000               0.000000000               0.000000000               0.000000000               0.000000000               0.000000000               0.000000000               0.000000000               0.000000000               0.000000000               0.000000000               0.000000000               0.000000000               0.000000000               0.000000000               0.000000000               0.000000000               0.000000000               0.000000000               0.000000000               0.000000000               0.000000000               0.000000000               0.000000000               0.000000000               0.000000000               0.000000000               0.000000000               0.000000000               0.000000000               0.000000000               0.000000000               0.000000000               0.000000000               0.000000000               0.000000000               0.000000000               0.000000000               0.000000000               0.000000000               0.000000000               0.000000000               0.000000000               0.000000000               0.000000000               0.000000000               0.000000000               0.000000000               0.000000000               0.000000000               0.000000000               0.000000000               0.000000000               0.000000000               0.000000000               0.000000000               0.000000000               0.000000000               0.000000000               0.000000000               0.000000000               0.000000000               0.000000000               0.000000000               0.000000000               0.000000000               0.000000000               0.000000000               0.000000000               0.000000000               0.000000000               0.000000000               0.000000000               0.000000000               0.000000000               0.000000000               0.000000000               0.000000000               0.000000000               0.000000000               0.000000000               0.000000000               0.000000000               0.000000000               0.000000000               0.000000000               0.000000000               0.000000000               0.000000000               0.000000000               0.000000000               0.000000000               0.000000000               0.000000000               0.000000000               0.000000000               0.000000000               0.000000000               0.000000000               0.000000000               0.000000000               0.000000000               0.000000000               0.000000000               0.000000000               0.000000000               0.000000000               0.000000000               0.000000000               0.000000000               0.000000000               0.000000000               0.000000000               0.000000000               0.000000000               0.000000000               0.000000000               0.000000000               0.000000000               0.000000000               0.000000000               0.000000000               0.000000000               0.000000000               0.000000000               0.000000000               0.000000000               0.000000000               0.000000000               0.000000000               0.000000000               0.000000000               0.000000000               0.000000000               0.000000000               0.000000000               0.000000000               0.000000000               0.000000000               0.000000000               0.000000000               0.000000000               0.000000000               0.000000000               0.000000000               0.000000000               0.000000000               0.000000000               0.000000000               0.000000000               0.000000000               0.000000000               0.000000000               0.000000000               0.000000000               0.000000000               0.000000000               0.000000000               0.000000000               0.000000000               0.000000000               0.000000000               0.000000000               0.000000000               0.000000000               0.000000000               0.000000000               0.000000000               0.000000000               0.000000000               0.000000000               0.000000000               0.000000000               0.000000000               0.000000000               0.000000000               0.000000000               0.000000000               0.000000000               0.000000000               0.000000000               0.000000000               0.000000000               0.000000000               0.000000000               0.000000000               0.000000000               0.000000000               0.000000000               0.000000000               0.000000000               0.000000000               0.000000000               0.000000000               0.000000000               0.000000000               0.000000000               0.000000000               0.000000000               0.000000000               0.000000000               0.000000000               0.000000000               0.000000000               0.000000000               0.000000000               0.000000000               0.000845980               0.008902045               0.000665103              -0.000795511               0.003232489               0.002436978               0.000000000               0.000000000               0.000000000               0.000000000               0.000881947               0.007315013               0.000405436              -0.000583645               0.002632862               0.002049217               0.000000000               0.000000000               0.000000000               0.000000000               0.001183189               0.006062775               0.000138320              -0.000314150               0.002125622               0.001811471               0.000000000               0.000000000               0.000000000               0.000000000               0.001208438               0.005379943               0.000016618              -0.000219328               0.001866406               0.001647078               0.000000000               0.000000000               0.000000000               0.000000000               0.001136477               0.004977596              -0.000037040              -0.000196020               0.001724522               0.001528502               0.000000000               0.000000000               0.000000000               0.000000000               0.001031775               0.004719069              -0.000059201              -0.000202967               0.001640663               0.001437696               0.000000000               0.000000000               0.000000000               0.000000000               0.000914987               0.004546790              -0.000069238              -0.000225228               0.001590658               0.001365430               0.000000000               0.000000000               0.000000000               0.000000000               0.000796726               0.004431607              -0.000073732              -0.000255178               0.001562247               0.001307069               0.000000000               0.000000000               0.000000000               0.000000000               0.000683279               0.004353763              -0.000073828              -0.000287990               0.001547236               0.001259246               0.000000000               0.000000000               0.000000000               0.000000000               0.000576293               0.004300856              -0.000071738              -0.000321496               0.001540770               0.001219273               0.000000000               0.000000000               0.000000000               0.000000000               0.000474553               0.004263196              -0.000068954              -0.000354941               0.001539365               0.001184424               0.000000000               0.000000000               0.000000000               0.000000000               0.000377704               0.004234506              -0.000065792              -0.000387673               0.001540712               0.001153039               0.000000000               0.000000000               0.000000000               0.000000000               0.000288591               0.004211199              -0.000061554              -0.000418177               0.001543111               0.001124934               0.000000000               0.000000000               0.000000000               0.000000000               0.000206978               0.004189219              -0.000054782              -0.000446035               0.001545071               0.001099036               0.000000000               0.000000000               0.000000000               0.000000000               0.000131534               0.004164266              -0.000043231              -0.000471207               0.001545144               0.001073937               0.000000000               0.000000000               0.000000000               0.000000000               0.000062222               0.004132848              -0.000025390              -0.000493271               0.001542026               0.001048755               0.000000000               0.000000000               0.000000000               0.000000000               0.000028258               0.004110289              -0.000014580              -0.000503188               0.001537812               0.001034624               0.000000000               0.000000000               0.000000000               0.000000000               0.000963558               0.008444664               0.001257149              -0.000694248               0.003046276               0.002352028               0.000000000               0.000000000               0.000000000               0.000000000               0.000899357               0.007004810               0.000769176              -0.000538341               0.002514360               0.001976019               0.000000000               0.000000000               0.000000000               0.000000000               0.001094096               0.005909729               0.000272638              -0.000328429               0.002079366               0.001750937               0.000000000               0.000000000               0.000000000               0.000000000               0.001077917               0.005310412               0.000053054              -0.000259582               0.001856647               0.001597065               0.000000000               0.000000000               0.000000000               0.000000000               0.000994393               0.004953949              -0.000041315              -0.000246346               0.001733415               0.001487069               0.000000000               0.000000000               0.000000000               0.000000000               0.000892375               0.004720419              -0.000080953              -0.000255411               0.001658594               0.001403183               0.000000000               0.000000000               0.000000000               0.000000000               0.000786086               0.004564648              -0.000101299              -0.000275798               0.001613467               0.001337669               0.000000000               0.000000000               0.000000000               0.000000000               0.000682078               0.004460268              -0.000110710              -0.000301753               0.001587326               0.001285572               0.000000000               0.000000000               0.000000000               0.000000000               0.000583645               0.004388816              -0.000113407              -0.000329734               0.001572835               0.001243101               0.000000000               0.000000000               0.000000000               0.000000000               0.000491750               0.004339634              -0.000112322              -0.000358047               0.001565879               0.001207832               0.000000000               0.000000000               0.000000000               0.000000000               0.000407062               0.004304027              -0.000108704              -0.000385354               0.001563113               0.001177758               0.000000000               0.000000000               0.000000000               0.000000000               0.000327518               0.004276385              -0.000103928              -0.000411728               0.001562690               0.001150962               0.000000000               0.000000000               0.000000000               0.000000000               0.000254656               0.004256507              -0.000096704              -0.000436566               0.001564344               0.001127777               0.000000000               0.000000000               0.000000000               0.000000000               0.000187633               0.004242547              -0.000085285              -0.000459955               0.001567486               0.001107532               0.000000000               0.000000000               0.000000000               0.000000000               0.000123073               0.004235207              -0.000067242              -0.000483247               0.001572804               0.001089557               0.000000000               0.000000000               0.000000000               0.000000000               0.000059481               0.004234240              -0.000039346              -0.000506973               0.001580390               0.001073417               0.000000000               0.000000000               0.000000000               0.000000000               0.000031739               0.004241344              -0.000020689              -0.000518265               0.001586522               0.001068257               0.000000000               0.000000000               0.000000000               0.000000000               0.001119474               0.007740737               0.001714775              -0.000547789               0.002762816               0.002215027               0.000000000               0.000000000               0.000000000               0.000000000               0.000910574               0.006531920               0.001058505              -0.000475024               0.002335626               0.001860602               0.000000000               0.000000000               0.000000000               0.000000000               0.000949509               0.005676552               0.000398346              -0.000353502               0.002009999               0.001656497               0.000000000               0.000000000               0.000000000               0.000000000               0.000882751               0.005199973               0.000115700              -0.000318964               0.001839628               0.001520664               0.000000000               0.000000000               0.000000000               0.000000000               0.000795349               0.004903740              -0.000006433              -0.000314711               0.001739467               0.001424756               0.000000000               0.000000000               0.000000000               0.000000000               0.000707871               0.004709496              -0.000057996              -0.000323234               0.001677561               0.001354327               0.000000000               0.000000000               0.000000000               0.000000000               0.000619632               0.004575916              -0.000086378              -0.000339627               0.001638499               0.001298872               0.000000000               0.000000000               0.000000000               0.000000000               0.000536766               0.004484007              -0.000101270              -0.000359213               0.001614391               0.001255179               0.000000000               0.000000000               0.000000000               0.000000000               0.000461199               0.004419853              -0.000106743              -0.000379531               0.001599780               0.001220249               0.000000000               0.000000000               0.000000000               0.000000000               0.000391925               0.004373437              -0.000107034              -0.000399707               0.001591033               0.001191326               0.000000000               0.000000000               0.000000000               0.000000000               0.000328109               0.004338571              -0.000102860              -0.000419280               0.001585936               0.001166656               0.000000000               0.000000000               0.000000000               0.000000000               0.000267440               0.004313391              -0.000096499              -0.000438883               0.001584077               0.001145194               0.000000000               0.000000000               0.000000000               0.000000000               0.000211001               0.004298505              -0.000087033              -0.000458187               0.001585550               0.001127363               0.000000000               0.000000000               0.000000000               0.000000000               0.000158325               0.004295272              -0.000073881              -0.000477536               0.001590922               0.001113386               0.000000000               0.000000000               0.000000000               0.000000000               0.000105215               0.004304464              -0.000056328              -0.000498601               0.001601007               0.001102406               0.000000000               0.000000000               0.000000000               0.000000000               0.000050850               0.004328303              -0.000031541              -0.000521968               0.001616743               0.001094775               0.000000000               0.000000000               0.000000000               0.000000000               0.000030965               0.004357591              -0.000013731              -0.000533085               0.001630211               0.001097125               0.000000000               0.000000000               0.000000000               0.000000000               0.001268081               0.006865559               0.002006658              -0.000382665               0.002416051               0.002033386               0.000000000               0.000000000               0.000000000               0.000000000               0.000901276               0.005953637               0.001260829              -0.000406226               0.002119934               0.001713708               0.000000000               0.000000000               0.000000000               0.000000000               0.000771804               0.005390722               0.000513675              -0.000384413               0.001925027               0.001540614               0.000000000               0.000000000               0.000000000               0.000000000               0.000664101               0.005051710               0.000201265              -0.000382425               0.001811361               0.001428936               0.000000000               0.000000000               0.000000000               0.000000000               0.000580889               0.004824999               0.000064922              -0.000385290               0.001736747               0.001351457               0.000000000               0.000000000               0.000000000               0.000000000               0.000514561               0.004673008               0.000007289              -0.000391165               0.001688042               0.001296877               0.000000000               0.000000000               0.000000000               0.000000000               0.000454302               0.004563974              -0.000022802              -0.000400133               0.001654687               0.001254554               0.000000000               0.000000000               0.000000000               0.000000000               0.000397272               0.004481035              -0.000041163              -0.000411151               0.001630714               0.001219563               0.000000000               0.000000000               0.000000000               0.000000000               0.000346318               0.004417362              -0.000050964              -0.000422300               0.001613206               0.001190906               0.000000000               0.000000000               0.000000000               0.000000000               0.000300501               0.004370369              -0.000053838              -0.000433607               0.001601311               0.001167704               0.000000000               0.000000000               0.000000000               0.000000000               0.000254221               0.004336442              -0.000050297              -0.000446721               0.001594373               0.001147652               0.000000000               0.000000000               0.000000000               0.000000000               0.000207301               0.004313827              -0.000043507              -0.000461489               0.001591758               0.001130268               0.000000000               0.000000000               0.000000000               0.000000000               0.000163174               0.004301468              -0.000035367              -0.000476492               0.001592639               0.001116147               0.000000000               0.000000000               0.000000000               0.000000000               0.000120612               0.004300850              -0.000026592              -0.000492376               0.001597727               0.001105352               0.000000000               0.000000000               0.000000000               0.000000000               0.000078805               0.004311217              -0.000018196              -0.000509349               0.001606841               0.001097492               0.000000000               0.000000000               0.000000000               0.000000000               0.000038353               0.004332183              -0.000008978              -0.000527139               0.001619760               0.001092620               0.000000000               0.000000000               0.000000000               0.000000000               0.000023312               0.004353419              -0.000001298              -0.000535434               0.001629603               0.001094169               0.000000000               0.000000000               0.000000000               0.000000000               0.001372116               0.005910402               0.002131199              -0.000224258               0.002044866               0.001820608               0.000000000               0.000000000               0.000000000               0.000000000               0.000870616               0.005332500               0.001379009              -0.000340082               0.001890843               0.001550761               0.000000000               0.000000000               0.000000000               0.000000000               0.000592535               0.005080318               0.000623394              -0.000412838               0.001831035               0.001418197               0.000000000               0.000000000               0.000000000               0.000000000               0.000463732               0.004876241               0.000311915              -0.000435629               0.001770607               0.001334978               0.000000000               0.000000000               0.000000000               0.000000000               0.000397758               0.004719018               0.000172862              -0.000440717               0.001719896               0.001279179               0.000000000               0.000000000               0.000000000               0.000000000               0.000353608               0.004604016               0.000110301              -0.000442898               0.001682289               0.001239391               0.000000000               0.000000000               0.000000000               0.000000000               0.000319516               0.004515514               0.000077715              -0.000444619               0.001653363               0.001208743               0.000000000               0.000000000               0.000000000               0.000000000               0.000290323               0.004440321               0.000054113              -0.000446168               0.001628815               0.001182647               0.000000000               0.000000000               0.000000000               0.000000000               0.000261080               0.004377932               0.000036512              -0.000449335               0.001609074               0.001159739               0.000000000               0.000000000               0.000000000               0.000000000               0.000227977               0.004330104               0.000025014              -0.000455770               0.001595277               0.001139507               0.000000000               0.000000000               0.000000000               0.000000000               0.000191386               0.004297175               0.000021827              -0.000465376               0.001587503               0.001122127               0.000000000               0.000000000               0.000000000               0.000000000               0.000151398               0.004272311               0.000022489              -0.000477264               0.001583177               0.001105914               0.000000000               0.000000000               0.000000000               0.000000000               0.000113004               0.004255125               0.000022148              -0.000489513               0.001581532               0.001092019               0.000000000               0.000000000               0.000000000               0.000000000               0.000077083               0.004244587               0.000018190              -0.000501666               0.001582070               0.001080404               0.000000000               0.000000000               0.000000000               0.000000000               0.000045238               0.004238985               0.000010831              -0.000512907               0.001583950               0.001071043               0.000000000               0.000000000               0.000000000               0.000000000               0.000019705               0.004234102               0.000004339              -0.000521872               0.001585311               0.001063439               0.000000000               0.000000000               0.000000000               0.000000000               0.000007916               0.004228661               0.000001663              -0.000525613               0.001584744               0.001059131               0.000000000               0.000000000               0.000000000               0.000000000               0.001407101               0.004956722               0.002109275              -0.000091930               0.001682867               0.001590937               0.000000000               0.000000000               0.000000000               0.000000000               0.000822375               0.004717679               0.001427391              -0.000281320               0.001666317               0.001384997               0.000000000               0.000000000               0.000000000               0.000000000               0.000436919               0.004764652               0.000732113              -0.000431736               0.001732113               0.001300377               0.000000000               0.000000000               0.000000000               0.000000000               0.000308280               0.004685156               0.000440587              -0.000470038               0.001718382               0.001248344               0.000000000               0.000000000               0.000000000               0.000000000               0.000266405               0.004589609               0.000300166              -0.000473798               0.001687787               0.001213989               0.000000000               0.000000000               0.000000000               0.000000000               0.000245113               0.004504014               0.000226631              -0.000471083               0.001658351               0.001187267               0.000000000               0.000000000               0.000000000               0.000000000               0.000229929               0.004431332               0.000184490              -0.000467692               0.001632993               0.001165301               0.000000000               0.000000000               0.000000000               0.000000000               0.000217107               0.004364154               0.000151915              -0.000464103               0.001609404               0.001145301               0.000000000               0.000000000               0.000000000               0.000000000               0.000199385               0.004306899               0.000123872              -0.000463592               0.001590149               0.001126557               0.000000000               0.000000000               0.000000000               0.000000000               0.000172503               0.004260076               0.000100070              -0.000467820               0.001575951               0.001108131               0.000000000               0.000000000               0.000000000               0.000000000               0.000138663               0.004221675               0.000084015              -0.000475710               0.001565781               0.001090071               0.000000000               0.000000000               0.000000000               0.000000000               0.000101401               0.004187773               0.000072980              -0.000485445               0.001557726               0.001072280               0.000000000               0.000000000               0.000000000               0.000000000               0.000065146               0.004157237               0.000059057              -0.000495224               0.001550807               0.001055583               0.000000000               0.000000000               0.000000000               0.000000000               0.000033318               0.004129059               0.000041341              -0.000503637               0.001544218               0.001040581               0.000000000               0.000000000               0.000000000               0.000000000               0.000012599               0.004101327               0.000021967              -0.000507940               0.001536409               0.001028469               0.000000000               0.000000000               0.000000000               0.000000000               0.000003178               0.004068479               0.000007398              -0.000507367               0.001525269               0.001017902               0.000000000               0.000000000               0.000000000               0.000000000              -0.000004329               0.004042202              -0.000000018              -0.000506897               0.001516353               0.001009455               0.000000000               0.000000000               0.000000000               0.000000000               0.001369534               0.004056536               0.001971033               0.000006506               0.001349996               0.001356501               0.000000000               0.000000000               0.000000000               0.000000000               0.000756313               0.004146139               0.001421189              -0.000234651               0.001460249               0.001225598               0.000000000               0.000000000               0.000000000               0.000000000               0.000319208               0.004455045               0.000836329              -0.000437177               0.001630726               0.001193549               0.000000000               0.000000000               0.000000000               0.000000000               0.000209806               0.004480120               0.000568144              -0.000481337               0.001653804               0.001172467               0.000000000               0.000000000               0.000000000               0.000000000               0.000191791               0.004437332               0.000422236              -0.000482744               0.001640011               0.001157267               0.000000000               0.000000000               0.000000000               0.000000000               0.000187448               0.004378047               0.000331976              -0.000476962               0.001618322               0.001141360               0.000000000               0.000000000               0.000000000               0.000000000               0.000182104               0.004317588               0.000274743              -0.000471408               0.001596318               0.001124909               0.000000000               0.000000000               0.000000000               0.000000000               0.000171930               0.004259902               0.000231860              -0.000468013               0.001575958               0.001107945               0.000000000               0.000000000               0.000000000               0.000000000               0.000153833               0.004207898               0.000192276              -0.000468299               0.001558718               0.001090420               0.000000000               0.000000000               0.000000000               0.000000000               0.000127058               0.004161180               0.000156404              -0.000472499               0.001544546               0.001072046               0.000000000               0.000000000               0.000000000               0.000000000               0.000091520               0.004112972               0.000126319              -0.000479800               0.001530910               0.001051110               0.000000000               0.000000000               0.000000000               0.000000000               0.000053860               0.004065727               0.000101798              -0.000488017               0.001517901               0.001029884               0.000000000               0.000000000               0.000000000               0.000000000               0.000019667               0.004019417               0.000076316              -0.000495051               0.001504809               0.001009758               0.000000000               0.000000000               0.000000000               0.000000000              -0.000008905               0.003970978               0.000048331              -0.000499710               0.001490216               0.000990506               0.000000000               0.000000000               0.000000000               0.000000000              -0.000023704               0.003919015               0.000023325              -0.000498765               0.001472580               0.000973815               0.000000000               0.000000000               0.000000000               0.000000000              -0.000019493               0.003864592               0.000006115              -0.000490383               0.001451646               0.000961263               0.000000000               0.000000000               0.000000000               0.000000000              -0.000018142               0.003826630              -0.000004136              -0.000485131               0.001437241               0.000952110               0.000000000               0.000000000               0.000000000               0.000000000               0.001292411               0.003272948               0.001752635               0.000075533               0.001065793               0.001141326               0.000000000               0.000000000               0.000000000               0.000000000               0.000701334               0.003633032               0.001385407              -0.000191130               0.001274708               0.001083578               0.000000000               0.000000000               0.000000000               0.000000000               0.000255049               0.004156847               0.000949811              -0.000423962               0.001526922               0.001102960               0.000000000               0.000000000               0.000000000               0.000000000               0.000166736               0.004278877               0.000697699              -0.000472333               0.001583722               0.001111389               0.000000000               0.000000000               0.000000000               0.000000000               0.000166744               0.004290198               0.000539320              -0.000473745               0.001587966               0.001114222               0.000000000               0.000000000               0.000000000               0.000000000               0.000170424               0.004262112               0.000430913              -0.000468854               0.001576975               0.001108121               0.000000000               0.000000000               0.000000000               0.000000000               0.000166348               0.004217754               0.000356044              -0.000464837               0.001560850               0.001096012               0.000000000               0.000000000               0.000000000               0.000000000               0.000153407               0.004170976               0.000301550              -0.000463843               0.001544926               0.001081083               0.000000000               0.000000000               0.000000000               0.000000000               0.000132844               0.004126941               0.000254391              -0.000466050               0.001530983               0.001064933               0.000000000               0.000000000               0.000000000               0.000000000               0.000105856               0.004082255               0.000209477              -0.000470585               0.001517600               0.001047015               0.000000000               0.000000000               0.000000000               0.000000000               0.000070730               0.004030550               0.000169377              -0.000477294               0.001502601               0.001025308               0.000000000               0.000000000               0.000000000               0.000000000               0.000030556               0.003974308               0.000133309              -0.000485329               0.001486532               0.001001204               0.000000000               0.000000000               0.000000000               0.000000000              -0.000008617               0.003915333               0.000098855              -0.000492647               0.001469314               0.000976667               0.000000000               0.000000000               0.000000000               0.000000000              -0.000042499               0.003851651               0.000064523              -0.000497392               0.001449668               0.000952276               0.000000000               0.000000000               0.000000000               0.000000000              -0.000066832               0.003781313               0.000034284              -0.000497725               0.001426333               0.000928609               0.000000000               0.000000000               0.000000000               0.000000000              -0.000077142               0.003709038               0.000011755              -0.000492557               0.001400519               0.000907963               0.000000000               0.000000000               0.000000000               0.000000000              -0.000079495               0.003664988              -0.000000255              -0.000487933               0.001384295               0.000896362               0.000000000               0.000000000               0.000000000               0.000000000               0.001160505               0.002519285               0.001497429               0.000120276               0.000799661               0.000919936               0.000000000               0.000000000               0.000000000               0.000000000               0.000678613               0.003029318               0.001336961              -0.000124186               0.001051158               0.000926971               0.000000000               0.000000000               0.000000000               0.000000000               0.000265438               0.003704610               0.001079730              -0.000363537               0.001356036               0.000992499               0.000000000               0.000000000               0.000000000               0.000000000               0.000178259               0.003951790               0.000848853              -0.000427126               0.001459625               0.001032499               0.000000000               0.000000000               0.000000000               0.000000000               0.000175269               0.004047147               0.000675337              -0.000440167               0.001495758               0.001055591               0.000000000               0.000000000               0.000000000               0.000000000               0.000180884               0.004078259               0.000546403              -0.000441950               0.001506723               0.001064773               0.000000000               0.000000000               0.000000000               0.000000000               0.000176395               0.004072381               0.000452854              -0.000442899               0.001505080               0.001062181               0.000000000               0.000000000               0.000000000               0.000000000               0.000165975               0.004045282               0.000385361              -0.000443419               0.001496220               0.001052801               0.000000000               0.000000000               0.000000000               0.000000000               0.000146523               0.004012731               0.000330849              -0.000446644               0.001486445               0.001039801               0.000000000               0.000000000               0.000000000               0.000000000               0.000118400               0.003980616               0.000278755              -0.000453176               0.001477917               0.001024742               0.000000000               0.000000000               0.000000000               0.000000000               0.000082766               0.003942849               0.000229974              -0.000461818               0.001468209               0.001006391               0.000000000               0.000000000               0.000000000               0.000000000               0.000040268               0.003892802               0.000184708              -0.000471499               0.001454754               0.000983255               0.000000000               0.000000000               0.000000000               0.000000000              -0.000009161               0.003833366               0.000139797              -0.000482605               0.001438644               0.000956039               0.000000000               0.000000000               0.000000000               0.000000000              -0.000062039               0.003771444               0.000096130              -0.000494694               0.001422034               0.000927340               0.000000000               0.000000000               0.000000000               0.000000000              -0.000112220               0.003707536               0.000057154              -0.000505523               0.001404341               0.000898818               0.000000000               0.000000000               0.000000000               0.000000000              -0.000157430               0.003639603               0.000024114              -0.000513985               0.001384517               0.000870532               0.000000000               0.000000000               0.000000000               0.000000000              -0.000182525               0.003596977               0.000006113              -0.000518068               0.001371670               0.000853602               0.000000000               0.000000000               0.000000000               0.000000000               0.000937371               0.001818020               0.001216861               0.000124259               0.000564580               0.000688839               0.000000000               0.000000000               0.000000000               0.000000000               0.000649590               0.002424654               0.001251414              -0.000059487               0.000828038               0.000768551               0.000000000               0.000000000               0.000000000               0.000000000               0.000322639               0.003194554               0.001175095              -0.000278330               0.001157617               0.000879287               0.000000000               0.000000000               0.000000000               0.000000000               0.000236154               0.003564928               0.000989103              -0.000357058               0.001307317               0.000950258               0.000000000               0.000000000               0.000000000               0.000000000               0.000221797               0.003758033               0.000813690              -0.000386580               0.001381525               0.000994945               0.000000000               0.000000000               0.000000000               0.000000000               0.000225194               0.003857358               0.000673830              -0.000397722               0.001418347               0.001020626               0.000000000               0.000000000               0.000000000               0.000000000               0.000220472               0.003897657               0.000568306              -0.000404529               0.001434049               0.001029520               0.000000000               0.000000000               0.000000000               0.000000000               0.000208845               0.003907204               0.000488285              -0.000410083               0.001439083               0.001029000               0.000000000               0.000000000               0.000000000               0.000000000               0.000191748               0.003905179               0.000422599              -0.000416241               0.001440460               0.001024219               0.000000000               0.000000000               0.000000000               0.000000000               0.000166581               0.003893836               0.000364266              -0.000424261               0.001439353               0.001015092               0.000000000               0.000000000               0.000000000               0.000000000               0.000132594               0.003871297               0.000311172              -0.000434188               0.001435149               0.001000960               0.000000000               0.000000000               0.000000000               0.000000000               0.000087413               0.003833865               0.000257971              -0.000446452               0.001426760               0.000980307               0.000000000               0.000000000               0.000000000               0.000000000               0.000030760               0.003788771               0.000201664              -0.000462060               0.001416931               0.000954871               0.000000000               0.000000000               0.000000000               0.000000000              -0.000035575               0.003739789               0.000146287              -0.000480813               0.001406855               0.000926042               0.000000000               0.000000000               0.000000000               0.000000000              -0.000110179               0.003688580               0.000093527              -0.000502388               0.001396977               0.000894589               0.000000000               0.000000000               0.000000000               0.000000000              -0.000190803               0.003632020               0.000044320              -0.000525552               0.001385845               0.000860293               0.000000000               0.000000000               0.000000000               0.000000000              -0.000246712               0.003588800               0.000014950              -0.000541116               0.001376627               0.000835511               0.000000000               0.000000000               0.000000000               0.000000000               0.000647612               0.001213153               0.000918892               0.000091208               0.000373977               0.000465185               0.000000000               0.000000000               0.000000000               0.000000000               0.000585293               0.001849118               0.001106680              -0.000011656               0.000620251               0.000608595               0.000000000               0.000000000               0.000000000               0.000000000               0.000397375               0.002638219               0.001184855              -0.000180762               0.000939651               0.000758889               0.000000000               0.000000000               0.000000000               0.000000000               0.000333672               0.003102715               0.001063282              -0.000262713               0.001121799               0.000859086               0.000000000               0.000000000               0.000000000               0.000000000               0.000317573               0.003386158               0.000910213              -0.000304180               0.001230101               0.000925921               0.000000000               0.000000000               0.000000000               0.000000000               0.000315832               0.003556823               0.000773794              -0.000326166               0.001294318               0.000968152               0.000000000               0.000000000               0.000000000               0.000000000               0.000305756               0.003656715               0.000661990              -0.000342430               0.001333036               0.000990606               0.000000000               0.000000000               0.000000000               0.000000000               0.000284667               0.003717453               0.000573332              -0.000357931               0.001358449               0.001000518               0.000000000               0.000000000               0.000000000               0.000000000               0.000262700               0.003753283               0.000501748              -0.000370647               0.001374631               0.001003984               0.000000000               0.000000000               0.000000000               0.000000000               0.000239200               0.003767455               0.000439689              -0.000381231               0.001382883               0.001001652               0.000000000               0.000000000               0.000000000               0.000000000               0.000205750               0.003764486               0.000381152              -0.000393404               0.001385951               0.000992547               0.000000000               0.000000000               0.000000000               0.000000000               0.000159828               0.003751084               0.000319817              -0.000408949               0.001386665               0.000977716               0.000000000               0.000000000               0.000000000               0.000000000               0.000104526               0.003732837               0.000256107              -0.000427406               0.001386735               0.000959329               0.000000000               0.000000000               0.000000000               0.000000000               0.000036220               0.003702480               0.000191485              -0.000449227               0.001383890               0.000934663               0.000000000               0.000000000               0.000000000               0.000000000              -0.000044889               0.003663509               0.000126923              -0.000474771               0.001379414               0.000904643               0.000000000               0.000000000               0.000000000               0.000000000              -0.000138472               0.003619081               0.000062774              -0.000504311               0.001374452               0.000870141               0.000000000               0.000000000               0.000000000               0.000000000              -0.000208805               0.003581918               0.000023481              -0.000526040               0.001369307               0.000843267               0.000000000               0.000000000               0.000000000               0.000000000               0.000311547               0.000741540               0.000634400               0.000024136               0.000239132               0.000263268               0.000000000               0.000000000               0.000000000               0.000000000               0.000486601               0.001336155               0.000912122               0.000015454               0.000440229               0.000455683               0.000000000               0.000000000               0.000000000               0.000000000               0.000477270               0.002081483               0.001098512              -0.000081210               0.000720890               0.000639680               0.000000000               0.000000000               0.000000000               0.000000000               0.000462339               0.002598680               0.001045387              -0.000151459               0.000916704               0.000765245               0.000000000               0.000000000               0.000000000               0.000000000               0.000455280               0.002953625               0.000931323              -0.000198473               0.001050689               0.000852216               0.000000000               0.000000000               0.000000000               0.000000000               0.000443528               0.003195080               0.000810742              -0.000233062               0.001142703               0.000909641               0.000000000               0.000000000               0.000000000               0.000000000               0.000420095               0.003358951               0.000702428              -0.000262333               0.001207083               0.000944750               0.000000000               0.000000000               0.000000000               0.000000000               0.000391648               0.003472987               0.000616741              -0.000287255               0.001253402               0.000966147               0.000000000               0.000000000               0.000000000               0.000000000               0.000363752               0.003551236               0.000547875              -0.000307497               0.001286233               0.000978736               0.000000000               0.000000000               0.000000000               0.000000000               0.000333616               0.003599531               0.000483846              -0.000324835               0.001308110               0.000983275               0.000000000               0.000000000               0.000000000               0.000000000               0.000295653               0.003628427               0.000420133              -0.000342683               0.001323691               0.000981008               0.000000000               0.000000000               0.000000000               0.000000000               0.000252754               0.003649407               0.000357772              -0.000361392               0.001336921               0.000975528               0.000000000               0.000000000               0.000000000               0.000000000               0.000205934               0.003659432               0.000293246              -0.000380203               0.001346533               0.000966330               0.000000000               0.000000000               0.000000000               0.000000000               0.000149533               0.003650393               0.000226330              -0.000400223               0.001350193               0.000949970               0.000000000               0.000000000               0.000000000               0.000000000               0.000083919               0.003629056               0.000157545              -0.000422161               0.001350394               0.000928232               0.000000000               0.000000000               0.000000000               0.000000000               0.000004061               0.003601683               0.000082055              -0.000448686               0.001350111               0.000901425               0.000000000               0.000000000               0.000000000               0.000000000              -0.000061349               0.003574458               0.000035405              -0.000469812               0.001348078               0.000878266               0.000000000               0.000000000               0.000000000               0.000000000              -0.000036332               0.000403583               0.000393484              -0.000064073               0.000155884               0.000091811               0.000000000               0.000000000               0.000000000               0.000000000               0.000362925               0.000914099               0.000688235               0.000021833               0.000297418               0.000319252               0.000000000               0.000000000               0.000000000               0.000000000               0.000548564               0.001572034               0.000918886               0.000009206               0.000520937               0.000530143               0.000000000               0.000000000               0.000000000               0.000000000               0.000598619               0.002104159               0.000920775              -0.000038539               0.000714225               0.000675686               0.000000000               0.000000000               0.000000000               0.000000000               0.000606599               0.002512339               0.000847847              -0.000086568               0.000866294               0.000779726               0.000000000               0.000000000               0.000000000               0.000000000               0.000591193               0.002816550               0.000752646              -0.000130372               0.000982298               0.000851926               0.000000000               0.000000000               0.000000000               0.000000000               0.000559222               0.003037936               0.000663157              -0.000170034               0.001069313               0.000899279               0.000000000               0.000000000               0.000000000               0.000000000               0.000521268               0.003199408               0.000593508              -0.000204451               0.001134609               0.000930158               0.000000000               0.000000000               0.000000000               0.000000000               0.000480906               0.003318723               0.000534550              -0.000234500               0.001184397               0.000949896               0.000000000               0.000000000               0.000000000               0.000000000               0.000439900               0.003407918               0.000474958              -0.000261027               0.001222970               0.000961943               0.000000000               0.000000000               0.000000000               0.000000000               0.000399614               0.003477925               0.000414730              -0.000284885               0.001254258               0.000969374               0.000000000               0.000000000               0.000000000               0.000000000               0.000360025               0.003534006               0.000357285              -0.000306741               0.001280237               0.000973496               0.000000000               0.000000000               0.000000000               0.000000000               0.000320712               0.003572085               0.000299593              -0.000326243               0.001299431               0.000973188               0.000000000               0.000000000               0.000000000               0.000000000               0.000283528               0.003590117               0.000241316              -0.000342441               0.001310840               0.000968400               0.000000000               0.000000000               0.000000000               0.000000000               0.000245442               0.003593742               0.000177853              -0.000357176               0.001316961               0.000959784               0.000000000               0.000000000               0.000000000               0.000000000               0.000198759               0.003586702               0.000098002              -0.000373802               0.001320156               0.000946354               0.000000000               0.000000000               0.000000000               0.000000000               0.000157749               0.003572223               0.000048691              -0.000387371               0.001319853               0.000932482               0.000000000               0.000000000               0.000000000               0.000000000              -0.000334467               0.000186816               0.000210643              -0.000148777               0.000111863              -0.000036914               0.000000000               0.000000000               0.000000000               0.000000000               0.000246256               0.000603653               0.000454530               0.000016888               0.000195586               0.000212474               0.000000000               0.000000000               0.000000000               0.000000000               0.000603140               0.001163470               0.000659625               0.000080742               0.000360905               0.000441648               0.000000000               0.000000000               0.000000000               0.000000000               0.000717563               0.001689051               0.000687420               0.000057954               0.000543693               0.000601647               0.000000000               0.000000000               0.000000000               0.000000000               0.000742765               0.002129747               0.000650245               0.000012318               0.000705802               0.000718120               0.000000000               0.000000000               0.000000000               0.000000000               0.000728416               0.002476914               0.000587471              -0.000036459               0.000837782               0.000801324               0.000000000               0.000000000               0.000000000               0.000000000               0.000693656               0.002740526               0.000525498              -0.000082445               0.000940981               0.000858536               0.000000000               0.000000000               0.000000000               0.000000000               0.000645911               0.002940787               0.000476491              -0.000125382               0.001022046               0.000896665               0.000000000               0.000000000               0.000000000               0.000000000               0.000593291               0.003097913               0.000434528              -0.000164755               0.001087545               0.000922791               0.000000000               0.000000000               0.000000000               0.000000000               0.000543922               0.003224074               0.000390953              -0.000199038               0.001141027               0.000941989               0.000000000               0.000000000               0.000000000               0.000000000               0.000501379               0.003326626               0.000344637              -0.000227811               0.001184801               0.000956990               0.000000000               0.000000000               0.000000000               0.000000000               0.000465056               0.003410333               0.000299016              -0.000251895               0.001220731               0.000968836               0.000000000               0.000000000               0.000000000               0.000000000               0.000436536               0.003476512               0.000255724              -0.000270862               0.001249113               0.000978251               0.000000000               0.000000000               0.000000000               0.000000000               0.000416782               0.003524871               0.000212737              -0.000284315               0.001269717               0.000985402               0.000000000               0.000000000               0.000000000               0.000000000               0.000404934               0.003557214               0.000162309              -0.000292801               0.001283326               0.000990526               0.000000000               0.000000000               0.000000000               0.000000000               0.000399710               0.003571093               0.000092516              -0.000296494               0.001289184               0.000992689               0.000000000               0.000000000               0.000000000               0.000000000               0.000398903               0.003571759               0.000050257              -0.000296881               0.001289535               0.000992654               0.000000000               0.000000000               0.000000000               0.000000000              -0.000534420               0.000073768               0.000088425              -0.000209629               0.000094465              -0.000115164               0.000000000               0.000000000               0.000000000               0.000000000               0.000166795               0.000419554               0.000225832               0.000010103               0.000136482               0.000146585               0.000000000               0.000000000               0.000000000               0.000000000               0.000639603               0.000900986               0.000345128               0.000127226               0.000257917               0.000385143               0.000000000               0.000000000               0.000000000               0.000000000               0.000803608               0.001412550               0.000368872               0.000124783               0.000429251               0.000554034               0.000000000               0.000000000               0.000000000               0.000000000               0.000840114               0.001869321               0.000354289               0.000081377               0.000595975               0.000677352               0.000000000               0.000000000               0.000000000               0.000000000               0.000824017               0.002239787               0.000322037               0.000029033               0.000736911               0.000765943               0.000000000               0.000000000               0.000000000               0.000000000               0.000787972               0.002526794               0.000290567              -0.000020360               0.000849043               0.000828683               0.000000000               0.000000000               0.000000000               0.000000000               0.000738750               0.002751251               0.000266351              -0.000066875               0.000939366               0.000872491               0.000000000               0.000000000               0.000000000               0.000000000               0.000683340               0.002935557               0.000245629              -0.000110692               0.001015407               0.000904714               0.000000000               0.000000000               0.000000000               0.000000000               0.000629289               0.003088324               0.000223641              -0.000150057               0.001079450               0.000929393               0.000000000               0.000000000               0.000000000               0.000000000               0.000583812               0.003210518               0.000198335              -0.000182385               0.001130957               0.000948572               0.000000000               0.000000000               0.000000000               0.000000000               0.000550812               0.003308719               0.000173306              -0.000207035               0.001171907               0.000964872               0.000000000               0.000000000               0.000000000               0.000000000               0.000531657               0.003390296               0.000149642              -0.000224415               0.001204893               0.000980477               0.000000000               0.000000000               0.000000000               0.000000000               0.000525314               0.003457996               0.000124705              -0.000235256               0.001231073               0.000995816               0.000000000               0.000000000               0.000000000               0.000000000               0.000534700               0.003513406               0.000095341              -0.000238663               0.001250678               0.001012015               0.000000000               0.000000000               0.000000000               0.000000000               0.000564942               0.003550531               0.000054352              -0.000231962               0.001260819               0.001028857               0.000000000               0.000000000               0.000000000               0.000000000               0.000599775               0.003567782               0.000030243              -0.000221057               0.001262935               0.001041878               0.000000000               0.000000000               0.000000000               0.000000000               0.000000000               0.000000000               0.000000000               0.000000000               0.000000000               0.000000000               0.000000000               0.000000000               0.000000000               0.000000000               0.000000000               0.000000000               0.000000000               0.000000000               0.000000000               0.000000000               0.000000000               0.000000000               0.000000000               0.000000000               0.000000000               0.000000000               0.000000000               0.000000000               0.000000000               0.000000000               0.000000000               0.000000000               0.000000000               0.000000000               0.000000000               0.000000000               0.000000000               0.000000000               0.000000000               0.000000000               0.000000000               0.000000000               0.000000000               0.000000000               0.000000000               0.000000000               0.000000000               0.000000000               0.000000000               0.000000000               0.000000000               0.000000000               0.000000000               0.000000000               0.000000000               0.000000000               0.000000000               0.000000000               0.000000000               0.000000000               0.000000000               0.000000000               0.000000000               0.000000000               0.000000000               0.000000000               0.000000000               0.000000000               0.000000000               0.000000000               0.000000000               0.000000000               0.000000000               0.000000000               0.000000000               0.000000000               0.000000000               0.000000000               0.000000000               0.000000000               0.000000000               0.000000000               0.000000000               0.000000000               0.000000000               0.000000000               0.000000000               0.000000000               0.000000000               0.000000000               0.000000000               0.000000000               0.000000000               0.000000000               0.000000000               0.000000000               0.000000000               0.000000000               0.000000000               0.000000000               0.000000000               0.000000000               0.000000000               0.000000000               0.000000000               0.000000000               0.000000000               0.000000000               0.000000000               0.000000000               0.000000000               0.000000000               0.000000000               0.000000000               0.000000000               0.000000000               0.000000000               0.000000000               0.000000000               0.000000000               0.000000000               0.000000000               0.000000000               0.000000000               0.000000000               0.000000000               0.000000000               0.000000000               0.000000000               0.000000000               0.000000000               0.000000000               0.000000000               0.000000000               0.000000000               0.000000000               0.000000000               0.000000000               0.000000000               0.000000000               0.000000000               0.000000000               0.000000000               0.000000000               0.000000000               0.000000000               0.000000000               0.000000000               0.000000000               0.000000000               0.000000000               0.000000000               0.000000000               0.000000000               0.000000000               0.000000000               0.000000000               0.000000000               0.000000000               0.000000000               0.000000000               0.000000000               0.000000000               0.000000000               0.000000000               0.000000000               0.000000000               0.000000000               0.000000000               0.000000000               0.000000000               0.000000000               0.000000000               0.000000000 </DataArray>
</PointData>
</Piece>
</UnstructuredGrid> </VTKFile>
